0 1 1.0
0 2 2.0
0 3 1.0
0 4 2.0
0 5 1.0
0 6 6.0
0 7 6.0
0 8 1.0
0 9 4.0
0 134 3.0
0 201 2.0
1 7 3.0
1 10 1.0
1 12 2.0
1 16 6.0
1 72 2.0
1 74 1.0
1 84 3.0
1 101 1.0
1 102 4.0
1 108 9.0
1 113 11.0
1 115 2.0
1 116 5.0
1 124 1.0
1 127 2.0
1 129 2.0
1 130 16.0
1 131 2.0
1 135 7.0
1 136 1.0
1 138 1.0
1 140 3.0
1 141 3.0
1 142 1.0
1 193 1.0
1 195 2.0
1 214 1.0
1 241 2.0
2 4 48.0
2 7 2.0
2 8 1.0
2 12 6.0
2 16 4.0
2 20 6.0
2 21 3.0
2 63 3.0
2 67 2.0
2 72 3.0
2 84 25.0
2 86 2.0
2 87 1.0
2 89 1.0
2 98 2.0
2 99 1.0
2 101 1.0
2 109 5.0
2 111 2.0
2 114 1.0
2 118 72.0
2 121 2.0
2 125 37.0
2 129 18.0
2 151 1.0
2 152 4.0
2 153 9.0
2 154 3.0
2 155 2.0
2 156 2.0
2 157 4.0
2 158 2.0
2 159 4.0
2 160 4.0
2 161 9.0
2 162 12.0
2 163 9.0
2 164 2.0
2 165 7.0
2 166 14.0
2 167 5.0
2 168 2.0
2 169 2.0
2 170 4.0
2 172 10.0
2 173 1.0
2 175 10.0
2 176 14.0
2 177 2.0
2 178 3.0
2 179 4.0
2 180 4.0
2 181 6.0
2 182 4.0
2 183 2.0
2 184 12.0
2 185 2.0
2 186 2.0
2 193 7.0
2 194 7.0
2 201 3.0
2 203 2.0
2 204 6.0
2 207 6.0
2 212 11.0
2 220 1.0
2 224 4.0
2 225 2.0
2 226 1.0
2 239 3.0
2 248 27.0
2 255 6.0
2 257 7.0
3 5 4.0
3 7 4.0
3 8 1.0
3 11 4.0
3 12 48.0
3 14 2.0
3 27 4.0
3 31 14.0
3 50 1.0
3 58 5.0
3 62 1.0
3 63 1.0
3 65 3.0
3 82 2.0
3 86 3.0
3 90 8.0
3 91 6.0
3 92 2.0
3 93 2.0
3 98 4.0
3 101 1.0
3 106 1.0
3 108 4.0
3 111 1.0
3 114 1.0
3 117 1.0
3 125 3.0
3 137 8.0
3 151 5.0
3 154 2.0
3 155 1.0
3 159 12.0
3 160 6.0
3 161 4.0
3 162 1.0
3 168 2.0
3 172 3.0
3 173 8.0
3 178 2.0
3 179 5.0
3 180 1.0
3 182 1.0
3 186 17.0
3 189 1.0
3 195 1.0
3 196 6.0
3 197 1.0
3 213 2.0
3 216 1.0
3 224 3.0
3 239 1.0
4 8 2.0
4 9 2.0
4 14 5.0
4 15 3.0
4 18 19.0
4 31 1.0
4 41 2.0
4 52 1.0
4 53 5.0
4 67 1.0
4 71 5.0
4 76 3.0
4 82 2.0
4 84 3.0
4 87 3.0
4 90 6.0
4 92 2.0
4 99 3.0
4 102 4.0
4 108 1.0
4 109 2.0
4 118 1.0
4 119 4.0
4 125 1.0
4 137 6.0
4 149 1.0
4 151 5.0
4 154 2.0
4 155 1.0
4 159 12.0
4 160 6.0
4 161 4.0
4 162 1.0
4 168 2.0
4 172 2.0
4 173 8.0
4 174 17.0
4 178 2.0
4 179 5.0
4 180 1.0
4 182 1.0
4 187 1.0
4 189 1.0
4 195 1.0
4 196 6.0
4 197 1.0
4 203 1.0
4 204 3.0
4 207 3.0
4 213 1.0
4 224 2.0
4 226 1.0
5 8 9.0
5 9 1.0
5 10 1.0
5 11 1.0
5 12 3.0
5 13 4.0
5 14 4.0
5 59 1.0
5 70 1.0
5 103 1.0
5 127 3.0
5 201 2.0
6 7 2.0
6 13 1.0
6 23 12.0
6 25 1.0
6 27 1.0
6 30 2.0
6 34 3.0
6 35 8.0
6 43 5.0
6 46 9.0
6 47 8.0
6 48 14.0
6 50 1.0
6 52 4.0
6 59 9.0
6 72 1.0
6 73 7.0
6 74 11.0
6 75 11.0
6 77 20.0
6 88 1.0
6 91 1.0
6 94 1.0
6 99 10.0
6 103 1.0
6 105 12.0
6 107 4.0
6 108 7.0
6 109 2.0
6 110 1.0
6 111 2.0
6 135 1.0
6 137 2.0
6 201 2.0
6 209 2.0
7 9 1.0
7 31 10.0
7 58 1.0
7 59 5.0
7 60 1.0
7 73 1.0
7 82 1.0
7 90 6.0
7 91 1.0
7 99 12.0
7 107 4.0
7 130 1.0
7 134 2.0
8 14 1.0
8 36 3.0
8 63 5.0
8 65 2.0
8 67 7.0
8 102 2.0
8 103 2.0
8 108 1.0
8 123 1.0
8 193 6.0
8 195 2.0
8 203 2.0
8 213 1.0
8 214 1.0
8 235 1.0
9 24 4.0
9 52 2.0
9 63 6.0
9 67 4.0
9 103 1.0
9 105 2.0
9 108 2.0
9 111 1.0
9 193 5.0
9 195 3.0
9 213 4.0
9 218 1.0
9 236 1.0
10 13 5.0
10 14 5.0
10 102 13.0
10 115 4.0
10 124 5.0
10 126 7.0
10 135 12.0
10 136 2.0
10 138 14.0
10 142 1.0
10 208 4.0
11 12 2.0
11 13 6.0
11 14 10.0
11 54 1.0
11 65 7.0
11 100 3.0
11 103 1.0
11 118 1.0
11 137 1.0
12 14 1.0
12 16 3.0
12 20 5.0
12 21 5.0
12 63 2.0
12 67 5.0
12 84 2.0
12 85 1.0
12 86 25.0
12 91 1.0
12 93 1.0
12 95 5.0
12 111 1.0
12 116 2.0
12 117 72.0
12 119 2.0
12 125 7.0
12 129 13.0
12 130 2.0
12 131 5.0
12 132 1.0
12 137 3.0
12 138 1.0
12 151 1.0
12 152 4.0
12 153 9.0
12 154 3.0
12 155 2.0
12 156 2.0
12 157 4.0
12 158 2.0
12 159 4.0
12 160 4.0
12 161 9.0
12 162 12.0
12 163 9.0
12 164 2.0
12 165 7.0
12 166 14.0
12 167 5.0
12 168 3.0
12 169 2.0
12 170 10.0
12 171 2.0
12 172 36.0
12 173 1.0
12 174 2.0
12 175 10.0
12 176 14.0
12 177 2.0
12 178 3.0
12 179 4.0
12 180 4.0
12 181 6.0
12 182 4.0
12 183 2.0
12 184 3.0
12 193 5.0
12 194 7.0
12 201 5.0
12 203 2.0
12 211 15.0
12 224 10.0
12 226 3.0
12 239 2.0
12 241 2.0
12 247 27.0
12 255 9.0
12 256 1.0
12 257 7.0
12 258 1.0
12 261 5.0
13 14 3.0
13 23 10.0
13 34 3.0
13 35 6.0
13 43 7.0
13 46 10.0
13 47 11.0
13 48 10.0
13 53 1.0
13 59 12.0
13 63 1.0
13 65 8.0
13 70 1.0
13 73 10.0
13 74 10.0
13 75 20.0
13 77 6.0
13 88 1.0
13 100 12.0
13 102 7.0
13 103 6.0
13 114 1.0
13 116 4.0
13 120 3.0
13 137 1.0
13 138 2.0
13 201 3.0
13 209 5.0
14 18 7.0
14 53 2.0
14 54 1.0
14 59 5.0
14 60 1.0
14 71 2.0
14 75 2.0
14 76 1.0
14 86 1.0
14 90 3.0
14 114 5.0
14 118 1.0
14 127 1.0
14 132 1.0
14 134 1.0
14 193 1.0
15 16 1.0
15 17 2.0
15 18 6.0
15 19 5.0
15 20 6.0
15 21 4.0
15 22 1.0
15 23 3.0
15 24 1.0
15 25 2.0
15 26 2.0
15 59 1.0
15 90 2.0
15 216 1.0
16 19 1.0
16 22 1.0
16 73 2.0
16 84 1.0
16 92 1.0
16 98 2.0
16 113 5.0
16 114 1.0
16 115 3.0
16 116 2.0
16 117 1.0
16 118 4.0
16 119 1.0
16 120 2.0
16 241 1.0
17 18 1.0
17 19 2.0
17 22 7.0
17 23 11.0
17 41 1.0
17 42 1.0
17 44 10.0
17 53 2.0
17 70 6.0
18 23 7.0
18 35 1.0
18 43 1.0
18 47 2.0
18 51 2.0
18 63 2.0
18 71 4.0
18 72 2.0
18 73 3.0
18 74 4.0
18 75 4.0
18 76 1.0
19 20 1.0
19 22 2.0
19 46 4.0
19 59 5.0
19 62 8.0
19 70 2.0
19 80 3.0
19 100 1.0
20 27 2.0
20 58 4.0
20 62 1.0
20 65 1.0
20 68 1.0
20 71 1.0
20 73 3.0
20 74 4.0
20 75 1.0
20 89 2.0
20 121 1.0
20 130 2.0
20 132 1.0
20 209 1.0
20 210 1.0
21 27 4.0
21 32 1.0
21 52 1.0
21 55 1.0
21 57 1.0
21 58 2.0
21 68 1.0
21 69 1.0
21 71 3.0
21 73 2.0
21 74 3.0
21 75 1.0
21 77 2.0
21 83 1.0
21 85 1.0
21 106 1.0
21 121 1.0
21 239 1.0
22 26 3.0
22 40 3.0
22 42 4.0
22 54 9.0
22 55 2.0
22 56 3.0
22 59 5.0
22 70 11.0
22 71 2.0
22 101 2.0
22 116 1.0
23 41 3.0
23 43 1.0
23 44 8.0
23 46 17.0
23 48 1.0
23 50 3.0
23 53 4.0
23 58 1.0
23 68 3.0
23 75 2.0
23 82 2.0
23 90 1.0
23 91 1.0
23 209 1.0
23 240 1.0
24 44 8.0
24 48 1.0
24 58 4.0
24 63 1.0
24 241 2.0
25 83 1.0
25 93 1.0
25 190 1.0
25 209 2.0
26 44 9.0
26 49 1.0
26 51 1.0
26 64 2.0
26 70 4.0
27 28 1.0
27 29 2.0
27 30 1.0
27 31 11.0
27 32 3.0
27 33 1.0
27 34 1.0
27 35 2.0
27 36 2.0
27 37 2.0
27 38 1.0
27 39 1.0
27 59 2.0
27 90 1.0
27 240 1.0
28 110 1.0
28 114 2.0
28 122 10.0
28 134 1.0
28 150 2.0
29 30 6.0
29 31 1.0
29 32 1.0
29 33 8.0
29 35 11.0
29 42 1.0
29 44 10.0
29 50 1.0
29 91 1.0
30 32 3.0
30 33 14.0
30 38 3.0
30 49 2.0
30 51 3.0
30 52 1.0
30 59 4.0
30 64 3.0
31 35 10.0
31 45 3.0
31 46 3.0
31 47 3.0
31 48 1.0
31 49 2.0
31 58 8.0
31 66 3.0
31 67 2.0
31 73 1.0
31 74 1.0
31 75 3.0
31 77 3.0
31 90 1.0
31 121 1.0
31 211 1.0
32 33 1.0
32 43 3.0
32 49 1.0
32 52 1.0
32 59 8.0
32 66 7.0
32 81 3.0
33 38 4.0
33 42 3.0
33 45 7.0
33 52 3.0
33 57 12.0
33 59 5.0
33 61 3.0
33 68 2.0
33 106 1.0
33 205 1.0
34 37 3.0
34 43 1.0
34 44 4.0
34 47 2.0
34 63 1.0
34 72 3.0
34 74 1.0
34 77 1.0
34 112 1.0
35 43 16.0
35 44 10.0
35 47 1.0
35 50 4.0
35 55 4.0
35 56 1.0
35 76 4.0
35 77 1.0
35 83 1.0
35 91 4.0
35 216 1.0
36 44 7.0
36 49 1.0
36 68 1.0
36 71 4.0
36 93 2.0
36 236 1.0
36 241 1.0
37 52 1.0
37 69 1.0
37 190 1.0
37 213 1.0
38 43 1.0
38 44 9.0
38 49 2.0
38 50 1.0
38 64 2.0
38 66 1.0
39 59 1.0
39 92 3.0
39 127 1.0
39 134 1.0
39 145 1.0
39 148 1.0
39 149 2.0
39 150 1.0
39 225 1.0
40 41 2.0
40 42 2.0
40 43 6.0
40 44 4.0
40 54 7.0
40 56 2.0
40 71 4.0
41 43 4.0
41 44 10.0
41 46 2.0
41 47 1.0
41 48 3.0
41 49 1.0
41 62 1.0
41 63 1.0
41 71 1.0
41 83 1.0
42 45 1.0
42 77 1.0
42 84 4.0
42 86 3.0
42 98 2.0
42 119 2.0
42 125 1.0
42 137 3.0
42 167 1.0
42 168 1.0
42 171 2.0
42 172 2.0
42 173 1.0
42 184 1.0
42 185 3.0
42 206 3.0
42 217 2.0
42 218 1.0
42 232 1.0
43 44 7.0
43 50 1.0
43 71 3.0
43 76 5.0
43 87 1.0
43 91 3.0
43 93 4.0
44 45 8.0
44 46 9.0
44 47 11.0
44 48 4.0
44 49 14.0
44 50 12.0
44 51 11.0
44 56 6.0
44 60 10.0
44 61 6.0
44 64 5.0
44 73 3.0
44 74 3.0
44 75 3.0
44 77 2.0
44 85 9.0
44 87 3.0
44 89 9.0
44 93 5.0
44 96 1.0
44 97 29.0
44 104 4.0
44 112 4.0
44 130 4.0
44 132 4.0
44 133 5.0
44 142 24.0
44 151 1.0
44 152 15.0
44 153 15.0
44 154 15.0
44 155 15.0
44 156 15.0
44 157 15.0
44 158 15.0
44 159 10.0
44 160 29.0
44 161 29.0
44 162 29.0
44 163 29.0
44 164 29.0
44 165 29.0
44 166 29.0
44 167 29.0
44 168 22.0
44 169 22.0
44 175 10.0
44 176 10.0
44 177 14.0
44 178 10.0
44 179 31.0
44 180 10.0
44 181 10.0
44 182 10.0
44 183 8.0
44 187 6.0
44 188 10.0
44 189 25.0
44 191 25.0
44 192 22.0
44 195 5.0
44 196 10.0
44 197 8.0
44 199 2.0
44 200 8.0
44 202 2.0
44 204 7.0
44 207 7.0
44 209 5.0
44 210 4.0
44 214 5.0
44 219 29.0
44 221 8.0
44 227 8.0
44 230 22.0
44 231 25.0
44 232 22.0
44 233 29.0
44 234 25.0
44 237 23.0
44 238 10.0
44 244 10.0
44 245 8.0
44 246 30.0
44 249 8.0
44 250 1.0
44 251 1.0
44 253 22.0
44 254 18.0
44 262 18.0
44 263 18.0
44 264 18.0
44 265 18.0
44 266 18.0
44 267 18.0
44 268 25.0
44 269 25.0
44 270 15.0
44 271 25.0
44 272 15.0
44 273 25.0
44 274 15.0
44 275 29.0
44 276 29.0
44 277 29.0
44 278 22.0
44 279 10.0
44 280 18.0
44 281 18.0
44 282 4.0
44 283 8.0
44 284 11.0
44 285 1.0
44 286 1.0
44 287 1.0
44 288 1.0
44 289 1.0
44 290 1.0
44 291 1.0
44 292 1.0
44 293 1.0
44 294 1.0
45 46 8.0
45 50 1.0
45 57 7.0
45 58 5.0
46 50 4.0
46 53 2.0
46 58 2.0
46 61 1.0
46 79 1.0
46 82 4.0
46 87 4.0
46 209 1.0
47 48 3.0
47 50 4.0
47 62 3.0
47 63 2.0
47 66 1.0
47 69 1.0
47 87 3.0
47 90 2.0
47 93 1.0
47 130 2.0
47 132 1.0
47 214 6.0
48 50 1.0
48 52 1.0
48 62 1.0
48 67 2.0
48 69 1.0
48 87 3.0
48 90 5.0
48 92 1.0
48 93 3.0
48 130 1.0
48 132 3.0
48 209 1.0
48 210 2.0
48 213 1.0
48 214 1.0
49 54 4.0
49 57 2.0
49 59 1.0
49 61 1.0
49 62 2.0
49 70 5.0
50 51 2.0
50 52 1.0
50 58 1.0
50 66 1.0
50 69 3.0
51 54 4.0
51 56 1.0
51 57 3.0
51 66 2.0
51 70 2.0
52 69 7.0
52 84 1.0
52 86 1.0
52 87 1.0
52 99 5.0
52 103 2.0
52 105 1.0
53 59 1.0
53 75 4.0
53 78 1.0
53 86 1.0
53 90 1.0
54 55 2.0
54 56 3.0
55 59 3.0
55 62 6.0
55 71 6.0
55 78 3.0
56 71 2.0
56 225 1.0
57 58 1.0
57 59 1.0
57 60 1.0
57 61 3.0
58 59 1.0
58 61 1.0
58 67 1.0
58 68 5.0
58 69 3.0
58 82 1.0
58 85 1.0
58 87 1.0
58 88 1.0
58 90 2.0
58 95 1.0
58 240 1.0
59 62 9.0
59 63 2.0
59 64 1.0
59 66 6.0
59 67 1.0
59 68 3.0
59 70 2.0
59 71 1.0
59 91 1.0
59 99 1.0
59 102 6.0
59 105 1.0
59 108 4.0
59 195 1.0
60 61 1.0
60 85 3.0
60 89 4.0
60 96 1.0
61 82 1.0
61 95 1.0
62 63 4.0
62 64 2.0
62 65 2.0
63 67 2.0
63 71 1.0
63 81 1.0
63 83 1.0
63 85 1.0
63 93 3.0
63 94 1.0
63 95 1.0
63 101 1.0
63 129 3.0
63 209 1.0
63 215 1.0
63 225 5.0
64 66 1.0
64 70 1.0
64 74 1.0
64 104 5.0
64 112 3.0
64 195 1.0
64 209 1.0
65 83 4.0
65 84 2.0
65 93 1.0
65 98 2.0
65 103 5.0
65 201 1.0
66 67 2.0
66 68 1.0
66 69 2.0
67 87 2.0
67 95 1.0
67 98 1.0
67 106 1.0
67 118 1.0
67 129 3.0
67 206 3.0
67 212 1.0
67 218 1.0
67 224 4.0
68 79 2.0
69 86 1.0
69 87 1.0
69 88 1.0
69 89 1.0
71 76 2.0
71 83 3.0
71 89 1.0
71 90 2.0
71 93 4.0
71 94 1.0
71 216 3.0
72 93 1.0
72 95 1.0
72 112 4.0
72 114 1.0
72 130 5.0
72 132 5.0
72 133 4.0
72 137 1.0
72 213 1.0
72 214 1.0
72 222 3.0
73 75 3.0
73 76 1.0
73 82 4.0
73 90 1.0
73 114 3.0
73 130 2.0
73 209 2.0
73 212 6.0
73 218 1.0
74 76 2.0
74 77 4.0
74 82 1.0
74 90 1.0
74 130 3.0
74 132 5.0
74 211 6.0
74 218 2.0
74 236 1.0
75 90 1.0
75 106 2.0
75 209 3.0
75 218 1.0
77 90 1.0
77 91 3.0
77 101 2.0
77 132 1.0
77 235 1.0
77 236 1.0
78 91 1.0
78 93 2.0
78 125 2.0
78 190 1.0
78 206 1.0
79 91 1.0
79 172 1.0
79 190 1.0
80 190 1.0
81 190 1.0
83 84 1.0
83 85 1.0
84 86 4.0
84 98 4.0
84 101 4.0
84 106 3.0
84 111 3.0
84 116 6.0
84 117 1.0
84 118 3.0
84 119 1.0
84 120 1.0
84 121 1.0
84 123 1.0
84 125 4.0
84 129 4.0
84 130 2.0
84 132 2.0
84 137 1.0
84 142 1.0
84 151 1.0
84 152 2.0
84 155 2.0
84 156 2.0
84 157 1.0
84 158 2.0
84 163 1.0
84 172 9.0
84 175 1.0
84 180 1.0
84 187 1.0
84 188 1.0
84 189 1.0
84 190 6.0
84 193 1.0
84 199 1.0
84 201 4.0
84 202 5.0
84 203 5.0
84 205 1.0
84 206 6.0
84 213 1.0
84 215 10.0
84 224 4.0
84 226 4.0
84 241 5.0
85 108 5.0
85 120 1.0
85 137 2.0
85 195 1.0
85 198 2.0
85 211 2.0
85 218 1.0
85 235 2.0
86 87 1.0
86 93 2.0
86 98 1.0
86 101 5.0
86 106 4.0
86 109 3.0
86 110 2.0
86 111 7.0
86 114 3.0
86 117 3.0
86 118 1.0
86 119 5.0
86 121 2.0
86 125 16.0
86 129 5.0
86 130 5.0
86 132 3.0
86 149 2.0
86 151 1.0
86 152 2.0
86 155 2.0
86 156 2.0
86 157 1.0
86 158 2.0
86 163 1.0
86 172 6.0
86 175 1.0
86 180 1.0
86 187 1.0
86 188 1.0
86 189 1.0
86 190 6.0
86 191 1.0
86 198 2.0
86 199 8.0
86 201 5.0
86 203 6.0
86 204 3.0
86 205 16.0
86 206 5.0
86 207 3.0
86 215 1.0
86 224 2.0
86 241 4.0
87 103 1.0
87 106 1.0
87 109 3.0
87 117 1.0
87 119 1.0
87 142 1.0
87 150 2.0
87 214 1.0
87 236 1.0
88 190 1.0
88 240 1.0
89 102 4.0
89 105 1.0
89 123 1.0
89 137 3.0
89 212 2.0
89 236 1.0
90 91 1.0
90 119 2.0
90 125 2.0
90 130 5.0
90 132 3.0
90 187 2.0
90 213 1.0
90 218 3.0
90 239 2.0
93 101 1.0
93 104 2.0
93 114 1.0
93 131 1.0
93 141 1.0
93 145 1.0
93 216 2.0
93 235 1.0
94 190 1.0
95 119 2.0
95 125 2.0
95 142 9.0
95 172 2.0
95 198 1.0
95 204 4.0
95 206 4.0
95 207 7.0
95 240 6.0
95 241 1.0
96 97 1.0
96 125 5.0
96 127 1.0
96 172 4.0
96 206 1.0
97 165 1.0
97 166 3.0
97 167 1.0
97 176 8.0
97 177 2.0
97 187 2.0
97 195 4.0
97 221 1.0
97 227 1.0
97 250 1.0
97 251 1.0
97 253 4.0
97 254 15.0
97 278 9.0
97 280 15.0
98 101 4.0
98 118 4.0
98 119 1.0
98 121 2.0
98 123 2.0
98 125 2.0
98 145 1.0
98 150 1.0
98 172 4.0
98 184 1.0
98 186 1.0
98 191 1.0
98 198 2.0
98 202 5.0
98 204 7.0
98 205 2.0
98 206 2.0
98 207 8.0
98 215 2.0
98 225 1.0
98 226 1.0
98 256 1.0
99 105 3.0
99 107 1.0
99 134 1.0
99 137 1.0
100 101 1.0
100 102 13.0
100 103 2.0
100 104 2.0
100 116 3.0
100 120 8.0
101 113 1.0
101 114 2.0
101 132 3.0
101 203 1.0
101 208 1.0
101 224 1.0
102 103 6.0
102 104 7.0
102 113 4.0
102 114 7.0
102 120 7.0
102 132 3.0
102 135 1.0
102 136 2.0
102 137 4.0
102 142 1.0
102 191 2.0
102 208 10.0
103 105 3.0
103 108 5.0
103 110 2.0
103 116 1.0
103 123 3.0
103 137 4.0
103 139 1.0
103 191 1.0
103 198 3.0
103 201 1.0
104 123 1.0
104 131 3.0
104 137 3.0
104 149 1.0
104 222 1.0
104 223 6.0
105 106 1.0
105 107 2.0
105 108 8.0
105 109 3.0
105 110 6.0
105 111 2.0
105 112 2.0
105 135 1.0
105 139 3.0
105 198 3.0
106 109 1.0
106 119 3.0
106 122 1.0
106 130 5.0
106 209 1.0
107 108 6.0
107 115 12.0
107 124 9.0
107 128 11.0
107 135 6.0
107 139 3.0
107 191 1.0
108 110 4.0
108 112 3.0
108 114 1.0
108 122 2.0
108 130 4.0
108 137 2.0
108 139 7.0
108 142 1.0
108 191 1.0
109 111 1.0
109 114 3.0
109 117 5.0
109 118 1.0
109 121 3.0
109 122 9.0
109 142 1.0
109 143 1.0
109 191 2.0
109 205 2.0
110 112 1.0
110 139 2.0
110 191 2.0
110 198 1.0
111 125 5.0
111 130 1.0
111 145 1.0
111 172 7.0
111 187 5.0
111 190 3.0
111 193 2.0
111 195 2.0
111 198 4.0
111 201 1.0
111 205 4.0
111 226 1.0
111 233 1.0
112 137 2.0
112 198 2.0
112 222 5.0
112 223 3.0
113 115 6.0
113 116 7.0
113 124 1.0
113 127 2.0
113 135 4.0
113 138 2.0
113 140 10.0
113 141 14.0
113 145 6.0
113 149 7.0
113 191 3.0
113 215 1.0
114 115 7.0
114 120 1.0
114 121 11.0
114 122 12.0
114 124 3.0
114 129 2.0
114 130 1.0
114 131 1.0
114 132 14.0
114 133 2.0
114 135 3.0
114 138 1.0
114 142 1.0
114 147 1.0
114 193 3.0
114 195 5.0
114 210 1.0
114 224 1.0
114 239 1.0
115 121 1.0
115 122 4.0
115 124 2.0
115 126 3.0
115 127 3.0
115 128 2.0
115 136 1.0
115 138 1.0
115 139 3.0
116 117 2.0
116 118 4.0
116 132 1.0
116 141 1.0
116 142 2.0
116 191 1.0
117 118 4.0
117 119 3.0
117 121 5.0
117 125 4.0
117 129 6.0
117 142 3.0
117 149 1.0
117 151 1.0
117 152 2.0
117 153 2.0
117 156 1.0
117 157 1.0
117 159 3.0
117 160 2.0
117 161 6.0
117 162 4.0
117 163 3.0
117 166 1.0
117 167 1.0
117 170 7.0
117 172 6.0
117 173 3.0
117 176 1.0
117 178 1.0
117 179 3.0
117 181 1.0
117 182 2.0
117 184 1.0
117 186 6.0
117 191 3.0
117 192 1.0
117 193 1.0
117 194 1.0
117 198 1.0
117 201 1.0
117 224 10.0
117 226 1.0
117 255 1.0
117 256 1.0
117 257 1.0
117 261 4.0
118 121 2.0
118 123 1.0
118 125 6.0
118 129 14.0
118 149 1.0
118 150 1.0
118 151 1.0
118 152 2.0
118 153 2.0
118 156 1.0
118 157 1.0
118 159 3.0
118 160 2.0
118 161 6.0
118 162 4.0
118 163 3.0
118 166 1.0
118 167 1.0
118 170 2.0
118 172 2.0
118 173 3.0
118 174 6.0
118 176 1.0
118 178 1.0
118 179 3.0
118 181 1.0
118 182 2.0
118 184 6.0
118 192 1.0
118 193 1.0
118 194 24.0
118 201 1.0
118 203 2.0
118 204 6.0
118 207 6.0
118 216 1.0
118 220 1.0
118 224 2.0
118 226 1.0
118 228 1.0
118 257 1.0
119 123 2.0
119 125 4.0
119 130 1.0
119 142 2.0
119 148 1.0
119 149 1.0
119 170 1.0
119 172 3.0
119 174 1.0
119 191 2.0
119 198 4.0
119 199 5.0
119 201 1.0
119 204 4.0
119 205 2.0
119 207 3.0
119 220 1.0
120 142 1.0
120 191 2.0
120 208 1.0
121 122 11.0
121 123 3.0
121 124 4.0
121 125 2.0
122 124 3.0
122 138 4.0
122 139 1.0
122 143 3.0
122 147 11.0
122 148 7.0
122 150 4.0
122 205 2.0
123 145 2.0
123 149 2.0
123 198 4.0
123 199 5.0
123 200 1.0
123 201 1.0
123 202 11.0
123 203 6.0
123 215 1.0
123 228 1.0
123 229 1.0
123 259 1.0
124 135 2.0
124 136 2.0
124 138 2.0
124 143 2.0
125 137 9.0
125 151 1.0
125 154 2.0
125 160 1.0
125 168 5.0
125 169 3.0
125 171 3.0
125 172 4.0
125 177 2.0
125 184 1.0
125 187 1.0
125 192 7.0
125 201 1.0
125 205 1.0
125 206 4.0
125 216 4.0
125 217 2.0
125 224 2.0
125 225 2.0
125 226 1.0
125 232 4.0
125 248 28.0
125 253 4.0
125 254 1.0
125 255 13.0
125 256 2.0
125 257 6.0
125 258 2.0
125 262 1.0
125 263 4.0
125 264 1.0
125 265 5.0
125 266 3.0
125 267 2.0
126 127 6.0
126 208 5.0
127 140 1.0
128 134 5.0
128 139 9.0
129 137 1.0
129 172 1.0
129 224 2.0
129 239 1.0
130 131 5.0
130 137 1.0
130 142 1.0
130 198 1.0
130 205 4.0
130 210 2.0
130 211 12.0
130 212 4.0
130 213 2.0
130 215 1.0
130 218 3.0
131 132 3.0
131 133 9.0
131 209 2.0
131 218 1.0
131 223 5.0
131 225 2.0
132 133 1.0
132 191 2.0
132 210 1.0
132 211 5.0
132 212 6.0
132 213 2.0
132 215 2.0
132 218 3.0
133 137 1.0
133 173 1.0
133 178 1.0
133 179 1.0
133 196 4.0
133 197 1.0
133 200 2.0
133 202 1.0
133 214 2.0
133 219 1.0
133 224 1.0
134 135 2.0
135 136 1.0
135 138 4.0
135 139 1.0
135 143 2.0
135 208 4.0
136 138 2.0
136 141 2.0
137 168 3.0
137 169 1.0
137 171 61.0
137 172 4.0
137 177 1.0
137 185 63.0
137 192 1.0
137 201 4.0
137 211 1.0
137 212 1.0
137 213 1.0
137 217 3.0
137 218 1.0
137 224 1.0
137 228 2.0
137 229 2.0
137 232 1.0
137 241 3.0
137 247 3.0
137 248 3.0
137 253 2.0
137 254 2.0
137 258 5.0
137 259 7.0
137 261 5.0
138 143 1.0
139 147 1.0
139 205 2.0
140 141 1.0
140 149 2.0
140 208 1.0
141 144 5.0
141 145 4.0
141 149 4.0
141 191 1.0
142 146 1.0
142 148 2.0
142 150 2.0
142 157 1.0
142 163 2.0
142 164 1.0
142 169 1.0
142 173 1.0
142 181 1.0
142 182 1.0
142 186 3.0
142 191 4.0
142 199 2.0
142 202 2.0
142 204 2.0
142 205 4.0
142 238 5.0
142 244 5.0
142 245 3.0
142 261 2.0
142 282 1.0
142 284 1.0
144 145 14.0
145 149 1.0
145 187 1.0
145 191 3.0
145 193 1.0
145 195 1.0
145 199 1.0
145 200 1.0
145 202 2.0
145 218 1.0
145 219 1.0
145 226 1.0
145 228 2.0
145 229 2.0
145 284 1.0
146 147 4.0
146 148 13.0
146 150 2.0
146 191 1.0
147 148 4.0
147 150 3.0
148 187 1.0
148 193 1.0
148 195 1.0
148 198 2.0
148 199 1.0
148 200 1.0
148 203 1.0
148 205 1.0
148 213 1.0
148 219 1.0
148 226 1.0
148 245 3.0
149 198 1.0
149 199 1.0
149 202 4.0
149 215 1.0
149 216 1.0
150 191 1.0
150 199 2.0
150 202 3.0
150 205 1.0
151 159 1.0
151 172 1.0
151 187 1.0
151 200 1.0
151 230 1.0
152 165 1.0
152 249 16.0
152 253 1.0
152 268 2.0
153 161 1.0
153 166 1.0
153 167 1.0
153 177 2.0
153 227 16.0
153 249 2.0
153 253 1.0
154 160 1.0
154 172 2.0
154 197 1.0
154 230 1.0
155 161 1.0
155 189 18.0
155 197 4.0
155 232 1.0
156 168 1.0
156 189 2.0
156 231 16.0
157 162 1.0
157 191 1.0
157 192 1.0
157 231 2.0
157 234 16.0
158 163 1.0
158 192 1.0
158 234 2.0
158 269 16.0
159 197 1.0
159 200 1.0
159 206 2.0
159 219 2.0
160 172 1.0
160 187 1.0
160 189 6.0
160 197 23.0
160 200 1.0
160 219 1.0
161 162 1.0
161 189 23.0
161 231 6.0
161 233 3.0
162 163 1.0
162 231 23.0
162 234 6.0
162 269 1.0
162 275 3.0
163 164 1.0
163 191 1.0
163 269 23.0
163 271 1.0
163 276 1.0
164 165 1.0
164 268 1.0
164 272 1.0
164 273 23.0
164 276 3.0
165 166 1.0
165 227 1.0
165 249 23.0
165 277 2.0
166 167 1.0
166 177 3.0
166 195 2.0
166 221 1.0
166 226 2.0
166 227 23.0
166 228 1.0
167 177 5.0
167 221 1.0
167 227 23.0
167 250 1.0
167 259 6.0
168 172 5.0
168 189 1.0
168 231 9.0
168 233 4.0
168 234 22.0
168 269 7.0
168 275 9.0
169 172 3.0
169 234 1.0
169 269 9.0
169 270 1.0
169 271 22.0
169 272 1.0
169 273 7.0
169 276 4.0
169 277 9.0
170 172 1.0
170 177 2.0
170 194 1.0
170 207 1.0
170 255 1.0
170 256 1.0
170 258 1.0
171 185 2.0
171 190 4.0
171 202 1.0
171 213 22.0
171 217 11.0
171 218 4.0
171 246 1.0
172 177 3.0
172 184 3.0
172 185 3.0
172 187 1.0
172 192 7.0
172 201 3.0
172 203 4.0
172 204 2.0
172 205 1.0
172 206 6.0
172 207 2.0
172 216 2.0
172 220 2.0
172 226 1.0
172 232 4.0
172 240 2.0
172 247 28.0
172 253 4.0
172 254 1.0
172 257 3.0
172 259 8.0
172 261 1.0
172 262 1.0
172 263 4.0
172 264 1.0
172 265 5.0
172 266 3.0
172 267 2.0
173 178 1.0
173 187 5.0
173 191 1.0
174 187 7.0
174 190 1.0
175 176 1.0
175 246 1.0
175 277 8.0
176 177 2.0
176 226 2.0
176 227 2.0
176 249 3.0
177 183 12.0
177 220 1.0
177 221 3.0
177 253 4.0
177 254 1.0
177 255 2.0
177 256 1.0
177 257 1.0
177 258 1.0
177 259 1.0
178 179 1.0
178 196 1.0
178 197 3.0
178 200 1.0
178 219 8.0
178 237 1.0
179 180 1.0
179 189 2.0
179 197 3.0
179 219 18.0
179 233 11.0
180 181 1.0
180 231 1.0
180 233 8.0
181 182 1.0
181 231 3.0
181 234 2.0
181 275 8.0
182 188 1.0
182 191 1.0
182 275 8.0
183 284 1.0
184 194 1.0
184 256 1.0
184 259 1.0
185 190 4.0
185 199 1.0
185 213 4.0
185 217 1.0
185 218 22.0
185 246 1.0
185 261 5.0
186 190 1.0
186 191 3.0
187 195 2.0
187 199 2.0
187 202 1.0
187 203 4.0
187 204 4.0
187 207 4.0
187 219 1.0
187 220 1.0
187 221 3.0
187 245 1.0
187 284 1.0
188 269 3.0
188 271 2.0
188 276 8.0
188 279 1.0
189 204 2.0
189 207 2.0
189 230 22.0
189 232 9.0
189 233 1.0
189 237 6.0
189 245 1.0
190 195 5.0
190 203 3.0
190 204 2.0
190 207 2.0
190 213 5.0
190 217 1.0
190 218 5.0
190 224 3.0
190 226 2.0
190 242 1.0
190 243 1.0
190 247 1.0
190 248 1.0
190 252 1.0
190 295 1.0
190 296 1.0
191 202 7.0
191 215 3.0
191 225 4.0
191 238 2.0
191 244 10.0
191 260 2.0
192 231 1.0
192 234 9.0
192 269 22.0
192 271 7.0
192 275 4.0
192 276 9.0
193 195 6.0
193 203 2.0
193 210 4.0
193 213 2.0
193 214 2.0
193 218 1.0
193 244 2.0
193 283 2.0
194 204 4.0
194 207 3.0
194 226 1.0
195 210 4.0
195 213 7.0
195 214 2.0
195 218 7.0
195 226 1.0
195 244 1.0
195 250 1.0
195 283 2.0
196 200 5.0
196 219 8.0
197 219 1.0
197 230 9.0
197 232 1.0
197 237 8.0
197 245 1.0
198 199 5.0
198 200 1.0
198 205 1.0
198 225 1.0
198 228 1.0
199 202 9.0
199 204 1.0
199 207 1.0
199 226 2.0
199 227 1.0
199 244 1.0
199 283 1.0
200 219 2.0
200 230 1.0
200 238 1.0
200 245 1.0
200 282 1.0
201 203 2.0
202 205 1.0
202 226 3.0
202 227 1.0
202 228 3.0
202 244 1.0
202 283 1.0
203 215 3.0
203 218 1.0
203 226 1.0
203 233 1.0
204 205 1.0
204 207 9.0
204 219 2.0
204 220 3.0
204 221 1.0
204 225 4.0
204 226 3.0
204 231 4.0
204 233 1.0
204 238 2.0
204 245 1.0
204 250 1.0
204 252 2.0
205 207 1.0
206 213 1.0
206 217 1.0
206 225 3.0
207 219 2.0
207 221 1.0
207 225 1.0
207 226 3.0
207 231 4.0
207 233 1.0
207 238 2.0
207 245 1.0
207 252 2.0
207 256 3.0
210 211 2.0
210 213 1.0
210 218 3.0
211 235 3.0
212 236 3.0
213 214 1.0
213 217 12.0
214 218 4.0
214 239 1.0
215 216 2.0
216 225 5.0
216 239 2.0
217 218 1.0
219 230 4.0
219 232 1.0
219 237 19.0
219 245 2.0
219 282 1.0
220 252 3.0
220 256 2.0
221 284 1.0
226 228 7.0
226 229 4.0
227 253 7.0
227 284 1.0
228 229 11.0
228 255 5.0
228 257 4.0
229 255 1.0
229 257 5.0
230 231 7.0
231 232 22.0
231 233 1.0
231 238 2.0
231 245 2.0
232 233 4.0
232 234 7.0
233 237 1.0
233 238 4.0
233 245 4.0
233 262 15.0
233 263 6.0
233 284 1.0
234 245 4.0
234 275 1.0
237 238 1.0
238 245 1.0
238 282 1.0
244 245 1.0
244 283 3.0
244 284 1.0
245 252 1.0
245 269 3.0
245 271 5.0
245 275 4.0
245 276 10.0
245 282 2.0
245 283 1.0
246 268 2.0
246 273 3.0
246 277 8.0
246 279 1.0
247 248 2.0
249 253 22.0
249 277 1.0
249 284 1.0
252 256 3.0
253 268 9.0
253 273 1.0
255 257 2.0
258 259 1.0
263 275 15.0
264 275 15.0
265 275 6.0
265 276 15.0
266 276 15.0
267 276 6.0
267 277 15.0
268 274 16.0
268 277 1.0
268 278 7.0
268 284 1.0
269 270 2.0
269 275 1.0
269 278 1.0
270 271 16.0
271 272 2.0
271 276 1.0
271 278 9.0
271 284 1.0
272 273 16.0
273 274 2.0
273 276 1.0
273 278 22.0
273 284 1.0
274 278 1.0
275 284 1.0
276 279 8.0
276 283 2.0
276 284 1.0
277 278 4.0
277 280 6.0
277 281 15.0
277 284 1.0
