0 10291 0.45
1 10292 0.5
2 10293 0.39
3 10294 0.58
4 10295 0.5
5 10296 0.58
6 10297 0.45
7 10298 0.5
8 10299 0.44
9 10300 0.5
10 10301 0.45
11 10302 0.5
12 10303 0.44
13 10304 0.5
14 10305 0.44
15 10306 0.51
16 10307 0.44
17 10308 0.51
18 10309 0.43
19 10310 0.5
20 10311 0.43
21 10312 0.5
22 10313 0.43
23 10314 0.5
24 10315 0.43
25 10316 0.5
26 10317 0.43
27 10318 0.93
28 10319 0.93
29 10320 0.92
30 10321 0.39
31 10322 0.49
32 10323 0.54
33 10324 0.5
34 10325 0.3
35 10326 0.5
36 10327 0.42
37 10328 0.5
38 10329 0.48
39 10330 0.5
40 10331 0.55
41 10332 0.5
42 10333 0.5
43 10334 0.41
44 10335 0.5
45 10336 0.5
46 10337 0.43
47 10338 0.5
48 10339 0.5
49 10340 0.5
50 10341 0.5
51 10342 0.5
52 10343 0.52
53 4050 0.12
54 2446 0.12
55 4052 0.12
56 4055 0.12
57 4064 0.13
58 2461 0.13
59 4099 0.3
60 10350 0.13
61 7516 0.13
62 9338 0.13
63 10351 0.13
64 10352 0.15
65 9910 0.15
66 4725 0.12
67 9339 0.12
68 2546 0.12
69 2547 0.12
70 10355 0.13
71 9916 0.16
72 10353 0.13
73 2644 0.13
74 2682 0.13
75 2701 0.13
76 4362 0.14
77 2484 0.16
78 4737 0.12
79 2649 0.12
80 4413 0.12
81 10359 0.12
82 10360 0.13
83 4473 0.19
84 4323 0.13
85 2674 0.13
86 4504 0.13
87 2779 0.13
88 4529 0.14
89 4335 0.12
90 4343 0.13
91 4512 0.13
92 9344 0.12
93 10363 0.13
94 4543 0.2
95 4337 0.13
96 4641 0.13
97 10362 0.13
98 2499 0.13
99 2513 0.14
100 2425 0.25
101 6437 0.25
102 2555 0.25
103 10346 0.25
104 6628 0.17
105 6758 0.25
106 10345 0.25
107 2554 0.25
108 8841 0.25
109 10347 0.28
110 10349 0.25
111 6762 0.25
112 6917 0.25
113 12838 0.25
114 4327 0.25
115 6932 0.25
116 4328 0.25
117 7024 0.25
118 7028 0.25
119 7031 0.25
120 10366 0.25
121 9231 0.25
122 9236 0.25
123 4361 0.34
124 7469 0.25
125 2028 0.25
126 8052 0.25
127 7517 0.25
128 2551 0.28
129 10344 0.5
130 10348 0.5
131 10356 0.51
132 10364 0.5
133 10368 0.5
134 10369 0.5
135 10370 0.5
136 10371 0.47
137 10372 0.5
138 10373 0.51
139 10374 0.51
140 10375 0.55
141 10376 0.5
142 10377 0.5
143 10378 0.5
144 10379 0.5
145 10380 0.4
146 10381 0.5
147 10382 0.51
148 10383 0.51
149 10384 0.5
150 10385 0.56
151 10386 0.5
152 10387 0.5
153 10388 0.5
154 10389 0.5
155 10390 0.51
156 10391 0.37
157 10392 0.5
158 10393 0.5
159 10394 0.5
160 10395 0.5
161 10396 0.5
162 10397 0.47
163 10398 0.5
164 10399 0.5
165 10400 0.5
166 10401 0.5
167 10402 0.51
168 10403 0.5
169 10404 0.5
170 10405 0.5
171 10406 0.49
172 10407 0.51
173 10408 0.5
174 10409 0.5
175 10410 0.51
176 10411 0.5
177 10412 0.5
178 10413 0.51
179 10414 0.5
180 10415 0.5
181 10416 0.5
182 10417 0.5
183 10418 0.5
184 10419 0.5
185 10420 0.5
186 10421 0.58
187 10422 0.5
188 10423 0.5
189 10424 0.5
190 10425 0.5
191 10426 0.57
192 10427 0.58
193 10428 0.5
194 10429 0.5
195 10430 0.5
196 10431 0.57
197 10432 0.56
198 10433 0.5
199 10434 0.5
200 10435 0.51
201 10436 0.56
202 10437 0.56
203 10438 0.5
204 10439 0.5
205 10440 0.5
206 10441 0.56
207 10442 0.56
208 10443 0.5
209 10444 0.5
210 10445 0.5
211 10446 0.56
212 10447 0.56
213 10448 0.5
214 10449 0.51
215 10450 0.51
216 10451 0.5
217 10452 0.56
218 10453 0.5
219 10454 0.5
220 10455 0.5
221 10456 0.5
222 10457 0.5
223 10458 0.5
224 10459 0.5
225 10460 0.5
226 10461 0.5
227 10462 0.5
228 10463 0.5
229 10464 0.5
230 10465 0.5
231 10466 0.5
232 10467 0.5
233 10468 0.5
234 10469 0.5
235 10470 0.5
236 10471 0.5
237 10472 0.51
238 10473 0.5
239 10474 0.5
240 10475 0.5
241 10476 0.5
242 10477 0.5
243 10478 0.51
244 10479 0.5
245 10480 0.5
246 10481 0.5
247 10482 0.51
248 10483 0.51
249 10484 1.01
250 10485 1.01
251 10486 0.51
252 10487 0.5
253 10488 0.5
254 10489 0.5
255 10805 0.51
256 10811 0.5
257 10491 1.0
258 10492 0.5
259 10493 0.5
260 10490 0.51
261 10810 0.5
262 10494 1.01
263 10495 1.0
264 10496 1.01
265 10497 0.47
266 10498 0.5
267 11187 0.36
268 10499 0.5
269 10500 0.55
270 10501 0.5
271 10502 0.5
272 10503 0.47
273 10504 0.5
274 10505 0.5
275 10506 0.5
276 10507 0.49
277 10508 0.5
278 10509 0.5
279 10510 0.5
280 10511 0.49
281 10512 0.46
282 10513 0.43
283 10514 0.41
284 10515 0.41
285 10516 0.4
286 10517 0.4
287 10518 0.38
288 10519 0.51
289 10520 0.5
290 10521 0.5
291 10522 0.5
292 10523 0.5
293 10524 0.49
294 10525 0.51
295 10526 0.5
296 10527 0.5
297 10528 0.5
298 10529 0.5
299 10530 0.49
300 10531 0.51
301 10532 0.5
302 10533 0.5
303 10534 0.5
304 10535 0.5
305 10536 0.49
306 10537 0.51
307 10538 0.5
308 10539 0.5
309 10540 0.5
310 10541 0.5
311 10542 0.5
312 10543 0.5
313 10544 0.49
314 10545 0.51
315 10546 0.5
316 10547 0.5
317 10548 0.5
318 10549 0.5
319 10550 0.51
320 10551 0.51
321 10552 0.5
322 10553 0.5
323 10554 0.5
324 10555 0.53
325 10556 0.53
326 10557 0.52
327 10558 0.5
328 10559 0.5
329 10560 0.5
330 10561 0.52
331 10562 0.51
332 10563 0.51
333 10564 0.5
334 10565 0.5
335 10566 0.5
336 10567 0.52
337 10568 0.5
338 10569 0.51
339 10570 0.5
340 10571 0.5
341 10572 0.5
342 10573 0.52
343 10574 0.51
344 10575 0.51
345 10576 0.51
346 10577 0.51
347 10578 0.51
348 10579 0.52
349 10580 0.5
350 10581 0.51
351 10582 0.5
352 10583 0.5
353 10584 0.5
354 10585 0.51
355 10586 0.51
356 10587 0.51
357 10588 0.51
358 10589 0.5
359 10590 0.5
360 10591 0.51
361 10592 0.51
362 10593 0.51
363 10594 0.51
364 10595 0.5
365 10596 0.51
366 10597 0.51
367 10598 0.51
368 10599 0.51
369 10600 0.5
370 10601 0.5
371 10602 0.5
372 10603 0.51
373 10604 0.51
374 10605 0.51
375 10606 0.5
376 10607 0.5
377 10608 0.5
378 10609 0.51
379 10610 0.51
380 10611 0.51
381 10612 0.5
382 10613 0.51
383 10614 0.51
384 10615 0.51
385 10616 0.5
386 10617 0.5
387 10618 0.5
388 10619 0.5
389 10620 0.5
390 10621 0.51
391 10622 0.5
392 10623 0.5
393 10624 0.51
394 10625 0.51
395 10626 0.5
396 10627 0.51
397 10628 0.51
398 10629 0.51
399 10630 0.5
400 10631 0.5
401 10632 0.5
402 10633 0.5
403 10634 0.5
404 10635 0.5
405 10636 0.5
406 10637 0.5
407 10638 0.5
408 10639 0.51
409 10640 0.5
410 10641 0.5
411 10642 0.51
412 10643 0.5
413 10644 0.5
414 10645 0.5
415 10646 0.5
416 10647 0.5
417 10648 0.5
418 10649 0.5
419 10650 0.5
420 10651 0.49
421 10652 0.5
422 10653 0.5
423 10654 0.5
424 10655 0.5
425 10656 0.51
426 10657 0.49
427 10658 0.51
428 10659 0.5
429 10660 0.5
430 10661 0.5
431 10662 0.51
432 10663 0.49
433 10664 0.5
434 10665 0.5
435 10666 0.5
436 10667 0.5
437 10668 0.51
438 10669 0.5
439 10670 0.51
440 10671 0.5
441 10672 0.5
442 10673 0.51
443 10674 0.51
444 10675 0.5
445 10676 0.51
446 10677 0.51
447 10678 0.5
448 10679 0.5
449 10680 0.51
450 10681 0.49
451 10682 0.5
452 10683 0.5
453 10684 0.5
454 10685 0.5
455 10686 0.5
456 10687 0.49
457 10688 0.5
458 10689 0.5
459 10690 0.51
460 10691 0.5
461 10692 0.5
462 10693 0.49
463 10694 0.5
464 10695 0.5
465 10696 0.51
466 10697 0.5
467 10698 0.56
468 10699 0.49
469 10700 0.51
470 10701 0.5
471 10702 0.51
472 10703 0.55
473 10704 0.55
474 10705 0.49
475 10706 0.5
476 10707 0.5
477 10708 0.54
478 10709 0.54
479 10710 0.5
480 10711 0.49
481 10712 0.5
482 10713 0.54
483 10714 0.54
484 10715 0.5
485 10716 0.5
486 10717 0.49
487 10718 0.54
488 10719 0.53
489 10720 0.5
490 10721 0.5
491 10722 0.5
492 10723 1.04
493 10724 1.0
494 10725 0.5
495 10726 0.5
496 10727 0.5
497 10728 0.5
498 10729 1.0
499 2307 0.5
500 1913 0.5
501 10731 0.5
502 10732 0.5
503 2358 0.49
504 10730 0.5
505 10733 0.5
506 10734 0.5
507 10735 0.5
508 10736 0.5
509 10737 0.5
510 10738 0.51
511 10739 0.5
512 10740 0.5
513 10741 0.51
514 10742 0.51
515 10743 0.5
516 10744 0.51
517 10745 0.51
518 10746 0.51
519 10916 0.5
520 10923 0.5
521 10748 0.5
522 10749 0.5
523 10750 0.5
524 10751 0.5
525 10747 0.5
526 10917 0.5
527 10752 0.5
528 10753 0.5
529 10754 0.5
530 10755 0.5
531 11188 0.5
532 11190 0.5
533 10757 0.5
534 10758 0.5
535 10759 0.5
536 10760 0.5
537 10756 0.51
538 11189 0.5
539 10761 0.5
540 10762 0.5
541 10763 0.5
542 10764 0.51
543 10765 1.0
544 10766 0.5
545 10767 0.5
546 10768 0.5
547 10769 0.5
548 10770 0.5
549 10771 0.5
550 10772 0.5
551 10773 0.5
552 10774 0.46
553 10775 0.47
554 10776 0.47
555 10777 0.45
556 10778 0.44
557 10779 0.43
558 10780 0.47
559 10781 0.5
560 10782 0.51
561 10783 0.5
562 10784 0.5
563 10785 0.5
564 10786 0.46
565 10787 0.5
566 10788 0.51
567 10789 0.5
568 10790 0.5
569 10791 0.5
570 10792 0.46
571 10793 0.5
572 10794 0.5
573 10795 0.5
574 10796 0.5
575 10797 0.5
576 10798 0.47
577 10799 0.5
578 10800 0.5
579 10801 0.5
580 10802 0.5
581 10803 0.51
582 10281 0.85
583 10804 0.44
584 10806 0.51
585 10807 0.52
586 10808 0.52
587 10809 0.52
588 10812 0.5
589 10813 0.51
590 10814 0.5
591 10815 0.5
592 10816 0.44
593 10817 0.5
594 10818 0.5
595 10819 0.51
596 10820 0.51
597 10821 0.5
598 10822 0.45
599 10823 0.5
600 10824 0.5
601 10825 0.5
602 10826 0.5
603 10827 0.51
604 10828 0.46
605 10829 0.5
606 10830 0.5
607 10831 0.5
608 10832 0.5
609 10833 0.5
610 10834 0.47
611 10835 0.5
612 10836 0.5
613 10837 0.5
614 10838 0.51
615 10839 0.51
616 10840 0.46
617 10841 0.51
618 10842 0.5
619 10843 0.51
620 10844 0.51
621 10845 0.5
622 10846 0.49
623 10847 0.51
624 10848 0.51
625 10849 0.51
626 10850 0.51
627 10851 0.51
628 10852 0.48
629 10853 0.51
630 10854 0.5
631 10855 0.5
632 10856 0.5
633 10857 0.5
634 10858 0.48
635 10859 0.5
636 10860 0.5
637 10861 0.51
638 10862 0.5
639 10863 0.51
640 10864 0.49
641 10865 0.51
642 10866 0.5
643 10867 0.51
644 10868 0.5
645 10869 0.5
646 10870 0.48
647 10871 0.5
648 10872 0.51
649 10873 0.5
650 10874 0.5
651 10875 0.5
652 10876 0.5
653 10877 0.5
654 10878 0.51
655 10879 0.51
656 10880 0.51
657 10881 0.49
658 10882 0.5
659 10883 0.5
660 10884 0.51
661 10885 0.5
662 10886 0.49
663 10887 0.49
664 10888 0.5
665 10889 0.5
666 10890 0.51
667 10891 0.5
668 10892 0.49
669 10893 0.5
670 10894 0.5
671 10895 0.5
672 10896 0.51
673 10897 0.49
674 10898 0.5
675 10899 0.5
676 10900 0.5
677 10901 0.5
678 10902 0.5
679 10903 0.5
680 10904 0.5
681 10905 0.51
682 10906 0.5
683 10907 0.5
684 10908 0.5
685 10909 0.5
686 10910 0.5
687 10911 0.5
688 10912 1.0
689 10913 1.0
690 11191 0.5
691 11193 0.5
692 10914 0.5
693 11192 0.5
694 10918 1.0
695 10919 1.0
696 10915 1.0
697 10924 1.0
698 10925 1.01
699 10926 1.0
700 10927 1.0
701 10928 0.51
702 2288 0.5
703 10929 1.01
704 2287 0.5
705 2289 0.5
706 10930 1.0
707 10931 1.01
708 10932 1.02
709 10933 1.0
710 10934 1.01
711 10935 1.01
712 11194 0.5
713 11766 0.5
714 10937 0.5
715 10938 0.5
716 10939 0.5
717 10940 0.5
718 10936 0.5
719 11195 0.5
720 10941 0.5
721 10942 0.5
722 10943 0.5
723 10944 0.5
724 10945 0.5
725 10946 0.5
726 10947 0.5
727 10948 0.5
728 11767 0.5
729 11769 0.5
730 10950 0.5
731 10951 0.5
732 10952 0.5
733 10953 0.5
734 10949 0.5
735 11768 0.5
736 10954 0.5
737 10955 0.5
738 10956 0.5
739 10957 0.5
740 10962 0.5
741 9089 0.5
742 10958 0.5
743 10959 0.5
744 10960 0.5
745 10961 0.5
746 3899 0.5
747 10276 0.5
748 10963 0.4
749 11770 0.52
750 10964 0.52
751 10965 0.51
752 10966 0.5
753 10967 0.5
754 10968 0.9
755 10969 0.51
756 10970 0.5
757 10971 0.5
758 10972 0.5
759 10973 0.51
760 10974 0.5
761 10975 0.5
762 10976 0.5
763 10977 0.91
764 10978 0.5
765 10979 0.51
766 10980 0.5
767 10981 0.5
768 10982 0.51
769 10983 0.52
770 10984 0.51
771 10985 0.51
772 10986 1.0
773 10987 1.0
774 9346 0.5
775 10988 0.5
776 9011 0.5
777 3843 0.5
778 10989 1.0
779 10990 0.5
780 10991 0.49
781 10992 0.5
782 10993 0.5
783 10994 0.5
784 10995 0.5
785 10996 0.5
786 10997 0.5
787 10998 1.0
788 11771 0.51
789 11773 0.5
790 11000 0.5
791 11001 0.5
792 10999 0.5
793 11772 0.5
794 11002 0.5
795 11003 0.5
796 11004 0.79
797 11005 0.44
798 10278 0.42
799 11774 0.41
800 11776 0.39
801 3871 0.36
802 12034 0.35
803 11006 0.36
804 11775 0.36
805 8293 0.45
806 8292 0.5
807 11008 0.51
808 11009 0.5
809 10921 0.5
810 10920 0.5
811 3875 0.45
812 11007 0.5
813 11010 0.5
814 11011 0.5
815 10922 0.51
816 11012 0.5
817 12300 0.45
818 11013 0.51
819 11777 0.51
820 11779 0.5
821 11015 1.01
822 12031 0.45
823 8505 0.5
824 11014 0.5
825 11778 0.5
826 11016 1.01
827 11017 1.01
828 11018 1.01
829 11019 1.0
830 11020 1.0
831 11021 1.0
832 11022 1.0
833 11023 1.0
834 11024 1.0
835 11025 0.89
836 11026 0.85
837 11027 0.85
838 11028 1.03
839 11029 1.0
840 11030 1.01
841 11031 1.02
842 11032 1.01
843 11780 0.51
844 11782 0.5
845 11033 0.51
846 11781 0.5
847 11037 0.71
848 11038 0.76
849 11039 1.06
850 11034 1.0
851 11035 1.0
852 11036 1.0
853 11043 0.41
854 11044 0.5
855 11045 0.49
856 11046 0.49
857 11047 0.49
858 11048 0.5
859 11049 0.42
860 11050 0.51
861 11051 0.5
862 11052 0.5
863 11053 0.5
864 11054 0.5
865 11055 0.42
866 11056 0.51
867 11057 0.5
868 11058 0.51
869 11059 0.51
870 11060 0.5
871 11061 0.43
872 11062 0.5
873 11063 0.5
874 11064 0.5
875 11065 0.51
876 11066 0.5
877 11067 0.43
878 11068 0.5
879 11069 0.51
880 11070 0.5
881 11071 0.5
882 11072 0.5
883 11073 0.44
884 11074 0.5
885 11075 0.5
886 11076 0.5
887 11077 0.5
888 11078 0.5
889 11079 0.45
890 11080 0.51
891 11081 0.52
892 11082 0.52
893 11083 0.52
894 11084 0.52
895 11085 0.44
896 11086 0.51
897 11087 0.51
898 11088 0.51
899 11089 0.5
900 11090 0.5
901 11091 0.45
902 11092 0.5
903 11093 0.51
904 11094 0.5
905 11095 0.5
906 11096 0.5
907 11097 0.46
908 11098 0.5
909 11099 0.5
910 11100 0.5
911 11101 0.5
912 11102 0.49
913 11103 0.48
914 11104 0.5
915 11105 0.51
916 11106 0.5
917 11107 0.5
918 11108 0.5
919 11109 0.49
920 11110 0.5
921 11111 0.5
922 11112 0.49
923 11113 0.5
924 11114 0.5
925 11115 0.49
926 11116 0.5
927 11117 0.5
928 11118 0.5
929 11119 0.5
930 11120 0.5
931 11121 0.49
932 11122 0.5
933 11123 0.5
934 11124 0.5
935 11125 0.5
936 11126 0.5
937 11127 0.49
938 11128 0.5
939 11129 0.5
940 11130 0.5
941 11131 0.5
942 11132 0.5
943 11133 0.49
944 11134 0.51
945 11135 0.5
946 11136 0.5
947 11137 0.5
948 11138 0.5
949 11139 0.48
950 11140 0.5
951 11141 0.5
952 11142 0.5
953 11143 0.5
954 11144 0.5
955 11145 0.49
956 11146 0.5
957 11147 0.5
958 11148 0.5
959 11149 0.5
960 11150 0.5
961 11040 0.99
962 11041 1.01
963 11042 0.94
964 7076 0.7
965 2256 0.66
966 11783 0.44
967 11785 0.5
968 11152 1.01
969 11153 1.02
970 11151 0.44
971 11784 0.5
972 11154 0.95
973 9784 0.51
974 11155 0.51
975 9787 0.51
976 12347 0.51
977 6343 0.5
978 9785 0.51
979 9786 0.51
980 6344 0.51
981 11157 0.96
982 3938 0.5
983 10280 0.51
984 11159 1.02
985 9774 0.5
986 6361 0.51
987 11160 0.43
988 11161 0.49
989 11162 0.5
990 11163 0.5
991 11164 0.5
992 11165 0.52
993 11166 0.44
994 11167 0.51
995 11168 0.51
996 11169 0.51
997 11170 0.51
998 11171 0.52
999 11172 0.44
1000 11173 0.5
1001 11174 0.51
1002 11175 0.5
1003 11176 0.51
1004 11177 0.51
1005 11178 0.44
1006 11179 0.51
1007 11180 0.5
1008 11181 0.5
1009 11182 0.51
1010 11183 0.5
1011 11184 0.96
1012 11185 1.01
1013 11186 1.01
1014 11786 0.47
1015 11788 0.51
1016 11789 0.51
1017 11791 0.51
1018 11198 1.0
1019 11196 0.47
1020 11787 0.5
1021 11197 0.5
1022 11790 0.5
1023 11199 1.0
1024 11200 1.01
1025 11201 1.0
1026 11202 1.01
1027 11203 1.0
1028 11204 1.0
1029 11205 1.01
1030 11206 1.0
1031 11207 1.0
1032 11208 1.02
1033 11209 1.01
1034 11210 1.01
1035 11211 1.01
1036 11212 1.0
1037 11213 1.01
1038 11214 1.0
1039 11215 1.0
1040 11216 1.0
1041 11217 1.0
1042 11218 1.0
1043 11219 1.0
1044 11220 1.01
1045 11221 1.0
1046 11222 1.01
1047 11792 0.5
1048 11794 0.5
1049 11795 0.5
1050 11797 0.5
1051 11798 0.5
1052 11800 0.51
1053 11223 0.5
1054 11793 0.51
1055 11224 0.5
1056 11796 0.51
1057 11225 0.5
1058 11799 0.51
1059 11801 0.48
1060 11803 0.49
1061 11804 0.49
1062 11806 0.5
1063 11807 0.5
1064 11809 0.5
1065 11226 0.48
1066 11802 0.5
1067 11227 0.5
1068 11805 0.5
1069 11228 0.5
1070 11808 0.51
1071 9833 0.48
1072 11229 0.5
1073 11230 1.01
1074 11231 1.0
1075 7541 0.47
1076 4671 0.5
1077 11232 0.84
1078 11233 0.84
1079 11234 0.36
1080 11235 1.0
1081 11236 1.0
1082 11237 0.42
1083 11238 1.0
1084 11239 1.04
1085 11240 0.51
1086 11241 0.5
1087 11242 0.5
1088 11243 0.54
1089 11244 0.5
1090 11245 0.5
1091 11246 0.5
1092 11247 0.54
1093 11248 0.5
1094 11249 0.5
1095 11250 0.5
1096 11251 0.48
1097 11252 0.5
1098 11253 0.5
1099 11254 0.61
1100 11255 0.5
1101 11256 0.5
1102 11257 0.52
1103 11258 0.5
1104 11259 0.5
1105 11260 0.49
1106 11261 0.5
1107 11262 0.5
1108 11263 0.48
1109 11264 0.5
1110 11265 0.5
1111 11266 0.46
1112 11267 0.5
1113 11268 0.5
1114 11269 0.45
1115 11270 0.5
1116 11271 0.5
1117 11272 0.49
1118 11273 0.5
1119 11274 0.5
1120 11275 0.56
1121 11276 0.5
1122 11277 0.5
1123 11278 0.5
1124 11279 0.4
1125 11280 0.5
1126 11281 0.5
1127 11282 0.5
1128 11283 0.47
1129 11284 0.5
1130 11285 0.5
1131 11286 0.5
1132 11287 0.56
1133 11288 0.51
1134 11289 0.5
1135 11290 0.5
1136 11291 0.5
1137 11292 0.42
1138 11293 0.51
1139 11294 0.5
1140 11295 0.5
1141 11296 0.5
1142 11297 0.55
1143 11298 0.51
1144 11299 0.5
1145 11300 0.5
1146 11301 0.5
1147 11302 0.5
1148 11303 0.45
1149 11304 0.51
1150 11305 0.5
1151 11306 0.5
1152 11307 0.5
1153 11308 0.5
1154 11309 0.59
1155 11310 1.39
1156 11311 1.36
1157 11312 1.53
1158 11313 1.5
1159 11314 1.03
1160 11315 1.0
1161 11316 1.0
1162 11317 1.02
1163 8337 0.51
1164 8340 0.5
1165 11319 1.0
1166 11318 0.5
1167 3227 0.5
1168 11320 1.02
1169 11321 1.01
1170 11322 1.0
1171 11323 1.02
1172 11324 1.0
1173 11325 1.0
1174 11326 1.01
1175 8161 0.51
1176 8116 0.5
1177 11328 1.0
1178 11327 0.5
1179 8129 0.5
1180 11329 1.01
1181 11330 1.0
1182 11331 1.0
1183 11332 1.0
1184 11333 1.0
1185 11334 1.0
1186 11335 1.0
1187 11336 1.0
1188 11337 1.0
1189 11338 1.0
1190 11339 1.01
1191 11340 1.0
1192 11341 0.88
1193 11342 0.87
1194 11343 0.86
1195 11344 1.0
1196 11345 1.01
1197 11346 1.0
1198 11347 0.99
1199 11348 1.0
1200 11349 1.0
1201 11350 0.99
1202 11351 1.01
1203 11352 1.01
1204 11353 0.99
1205 11354 1.0
1206 11355 1.01
1207 11356 0.99
1208 11357 1.0
1209 11358 1.01
1210 11359 0.99
1211 11360 1.0
1212 11361 1.0
1213 11362 0.99
1214 11363 1.0
1215 11364 1.0
1216 11365 0.99
1217 11366 1.0
1218 11367 1.0
1219 11368 0.99
1220 11369 1.0
1221 11370 1.0
1222 11371 1.0
1223 11372 1.0
1224 11373 1.0
1225 11374 1.0
1226 11375 1.0
1227 11376 1.0
1228 11377 0.88
1229 11378 0.87
1230 11379 1.0
1231 11380 1.0
1232 11381 1.01
1233 11382 1.0
1234 11383 1.0
1235 11384 1.0
1236 11385 1.0
1237 11386 1.0
1238 11387 1.0
1239 11388 1.0
1240 11389 1.01
1241 11390 1.01
1242 11391 1.0
1243 11392 1.01
1244 11393 1.0
1245 11394 1.0
1246 11395 1.01
1247 11396 1.0
1248 11397 1.01
1249 11398 1.01
1250 11399 1.01
1251 11400 1.01
1252 11497 0.99
1253 11498 1.0
1254 11499 1.0
1255 11500 1.0
1256 12444 0.5
1257 12484 0.49
1258 11502 0.99
1259 12446 0.5
1260 12447 0.49
1261 11503 1.0
1262 11504 1.0
1263 11505 1.0
1264 11506 0.87
1265 11507 0.39
1266 11508 0.38
1267 11509 0.37
1268 11510 0.37
1269 11511 0.5
1270 11512 0.5
1271 11513 0.5
1272 11514 0.5
1273 11515 0.96
1274 11516 0.5
1275 11517 0.5
1276 11518 0.5
1277 11519 0.5
1278 11520 0.5
1279 11521 0.5
1280 11522 0.5
1281 11523 0.5
1282 11524 0.95
1283 11525 0.5
1284 11526 0.5
1285 11527 0.5
1286 11528 0.5
1287 11529 0.5
1288 11530 0.51
1289 11531 0.51
1290 11532 0.51
1291 11533 0.95
1292 11534 1.0
1293 11535 1.0
1294 11536 0.95
1295 11537 1.01
1296 11538 1.0
1297 11539 0.95
1298 12650 0.5
1299 12653 0.5
1300 11541 1.0
1301 9752 0.5
1302 9171 0.5
1303 11542 0.95
1304 12716 0.51
1305 11543 0.5
1306 11544 1.0
1307 12764 0.49
1308 12761 0.49
1309 11545 0.95
1310 11546 1.0
1311 11547 1.01
1312 11548 0.95
1313 11549 1.0
1314 11550 1.01
1315 11551 0.45
1316 11552 0.5
1317 11553 0.51
1318 11554 0.5
1319 11555 0.5
1320 11556 0.5
1321 11557 0.46
1322 11558 0.5
1323 11559 0.51
1324 11560 0.5
1325 11561 0.5
1326 11562 0.5
1327 11563 0.46
1328 11564 0.5
1329 11565 0.5
1330 11566 0.51
1331 11567 0.5
1332 11568 0.5
1333 11569 0.46
1334 11570 0.5
1335 11571 0.5
1336 11572 0.5
1337 11573 0.5
1338 11574 0.5
1339 11575 0.46
1340 11576 0.49
1341 11577 0.5
1342 11578 0.5
1343 11579 0.5
1344 11580 0.5
1345 11581 0.46
1346 11582 0.5
1347 11583 0.5
1348 11584 0.5
1349 11585 0.5
1350 11586 0.5
1351 11587 1.5
1352 11588 1.51
1353 11589 1.5
1354 11590 1.5
1355 11591 1.39
1356 11592 1.43
1357 11593 1.45
1358 11594 1.51
1359 11595 1.45
1360 11596 1.51
1361 11597 1.45
1362 11598 1.51
1363 11599 1.46
1364 11600 1.51
1365 11601 1.46
1366 11602 1.51
1367 11603 1.46
1368 11604 1.51
1369 11605 1.44
1370 11606 1.49
1371 11607 1.51
1372 11608 1.5
1373 11609 1.5
1374 11610 1.5
1375 11611 1.4
1376 11612 1.46
1377 11613 1.44
1378 11614 1.51
1379 11615 1.45
1380 11616 1.5
1381 11617 1.46
1382 11618 1.5
1383 11619 1.45
1384 11620 1.5
1385 11621 1.45
1386 11622 1.51
1387 11623 1.45
1388 11624 1.5
1389 11625 1.46
1390 11626 1.5
1391 11413 1.38
1392 11414 1.38
1393 11401 0.88
1394 11415 1.5
1395 11416 1.5
1396 11402 1.0
1397 11403 1.0
1398 11417 1.0
1399 11418 1.0
1400 11419 1.0
1401 11404 0.99
1402 11420 1.0
1403 11421 0.99
1404 11422 1.0
1405 11405 1.01
1406 11423 1.0
1407 11424 1.0
1408 11425 0.99
1409 11406 1.01
1410 11426 1.0
1411 11427 1.0
1412 11428 1.0
1413 11407 1.01
1414 11429 1.0
1415 11430 1.0
1416 11431 1.0
1417 11408 1.01
1418 11432 1.0
1419 11433 1.0
1420 11434 1.0
1421 11409 1.0
1422 3504 0.5
1423 3516 0.5
1424 11436 1.01
1425 11437 1.01
1426 11410 1.0
1427 6474 0.5
1428 3530 0.5
1429 11438 1.0
1430 11439 1.0
1431 11440 0.99
1432 11411 1.0
1433 11441 0.99
1434 11442 1.0
1435 11443 1.0
1436 11412 0.99
1437 11444 1.39
1438 11445 1.38
1439 11446 1.49
1440 11447 1.49
1441 11448 1.5
1442 11449 1.5
1443 11450 1.5
1444 11451 1.5
1445 11452 1.0
1446 11453 1.01
1447 11454 1.01
1448 11455 1.0
1449 11456 1.0
1450 11457 1.0
1451 11458 0.99
1452 11459 1.0
1453 11460 1.01
1454 11461 1.51
1455 11462 1.49
1456 11463 1.51
1457 11464 1.5
1458 11465 1.39
1459 11466 1.38
1460 11467 1.5
1461 11468 1.49
1462 11469 1.5
1463 11470 1.5
1464 11471 1.49
1465 11472 1.49
1466 11473 1.5
1467 11474 1.5
1468 11475 1.49
1469 11476 1.49
1470 11477 1.51
1471 11478 1.5
1472 11479 1.49
1473 11480 1.5
1474 11481 1.37
1475 11482 1.38
1476 11483 1.49
1477 11484 1.51
1478 11485 1.5
1479 11486 1.5
1480 11487 1.5
1481 11488 1.5
1482 11489 1.49
1483 11490 1.5
1484 11491 1.49
1485 11492 1.5
1486 11493 1.5
1487 11494 1.5
1488 11495 1.5
1489 11496 1.5
1490 11627 1.05
1491 11628 1.06
1492 11629 1.04
1493 11630 1.03
1494 11631 0.98
1495 11812 0.97
1496 11632 0.97
1497 11810 1.0
1498 11811 1.0
1499 11813 1.0
1500 11633 1.0
1501 11814 1.0
1502 11634 1.0
1503 11635 1.51
1504 11636 1.5
1505 11637 1.5
1506 11638 1.5
1507 11639 1.0
1508 11817 0.98
1509 11640 0.98
1510 11815 1.0
1511 11816 0.99
1512 11818 1.0
1513 11641 1.01
1514 11819 1.0
1515 11642 1.01
1516 11643 1.5
1517 11644 1.51
1518 11645 1.5
1519 11646 1.5
1520 11647 1.01
1521 11648 1.01
1522 11649 1.02
1523 11650 1.0
1524 11651 1.01
1525 11652 1.02
1526 11653 1.0
1527 11654 1.01
1528 11655 1.01
1529 11656 1.54
1530 11657 1.51
1531 11658 1.51
1532 11659 1.51
1533 11660 1.51
1534 11661 1.51
1535 11662 1.5
1536 11663 1.5
1537 11664 0.99
1538 11665 1.0
1539 11666 1.0
1540 11667 1.0
1541 11668 1.01
1542 11669 1.0
1543 11670 1.0
1544 11671 1.0
1545 11672 1.0
1546 11673 0.99
1547 11674 1.0
1548 11675 1.0
1549 11676 1.0
1550 11677 1.0
1551 11678 1.0
1552 11679 1.0
1553 11680 1.0
1554 11681 1.0
1555 11682 1.5
1556 11683 1.53
1557 11684 1.51
1558 11685 1.52
1559 11686 1.52
1560 11687 1.51
1561 11688 1.5
1562 11689 1.51
1563 11690 1.03
1564 11822 1.0
1565 11691 1.01
1566 11820 1.03
1567 11821 1.0
1568 11823 1.0
1569 4618 0.52
1570 4602 0.5
1571 11824 1.0
1572 11693 1.0
1573 4600 0.52
1574 11692 0.5
1575 11694 1.02
1576 11695 1.0
1577 11696 1.0
1578 11697 1.02
1579 11698 1.0
1580 11699 1.0
1581 11700 1.02
1582 11701 1.0
1583 11702 1.0
1584 11703 0.52
1585 11704 0.5
1586 11705 0.5
1587 11706 0.5
1588 11707 0.5
1589 11708 0.49
1590 11709 0.52
1591 11710 0.5
1592 11711 0.5
1593 11712 0.5
1594 11713 0.5
1595 11714 0.5
1596 11715 0.52
1597 11716 0.5
1598 11717 0.5
1599 11718 0.49
1600 11719 0.5
1601 11720 0.5
1602 11721 0.51
1603 11722 0.49
1604 11723 0.5
1605 11724 0.5
1606 11725 0.5
1607 11726 0.5
1608 11825 0.51
1609 11827 0.5
1610 11728 1.0
1611 11729 1.0
1612 11727 0.51
1613 11826 0.5
1614 11730 1.51
1615 11731 1.5
1616 11732 1.5
1617 11733 1.5
1618 11734 1.5
1619 11735 1.52
1620 11736 1.51
1621 11737 1.51
1622 11738 1.52
1623 11739 1.5
1624 11740 1.53
1625 11741 1.51
1626 11742 1.49
1627 11743 1.52
1628 11744 1.48
1629 11745 1.5
1630 11746 1.47
1631 11747 1.5
1632 11748 1.46
1633 11749 1.5
1634 11750 0.97
1635 11830 1.0
1636 11751 1.0
1637 11828 0.97
1638 11829 1.0
1639 11831 1.0
1640 11752 0.97
1641 11832 1.0
1642 11753 1.0
1643 11754 1.49
1644 11755 1.5
1645 11756 1.48
1646 11757 1.49
1647 11758 1.49
1648 11759 1.5
1649 11760 1.5
1650 11761 1.5
1651 11762 1.5
1652 11763 1.51
1653 11764 1.5
1654 11765 1.5
1655 11861 0.91
1656 11880 0.76
1657 10146 0.87
1658 11863 0.9
1659 10144 0.69
1660 11882 0.76
1661 5805 0.84
1662 10179 0.74
1663 10174 0.81
1664 11885 1.06
1665 11907 0.93
1666 11909 1.21
1667 11926 1.2
1668 11866 0.65
1669 11886 0.81
1670 11887 1.02
1671 11888 1.01
1672 11910 1.06
1673 11911 0.84
1674 11868 0.68
1675 11889 0.71
1676 10195 0.81
1677 10193 0.92
1678 11891 0.83
1679 11913 1.12
1680 11914 1.14
1681 12306 1.33
1682 11998 1.43
1683 11870 0.75
1684 11892 0.98
1685 11893 1.01
1686 11894 0.93
1687 11916 0.88
1688 11917 0.94
1689 11918 1.07
1690 6242 1.47
1691 11871 0.6
1692 11895 1.08
1693 11896 1.19
1694 11897 1.07
1695 11919 1.37
1696 11920 1.41
1697 11872 0.95
1698 11898 0.78
1699 11899 0.8
1700 6009 0.97
1701 11921 1.61
1702 6030 1.13
1703 11928 2.24
1704 11901 1.14
1705 11902 1.17
1706 11903 0.95
1707 11875 2.05
1708 11904 2.47
1709 11923 1.02
1710 11990 2.45
1711 11929 2.1
1712 11906 3.94
1713 11925 3.89
1714 11930 3.98
1715 11833 2.98
1716 11834 2.69
1717 11835 1.42
1718 2853 1.52
1719 4272 1.88
1720 4284 1.5
1721 11836 3.03
1722 11837 3.13
1723 11838 2.92
1724 11839 2.99
1725 11840 3.02
1726 11841 2.97
1727 11842 2.99
1728 11843 3.01
1729 11844 2.75
1730 11846 3.12
1731 11848 2.82
1732 11850 3.25
1733 11851 2.98
1734 11852 2.98
1735 11854 3.01
1736 11855 3.0
1737 11856 2.99
1738 11857 3.01
1739 12018 3.03
1740 6761 3.03
1741 6770 3.05
1742 6777 3.31
1743 10224 3.01
1744 10235 3.03
1745 10242 3.22
1746 10248 3.26
1747 10249 3.17
1748 6781 3.28
1749 10228 3.53
1750 10232 3.52
1751 10244 3.48
1752 10252 2.15
1753 10230 3.09
1754 10261 2.75
1755 10262 3.62
1756 11931 3.81
1757 11932 3.01
1758 11933 3.0
1759 11934 3.45
1760 9879 3.01
1761 12025 3.02
1762 11935 3.02
1763 12026 3.02
1764 6829 2.8
1765 11936 3.46
1766 11937 3.0
1767 6845 3.01
1768 12012 3.0
1769 11938 3.01
1770 3733 2.94
1771 4017 2.97
1772 11939 2.96
1773 11940 2.96
1774 4199 2.95
1775 6322 2.99
1775 10122 2.99
1776 12007 2.74
1777 7030 4.51
1778 9870 9.99
1778 9871 9.99
1779 9881 9.99
1780 6843 9.99
1780 6844 9.99
1781 7612 8.84
1781 7613 8.84
1782 9422 9.99
1782 9423 9.99
1783 9523 9.99
1783 9524 9.99
1784 10273 6.83
1784 10274 6.73
1785 6986 4.12
1786 7000 9.99
1787 6263 9.99
1788 10122 1.06
1789 6322 1.09
1790 10460 0.53
1790 10461 0.41
1790 12971 0.25
1791 1820 0.6
1791 4237 0.17
1791 11561 0.55
1791 11562 0.6
1792 2576 0.52
1792 2629 0.5
1792 10454 0.25
1792 10455 0.5
1793 1798 0.47
1793 1799 0.43
1793 12880 0.13
1794 1796 0.5
1794 1797 0.99
1794 10455 0.5
1795 1796 0.49
1795 10455 0.49
1795 10456 0.21
1796 1800 0.57
1796 10462 1.0
1797 10461 0.51
1797 10462 0.5
1797 10467 0.5
1798 4235 0.3
1798 11560 0.22
1799 4236 0.56
1799 11567 0.34
1800 1806 1.26
1800 5116 0.93
1800 10456 0.69
1801 2732 0.06
1801 5122 0.12
1801 10456 0.61
1801 12913 1.07
1802 1804 1.53
1802 2731 0.27
1802 2732 0.2
1802 12914 0.91
1803 2731 0.24
1803 2732 0.22
1803 5123 0.13
1803 12915 0.91
1804 2181 1.67
1804 2733 0.24
1804 2734 0.18
1805 2179 1.67
1805 2733 0.28
1805 2734 0.26
1805 5123 1.4
1806 5109 0.39
1806 5110 0.14
1807 1808 0.76
1807 1885 1.01
1807 5110 0.5
1807 10312 1.03
1808 1810 0.24
1808 10310 0.8
1808 10457 0.48
1809 1823 0.75
1809 4237 0.32
1809 11567 0.53
1809 11568 0.39
1810 1811 0.51
1810 3995 0.62
1810 10457 0.45
1811 2731 0.91
1811 10308 0.61
1811 10451 0.51
1812 1815 0.52
1812 2632 0.26
1812 10308 0.46
1812 12926 0.3
1813 5126 0.28
1813 10309 0.16
1813 12926 0.55
1814 1820 0.51
1814 6495 0.41
1814 11568 0.19
1815 1816 0.51
1815 1819 0.75
1815 3995 0.4
1816 2636 0.16
1816 5124 0.24
1816 10311 0.97
1817 1818 0.26
1817 5125 0.26
1817 5807 0.73
1817 11865 0.07
1818 5124 0.16
1818 11866 1.2
1819 9634 0.28
1819 10310 0.37
1819 10311 0.54
1821 1822 1.03
1821 1835 0.08
1821 11572 0.13
1821 11573 1.15
1822 1837 0.53
1822 1838 0.13
1822 11573 0.45
1823 1827 0.46
1823 1831 0.37
1824 1825 0.7
1824 5111 0.18
1824 11866 0.25
1824 12259 1.0
1825 5807 1.34
1825 11867 0.5
1825 11886 0.49
1826 2278 1.0
1826 2280 0.51
1826 10930 1.01
1826 10933 0.78
1827 1834 0.55
1827 1837 0.34
1827 11573 0.5
1828 2332 0.76
1828 4985 1.6
1828 6471 0.2
1828 10933 1.07
1829 2284 1.01
1829 2294 0.24
1829 4984 0.5
1829 10934 0.53
1830 2285 1.0
1830 2292 0.26
1830 10934 1.02
1830 12939 1.01
1831 1834 0.37
1831 11568 0.68
1832 2296 1.0
1832 10935 1.5
1832 11649 1.01
1833 2296 0.48
1833 2722 0.52
1833 9656 1.2
1833 10717 1.0
1834 4676 1.0
1834 11574 0.32
1835 1838 1.07
1835 7128 0.14
1835 11578 0.69
1836 2722 1.01
1836 10712 0.4
1836 10713 1.0
1836 10717 0.5
1837 11574 0.58
1837 11580 0.71
1838 11579 0.52
1839 9650 0.87
1839 10706 0.11
1839 10713 1.01
1839 12948 1.01
1840 9650 0.15
1840 10087 0.41
1840 10708 1.0
1840 10714 1.23
1841 1842 0.31
1841 8871 0.19
1841 12955 0.2
1842 2012 0.25
1842 8327 0.31
1843 1850 0.6
1843 11226 1.15
1843 11580 1.01
1844 1845 1.71
1844 4257 1.28
1844 6509 0.3
1844 12916 1.94
1845 4257 1.61
1845 10159 0.38
1846 1855 0.68
1846 1915 1.02
1846 2606 0.42
1846 2607 0.3
1847 1848 0.06
1847 10159 0.33
1847 11586 0.19
1848 4673 0.99
1848 4674 1.25
1849 1850 1.13
1849 11585 0.14
1849 11586 0.55
1850 4673 0.37
1851 2611 0.5
1851 2612 0.32
1851 10464 0.26
1851 12958 1.03
1852 4673 0.54
1852 9832 0.71
1852 9833 0.47
1853 1863 0.25
1853 2175 0.15
1853 2612 0.18
1853 2725 0.04
1854 2720 0.13
1854 10470 0.67
1854 10476 0.47
1855 2719 0.3
1855 10722 1.04
1855 10726 0.21
1856 1857 0.22
1856 1928 1.08
1856 2719 0.3
1856 10476 0.52
1857 1858 0.29
1857 2686 0.33
1857 10483 0.6
1858 1861 0.5
1858 10476 0.25
1859 3488 0.5
1859 3498 0.78
1859 3499 0.72
1859 3535 1.11
1860 1865 0.85
1860 3537 0.6
1861 1862 0.45
1861 10477 0.5
1861 10483 0.28
1862 9638 0.24
1862 10476 0.63
1863 2613 0.2
1863 2720 0.55
1863 10470 0.04
1864 9638 0.54
1864 10470 0.28
1864 10471 0.44
1865 3539 0.5
1865 3540 0.77
1866 2614 0.36
1866 5107 1.0
1866 10464 0.24
1866 12960 1.06
1867 1874 1.52
1867 1891 0.79
1867 3540 0.19
1868 1879 0.5
1868 3501 0.26
1869 2177 0.14
1869 2727 0.06
1869 2728 0.49
1869 5060 0.04
1870 1873 0.89
1870 2727 0.27
1870 5101 0.5
1870 10465 0.52
1871 1872 0.26
1871 1873 0.29
1871 10466 0.3
1872 1882 0.53
1872 5103 0.25
1872 10472 0.45
1873 10472 0.25
1874 11462 0.44
1875 1878 0.25
1875 10472 0.85
1875 10473 0.31
1876 3466 0.79
1876 3486 1.62
1876 3501 0.76
1876 9318 1.5
1877 2413 0.5
1877 2630 0.53
1877 10478 0.38
1878 1943 1.58
1878 9636 0.59
1878 10479 0.3
1879 3502 0.11
1879 11462 0.07
1880 1881 0.5
1880 5072 0.62
1880 5105 0.49
1881 1882 0.21
1881 10473 1.08
1882 10467 0.3
1883 11823 1.03
1883 12734 0.22
1883 12735 0.47
1884 2180 1.21
1884 2735 0.15
1884 2736 0.15
1884 5788 1.76
1885 1890 1.0
1885 2735 0.5
1885 10469 0.51
1886 2182 1.21
1886 2735 0.18
1886 2736 0.16
1886 5789 1.76
1887 2736 0.56
1887 10316 0.21
1887 10481 0.5
1888 3516 0.51
1888 3528 0.58
1888 3530 0.63
1889 2015 0.5
1889 10314 1.01
1889 10316 1.0
1889 10317 0.5
1890 10312 0.91
1890 10314 0.53
1891 3541 0.63
1891 7287 0.52
1891 12243 0.98
1892 3530 0.25
1892 3531 0.12
1892 7286 0.4
1892 10029 0.4
1893 2652 1.43
1893 2919 0.26
1893 2920 0.26
1893 5788 1.0
1894 2653 1.43
1894 2919 0.26
1894 2920 0.26
1894 5789 1.0
1895 2920 0.79
1895 11869 0.7
1895 11870 1.37
1895 11889 0.68
1896 4730 0.19
1896 4736 0.08
1896 4744 0.25
1896 7533 0.15
1897 2010 0.5
1897 7020 0.25
1897 10356 0.19
1898 4955 0.33
1898 7311 0.61
1898 7314 0.32
1898 11677 0.13
1899 3568 0.04
1899 3569 0.52
1899 11412 1.22
1900 3496 0.2
1900 11463 0.52
1900 11464 2.24
1901 1903 0.69
1901 4945 0.56
1901 11651 0.87
1902 3549 0.24
1902 3560 1.97
1902 11464 0.76
1903 11651 0.61
1903 11654 0.16
1904 3253 0.11
1904 3773 0.92
1904 3774 0.64
1905 2213 1.0
1905 2330 0.78
1905 4904 0.5
1906 1966 1.43
1906 4904 0.99
1906 10729 1.0
1906 11652 1.51
1907 1910 1.51
1907 3770 2.66
1907 3775 1.6
1907 11587 1.45
1908 1909 0.4
1908 2453 0.24
1908 2454 0.33
1908 12639 1.16
1909 2453 0.34
1909 2454 0.24
1909 10896 0.3
1910 1914 1.6
1910 11588 0.5
1911 1912 1.06
1911 2412 0.59
1911 10730 1.0
1911 10731 1.15
1911 10733 0.5
1912 1913 0.5
1912 10731 0.49
1913 2225 1.0
1913 10725 1.02
1913 10727 0.73
1914 3559 0.88
1914 3560 0.24
1915 1916 0.22
1915 10725 1.01
1915 10728 0.46
1916 1928 0.8
1916 10726 0.86
1916 10728 0.51
1917 1918 0.52
1917 3781 0.3
1917 3782 1.0
1917 3783 1.93
1918 1920 1.46
1918 3776 1.12
1918 3780 0.2
1919 1921 0.5
1919 1927 1.0
1919 10727 0.28
1919 10728 0.55
1920 1923 1.51
1920 3776 1.82
1920 11589 1.11
1921 10731 0.52
1921 10732 0.34
1922 2679 0.57
1922 10732 0.73
1922 10733 0.2
1923 3775 0.52
1923 3777 1.11
1923 3786 0.36
1924 11590 0.66
1924 12445 1.27
1924 12514 1.57
1925 1929 0.47
1925 1930 0.94
1925 3782 0.96
1925 11591 0.81
1926 1932 0.44
1926 1933 0.28
1926 10488 1.0
1926 10492 1.01
1927 1928 1.02
1927 1931 0.95
1927 10488 0.5
1928 10482 0.5
1929 1930 1.14
1929 3802 0.76
1929 3808 1.0
1930 3804 0.87
1931 1932 0.11
1931 2684 0.55
1931 10486 0.82
1932 1933 0.55
1933 10489 0.29
1933 10493 0.88
1934 1935 0.73
1934 1940 0.69
1934 3805 1.42
1935 3804 0.52
1935 3810 1.1
1936 1937 0.29
1936 5029 0.26
1936 10492 0.71
1936 10493 0.24
1937 1938 0.63
1937 10490 0.14
1938 2718 0.41
1938 10805 0.37
1939 2630 0.8
1939 2686 0.67
1939 10483 0.54
1939 10487 0.78
1940 3806 1.68
1940 11592 0.87
1941 1942 0.33
1941 2630 0.8
1941 2685 0.76
1941 10487 0.69
1942 2631 0.63
1942 2685 0.87
1943 2631 0.32
1943 10484 0.5
1944 3805 0.34
1944 3806 0.1
1944 11515 0.6
1945 10484 1.62
1945 10805 0.99
1945 10810 1.01
1945 10811 1.0
1946 1985 1.5
1946 2739 0.84
1946 10810 0.99
1946 10811 1.0
1947 1948 0.47
1947 1949 0.62
1947 10484 0.33
1948 1949 0.32
1948 1950 1.06
1948 10485 1.01
1949 2753 0.71
1949 10811 1.19
1950 2402 0.76
1950 3991 0.61
1951 1953 0.3
1951 2455 0.61
1951 2456 0.43
1951 10887 0.5
1952 1954 1.02
1952 2015 1.0
1952 2366 1.01
1952 10316 0.5
1953 2455 0.61
1953 2456 0.62
1953 12591 0.2
1954 1956 1.4
1954 10318 1.01
1954 10485 1.0
1955 1958 0.04
1955 2163 1.1
1956 1957 0.18
1956 2364 1.21
1956 10319 1.2
1957 1961 1.01
1957 10491 1.0
1958 2165 1.82
1959 1960 0.04
1959 2164 1.1
1960 2166 1.82
1961 2738 0.79
1961 7489 1.0
1961 10496 1.06
1962 3824 0.39
1962 3825 0.35
1962 3828 0.6
1962 11593 0.52
1963 1967 0.88
1963 1968 0.95
1963 3822 1.05
1964 1967 0.39
1964 1970 1.67
1964 1995 1.09
1964 12551 2.09
1965 2082 0.93
1965 5081 1.02
1965 10695 0.5
1965 10696 0.55
1966 10735 0.11
1966 11655 1.0
1967 3829 1.4
1968 1970 0.61
1968 3823 0.53
1969 2412 0.91
1969 5022 0.25
1969 10738 1.0
1969 10744 1.03
1970 1976 0.5
1971 2360 1.13
1971 2681 0.37
1971 2716 0.1
1971 5024 0.75
1972 1973 0.42
1972 2716 0.21
1972 5555 1.72
1973 2359 0.66
1973 5615 0.85
1974 1975 0.25
1974 5025 0.32
1974 5029 0.73
1974 10494 0.73
1975 1977 0.73
1975 5030 0.72
1975 5035 0.7
1976 1983 1.19
1976 12547 1.06
1977 1979 0.8
1977 10494 0.24
1977 10495 0.89
1978 1979 0.17
1978 1980 0.63
1978 2359 0.97
1978 10494 0.77
1979 1982 0.87
1979 11631 0.74
1980 2832 0.06
1980 5615 1.02
1981 1982 0.63
1981 11631 1.0
1981 11812 1.2
1982 5026 0.4
1982 10495 0.91
1983 11515 1.6
1983 12550 1.72
1984 5032 0.74
1984 5035 0.25
1984 10495 0.62
1985 1988 1.2
1985 2036 0.99
1985 5027 0.4
1986 1989 0.51
1986 10855 1.01
1986 10860 0.21
1986 10861 0.53
1987 2209 0.14
1987 8557 0.27
1987 10853 0.53
1988 2037 0.59
1988 5026 1.03
1989 2746 0.5
1989 10867 0.47
1990 6407 1.24
1990 6411 1.9
1990 11595 1.53
1991 3827 0.26
1991 6406 0.74
1991 6407 1.56
1992 10862 0.51
1992 10868 0.5
1992 10869 0.5
1992 12549 0.61
1993 5028 0.91
1993 7300 0.2
1993 10496 1.47
1994 1995 1.29
1994 6411 0.3
1994 11596 0.32
1995 6409 1.62
1995 6410 0.93
1996 2737 0.93
1996 5129 0.09
1996 10320 0.6
1997 5129 0.23
1997 5982 1.65
1997 11871 1.06
1997 11872 1.08
1998 5240 1.0
1998 5257 0.99
1998 5259 1.01
1998 5274 1.01
1999 5245 1.01
1999 5264 1.02
1999 5265 1.0
1999 11658 1.0
2000 5611 0.93
2000 5631 0.17
2000 11817 0.87
2001 5639 0.26
2001 5640 0.9
2001 5665 0.13
2001 7317 0.5
2002 5634 1.07
2002 5642 1.8
2002 11816 0.24
2003 5642 0.44
2003 5644 0.5
2003 5649 0.46
2004 5645 0.5
2004 5649 1.64
2004 11811 1.45
2004 11814 0.97
2005 5673 0.3
2005 5674 0.34
2005 5705 1.2
2006 6420 0.15
2006 6421 0.73
2006 11596 0.74
2007 5387 1.03
2007 5399 1.08
2007 5400 0.93
2007 6761 3.0
2008 5363 0.2
2008 5721 1.0
2008 6501 0.32
2009 2013 1.14
2009 6422 0.7
2009 6424 1.54
2009 11597 1.14
2010 7021 0.25
2010 7877 0.25
2011 5805 0.25
2011 5807 0.08
2011 5808 0.54
2011 11865 0.7
2012 2021 0.5
2012 10364 0.31
2013 2014 0.76
2013 6425 0.75
2014 4046 1.57
2014 11597 1.63
2014 11599 1.47
2015 2016 0.5
2015 10318 1.02
2016 2391 0.99
2016 10317 0.47
2017 2099 0.63
2017 2101 2.44
2017 4903 0.28
2018 2100 0.63
2018 2102 2.44
2018 4905 0.42
2019 2020 0.04
2019 2099 0.27
2020 4903 0.12
2021 2022 0.5
2021 7020 0.64
2021 7131 0.38
2022 2039 0.25
2022 7022 0.06
2022 7469 0.24
2023 2024 0.04
2023 2100 0.15
2024 4905 0.09
2025 4005 3.22
2025 6412 0.35
2025 6413 0.85
2025 11595 0.63
2026 2038 0.66
2026 6423 1.34
2026 11598 1.6
2026 12644 2.31
2027 2028 0.5
2027 7183 0.39
2027 7469 0.26
2027 10365 0.06
2028 7031 0.06
2028 8057 0.03
2029 2030 0.21
2029 7131 0.19
2029 7166 0.31
2030 7166 0.37
2030 10368 0.2
2031 7166 0.25
2031 7183 0.24
2031 7469 0.37
2031 12571 0.79
2032 2033 0.04
2032 2173 0.75
2033 5052 0.34
2034 2035 0.04
2034 2174 0.75
2035 5051 0.34
2036 2037 1.18
2036 2185 1.5
2036 2186 1.25
2036 10496 1.07
2037 5028 0.1
2037 11632 0.86
2038 6427 0.49
2038 11600 1.69
2038 12642 1.27
2039 7166 0.12
2039 7469 0.23
2040 7183 0.38
2040 7188 0.24
2040 8994 0.31
2041 2042 0.2
2041 6419 1.17
2041 6420 0.83
2042 11539 1.44
2042 12629 0.92
2043 6438 0.87
2043 6442 1.42
2043 11599 0.4
2044 2069 1.26
2044 6429 0.49
2044 11600 0.25
2045 2046 0.5
2045 5218 0.15
2045 12135 0.17
2045 12708 0.14
2046 7840 0.5
2046 12707 0.12
2047 2385 0.2
2047 2912 0.25
2047 8238 2.82
2048 2386 0.2
2048 2912 0.2
2048 8242 2.82
2049 2050 0.12
2049 6707 0.57
2049 7472 0.49
2049 8323 0.12
2050 2055 0.27
2050 7460 0.31
2050 8323 0.06
2051 2052 0.04
2051 2263 0.08
2052 12924 0.08
2053 2054 0.04
2053 12924 0.17
2054 2262 0.17
2055 2056 0.23
2055 7460 0.4
2055 8321 0.12
2056 7498 0.5
2056 7556 0.06
2056 7564 0.35
2057 11859 0.13
2057 11860 1.19
2058 2388 0.4
2058 10153 2.9
2059 2387 0.4
2059 10152 2.9
2060 2126 0.2
2060 2876 0.2
2060 12587 0.5
2061 2062 0.04
2061 2854 0.39
2062 2219 0.38
2063 2064 0.51
2063 7507 0.25
2063 10373 0.25
2063 12612 0.49
2064 7566 0.25
2064 7567 0.25
2065 2066 0.04
2065 2218 0.2
2066 2865 0.2
2067 6908 0.35
2067 8310 0.62
2067 10609 0.25
2068 2083 0.49
2068 8695 0.51
2068 10163 0.5
2068 10611 0.51
2069 2070 1.64
2069 2154 1.22
2069 6441 1.47
2070 6444 0.3
2070 11602 1.45
2071 2214 2.15
2071 3221 0.53
2071 4509 0.1
2071 8581 0.36
2072 2073 0.04
2072 2143 0.38
2073 2141 0.59
2074 2075 0.04
2074 2142 0.38
2075 2140 0.59
2076 2077 0.04
2076 2212 0.98
2077 2211 0.35
2078 2079 0.04
2078 2210 0.35
2079 2427 0.42
2080 2081 0.04
2080 4461 1.14
2081 2125 0.42
2082 2321 0.6
2082 10689 1.04
2082 10690 0.51
2083 2084 0.51
2083 4430 0.51
2084 10611 0.5
2084 10612 0.5
2085 2087 0.31
2085 7669 1.02
2085 9624 0.5
2085 10627 1.0
2086 7669 0.37
2086 10075 0.19
2086 10633 0.81
2087 9625 0.5
2087 10075 1.0
2088 2089 1.0
2088 9625 0.5
2088 10074 1.05
2088 10634 0.31
2089 8363 0.28
2089 10635 0.19
2090 7786 1.0
2090 10642 0.52
2090 10648 0.49
2091 2092 0.48
2091 2118 0.5
2091 7639 0.25
2091 10387 0.25
2092 7638 0.24
2092 7640 0.26
2093 2095 2.27
2093 4489 0.36
2093 8346 2.59
2094 2096 2.27
2094 4490 0.26
2094 8349 2.59
2095 4491 0.17
2095 10053 2.7
2096 4682 0.22
2096 10054 2.7
2097 2099 2.85
2097 4871 0.31
2097 10053 0.21
2098 2100 2.85
2098 4872 0.38
2098 10054 0.21
2101 7792 0.36
2101 7797 0.21
2102 2338 0.27
2102 7789 0.36
2103 7791 0.25
2103 9673 0.72
2103 10058 0.15
2104 10050 0.3
2104 10057 0.3
2104 10061 0.45
2105 2107 1.02
2105 8224 0.35
2105 8875 3.67
2106 2108 1.02
2106 8222 0.34
2106 8874 3.67
2107 2109 2.02
2107 8246 0.21
2108 3925 0.14
2108 8246 0.2
2109 2169 0.58
2109 8259 0.25
2110 2111 1.39
2110 3925 1.88
2110 12249 0.34
2111 2112 0.26
2111 2122 0.3
2111 2123 0.28
2112 2113 0.25
2112 2201 0.77
2112 2202 0.86
2113 2114 0.3
2113 2123 0.27
2113 2170 0.77
2114 2117 0.56
2114 12208 0.18
2115 2121 0.42
2115 2380 0.44
2115 12209 0.18
2116 2117 0.23
2116 2119 0.42
2116 2381 0.44
2117 2124 1.6
2118 2221 0.5
2118 7681 0.25
2118 7683 0.25
2119 4461 0.3
2119 8892 0.1
2120 2128 3.14
2120 6448 0.57
2120 7611 0.39
2121 4461 0.23
2121 12210 0.46
2121 12357 0.5
2122 4461 0.56
2123 2200 1.83
2123 12207 0.55
2123 12211 0.46
2124 8544 0.23
2124 8546 2.98
2125 8545 0.14
2125 8549 2.98
2126 2876 0.29
2126 9205 0.31
2126 10880 0.67
2127 9205 0.4
2127 9209 0.44
2127 10879 0.38
2127 12585 0.49
2128 2157 1.12
2128 6451 0.73
2128 12798 2.3
2129 2153 0.89
2129 6452 0.2
2130 2135 1.0
2130 8550 0.24
2130 8551 0.18
2130 12151 1.1
2131 2133 1.0
2131 8550 0.2
2131 8551 0.18
2131 12149 1.1
2132 2135 0.26
2132 2139 0.59
2132 9031 2.01
2133 2134 0.26
2133 2209 0.86
2134 2136 0.59
2134 12152 2.01
2135 2208 0.86
2136 6634 0.54
2136 12141 0.49
2137 2208 0.86
2137 6635 0.28
2137 12141 0.46
2138 2209 0.86
2138 6636 0.25
2138 12142 0.46
2139 6637 0.18
2139 12142 0.57
2140 6637 0.18
2140 8558 0.21
2140 8562 0.24
2141 6634 0.18
2141 8558 0.17
2141 8562 0.25
2142 2144 0.58
2142 8574 0.27
2143 2145 0.58
2143 8569 0.21
2144 2146 1.53
2144 2210 1.0
2145 2147 1.53
2145 4521 0.8
2146 2148 3.06
2146 8583 0.26
2146 8586 0.2
2147 2149 3.06
2147 8583 0.28
2147 8586 0.18
2148 2155 1.28
2148 2345 0.46
2149 2345 0.23
2149 12715 1.28
2150 2155 0.23
2150 12637 0.27
2150 12638 0.2
2151 2346 0.15
2151 2448 0.1
2151 12634 0.25
2151 12652 0.25
2152 2320 1.01
2152 10914 0.5
2152 11191 0.5
2153 4230 0.76
2153 6451 0.91
2154 2157 0.45
2154 6443 1.64
2155 2158 0.5
2155 2447 0.35
2156 10885 0.5
2156 10891 0.54
2156 10892 0.85
2156 12772 0.49
2157 11602 0.2
2158 2163 2.64
2158 2451 0.38
2159 9207 0.51
2159 10878 0.51
2159 10885 0.52
2159 12582 0.5
2160 9207 0.42
2160 10879 0.46
2160 12579 0.54
2161 2580 0.21
2161 10431 0.42
2161 12794 0.22
2161 12795 0.15
2162 2171 0.49
2162 2223 1.45
2162 2229 1.45
2162 4139 2.39
2162 11605 0.64
2163 4531 0.13
2164 2893 0.22
2164 12715 2.64
2165 2887 0.39
2165 10035 0.2
2166 2886 0.24
2166 10040 0.2
2167 2914 0.14
2167 2915 0.39
2167 10040 5.3
2167 10042 5.28
2168 2914 0.31
2168 2915 0.13
2168 10035 5.3
2168 10041 5.28
2169 2170 0.04
2171 2193 0.54
2171 2246 1.52
2172 2224 0.5
2172 10906 1.0
2172 10907 0.5
2172 12656 1.77
2173 2729 0.25
2173 10041 0.2
2174 2730 0.24
2174 10042 0.2
2175 2177 1.6
2175 5058 0.38
2176 2725 0.16
2176 5057 0.38
2176 5064 1.2
2177 5063 0.3
2178 2182 2.84
2178 5062 0.12
2178 5064 0.4
2179 2180 0.23
2179 2182 0.31
2179 2184 3.1
2180 2181 0.35
2180 5063 2.54
2181 2182 0.22
2181 2183 3.1
2183 2185 1.91
2183 2740 0.1
2184 2186 1.91
2184 2753 0.09
2185 2738 0.31
2185 2739 0.25
2186 2738 0.2
2186 2739 0.19
2187 2188 0.3
2187 6733 0.34
2187 9352 0.67
2188 2267 0.14
2188 2429 1.44
2189 2192 2.5
2189 2428 3.47
2189 4951 0.37
2189 12974 2.52
2190 2194 2.5
2190 2429 3.47
2190 4954 0.33
2191 9076 1.07
2191 11021 0.93
2191 11024 1.07
2191 12163 0.38
2192 4949 0.27
2192 9900 3.75
2193 2222 0.78
2193 4128 2.43
2193 11603 0.49
2194 4947 0.3
2194 9899 3.75
2195 2300 0.4
2195 6868 0.18
2195 9899 2.25
2196 2316 0.4
2196 6867 0.18
2196 9900 2.25
2197 2199 2.55
2197 7583 0.38
2197 12394 2.7
2198 2200 2.55
2198 7587 0.25
2198 12397 2.7
2199 7592 0.27
2199 12497 0.91
2200 5149 0.27
2201 12310 0.2
2201 12498 0.14
2202 2380 0.62
2202 2382 0.66
2203 2381 0.62
2203 2383 0.66
2203 12206 0.27
2204 8275 0.57
2204 8602 0.2
2204 12513 0.96
2205 8274 0.57
2205 8606 0.16
2205 12516 0.96
2206 2209 1.1
2206 8565 0.2
2206 8566 0.17
2206 12504 1.01
2207 2208 1.1
2207 8565 0.16
2207 8566 0.15
2207 12499 1.01
2208 8557 0.12
2210 4506 0.15
2211 4521 0.2
2211 12142 1.15
2212 3221 0.2
2212 8578 0.4
2213 2307 1.0
2213 10723 1.0
2213 10729 1.54
2214 8610 0.54
2214 9887 0.68
2215 8609 0.33
2215 9893 0.68
2215 12143 2.91
2216 2219 3.07
2216 8612 0.39
2216 9992 0.9
2217 2218 3.07
2217 8611 0.4
2217 9990 0.9
2218 2270 3.8
2218 2865 0.41
2219 2271 3.8
2219 2854 0.34
2220 2221 0.5
2220 2276 0.37
2220 7724 0.25
2220 7727 0.25
2221 7682 0.25
2221 10393 0.25
2222 2241 0.11
2222 11603 0.86
2223 2246 0.29
2223 6513 2.21
2224 2228 0.5
2224 10900 1.0
2224 12637 0.94
2225 6692 0.28
2225 10724 1.01
2225 10730 1.51
2226 2439 0.5
2226 10413 0.35
2226 12708 0.11
2227 12790 0.47
2227 12792 0.13
2227 12793 0.21
2228 10901 0.71
2228 10907 0.51
2229 2246 0.31
2229 6514 2.21
2230 2231 0.3
2230 2268 0.16
2230 2428 1.44
2231 6712 0.34
2231 9349 0.67
2232 2308 0.24
2232 2309 0.37
2232 2375 0.31
2232 4535 0.27
2233 2241 1.28
2233 4231 1.3
2233 11604 0.6
2234 3244 0.99
2234 3485 0.22
2234 12792 0.62
2235 3245 0.99
2235 3582 0.22
2235 12793 0.62
2236 2245 0.61
2236 2254 0.35
2236 10071 0.44
2237 10908 0.46
2237 10909 0.5
2238 2243 1.01
2238 10909 0.24
2238 10910 0.48
2239 2254 0.57
2239 4240 0.25
2239 11604 0.81
2240 7488 0.63
2240 10919 0.51
2240 12744 0.52
2241 4229 0.24
2242 2243 1.02
2242 10914 0.5
2242 10919 0.51
2243 10913 0.26
2243 11191 0.49
2244 2245 1.48
2244 11551 1.06
2244 11557 0.9
2245 11604 0.9
2246 4240 0.39
2247 2253 1.8
2247 4241 1.21
2247 11605 0.15
2248 2249 0.93
2248 2252 0.75
2248 12821 0.55
2249 2250 0.07
2249 12821 1.12
2249 12823 0.1
2250 2251 0.5
2250 12817 1.25
2250 12823 0.07
2251 2376 0.51
2251 12816 1.27
2251 12824 0.75
2252 10681 1.01
2252 10926 1.01
2253 2277 0.44
2253 4245 1.54
2253 4246 1.01
2254 11606 0.9
2255 2256 1.05
2255 12740 1.31
2255 12806 0.74
2256 11038 1.1
2256 11039 1.25
2257 4558 0.37
2257 11038 1.16
2257 12802 1.63
2258 4246 2.19
2258 11575 0.6
2258 11606 0.87
2259 2260 1.52
2259 11823 0.59
2259 12800 1.01
2260 11037 1.39
2261 2273 1.0
2261 11034 1.46
2261 11693 0.95
2262 2350 0.1
2262 2638 0.15
2262 2690 4.21
2263 2349 0.06
2263 2634 0.17
2263 10152 0.74
2264 10133 0.6
2264 12924 0.37
2265 2579 0.55
2265 3396 0.58
2265 3397 0.78
2265 7497 0.4
2265 10421 0.51
2266 2267 0.04
2266 6733 0.14
2268 2269 0.04
2269 6712 0.16
2270 2855 0.28
2270 9894 0.58
2271 2864 0.47
2271 9895 0.58
2272 4761 1.07
2272 4892 0.29
2272 12883 0.41
2273 2275 1.3
2273 4577 1.03
2273 4892 1.0
2274 5218 0.45
2274 10418 0.99
2274 12703 0.3
2275 11664 0.67
2275 12884 0.25
2276 2342 0.25
2276 6727 0.25
2276 10399 0.25
2277 2291 1.15
2277 4248 1.43
2277 4249 1.02
2278 4996 0.81
2279 2280 1.52
2279 2284 0.5
2279 2332 0.5
2279 4982 0.5
2280 2281 1.03
2280 2285 0.51
2281 2282 0.74
2281 2286 0.5
2281 10930 0.51
2282 2283 1.27
2282 5011 0.47
2282 10931 1.03
2283 10927 0.5
2283 10928 1.04
2284 2285 1.52
2284 4983 0.5
2285 2286 1.01
2286 12939 0.98
2287 10928 1.0
2287 10931 0.26
2287 12940 0.5
2288 2289 1.0
2288 10929 1.51
2288 12891 0.26
2289 2290 1.0
2289 12940 0.25
2289 12941 1.53
2290 2292 1.0
2290 10932 1.27
2290 12939 0.25
2291 4253 1.19
2291 4254 1.35
2291 11976 0.99
2292 2293 0.5
2293 2295 1.26
2293 4998 0.5
2294 2397 0.51
2294 4998 0.5
2295 4999 0.5
2295 9675 0.5
2295 10935 0.5
2296 2404 0.9
2296 4901 0.2
2297 2298 0.27
2297 2316 0.15
2297 2395 0.58
2297 6866 0.45
2298 2300 0.15
2298 3098 0.63
2298 6869 0.45
2299 2300 0.48
2299 2317 0.27
2299 3093 0.63
2299 6869 0.75
2300 10060 2.36
2301 2326 2.78
2301 4255 0.69
2301 4261 1.4
2301 12909 2.65
2302 2303 0.87
2302 2304 0.34
2302 11973 0.13
2302 11974 0.49
2303 4272 0.73
2303 11974 0.79
2304 2326 0.52
2304 2331 2.68
2305 10687 0.99
2305 12830 0.44
2305 12831 0.52
2306 2597 0.21
2306 8870 1.0
2306 10682 1.0
2306 10683 0.27
2307 2344 1.01
2307 2358 1.66
2307 6691 0.26
2308 2310 1.82
2308 2375 0.27
2308 12652 0.33
2309 2311 1.82
2309 2375 0.24
2309 12634 0.57
2310 2312 1.66
2310 2883 0.27
2310 2884 0.33
2311 2313 1.66
2311 2883 0.35
2311 2884 0.32
2312 2314 2.02
2312 2881 0.25
2312 2882 0.4
2313 2315 2.02
2313 2881 0.34
2313 2882 0.3
2314 2877 0.37
2314 2878 0.22
2314 9967 1.57
2315 2877 0.22
2315 2878 0.36
2315 9968 1.57
2316 2317 0.32
2316 10059 2.36
2317 2396 0.58
2317 6866 0.15
2318 2330 0.45
2318 4902 0.08
2318 11649 1.01
2319 10437 0.2
2319 12875 0.25
2319 12876 0.3
2319 12877 0.46
2320 11192 0.5
2320 11193 0.5
2321 2322 0.41
2321 8870 1.01
2321 10684 0.48
2322 2323 0.25
2322 10683 0.95
2322 10684 0.63
2323 2914 0.29
2323 10685 1.04
2324 2914 0.1
2324 2915 0.25
2324 10110 0.5
2324 10683 0.73
2325 10672 0.5
2325 10677 0.5
2326 12919 2.28
2327 4267 0.74
2327 9384 0.51
2327 9385 0.6
2327 11834 0.7
2328 10654 0.24
2328 10660 1.0
2328 12670 1.01
2328 12677 1.01
2329 3837 0.8
2329 9663 1.4
2329 11021 0.5
2330 9656 0.27
2331 4261 0.68
2331 9385 1.86
2332 4981 0.5
2332 10933 0.75
2333 2880 0.96
2333 12808 0.55
2333 12885 1.46
2334 3933 0.5
2334 4083 1.02
2334 11062 0.52
2334 11068 0.97
2335 2689 0.26
2335 11050 0.39
2335 11056 0.84
2336 8362 0.9
2336 11004 1.03
2336 12138 0.52
2336 12159 1.77
2337 2343 0.63
2337 2481 0.82
2337 12600 1.0
2338 7794 0.27
2338 7797 0.26
2339 2340 0.5
2339 7808 0.25
2339 7813 0.26
2340 2341 0.5
2340 7806 0.25
2340 10405 0.25
2341 2342 0.38
2341 7805 0.25
2341 7809 0.25
2342 7726 0.25
2342 7729 0.25
2343 2353 0.72
2343 11031 1.5
2344 10719 1.0
2344 10723 0.99
2344 10724 1.0
2345 4537 0.15
2346 2448 0.19
2346 4538 0.16
2346 6748 0.11
2347 2447 0.53
2347 6748 0.23
2347 12634 0.36
2348 6748 0.22
2348 12652 0.36
2348 12674 0.53
2349 2691 4.21
2350 10153 0.74
2351 2352 1.01
2351 11031 0.63
2351 12609 1.03
2352 2353 0.51
2352 2363 1.3
2353 2357 0.57
2353 6324 1.39
2354 4925 0.85
2354 10735 1.0
2354 10741 0.1
2355 10736 1.03
2355 10741 0.88
2355 10742 0.12
2356 10738 1.0
2356 10743 0.85
2356 11817 0.93
2357 2481 1.02
2357 11032 1.12
2357 11206 1.37
2358 6687 0.25
2358 10729 1.0
2358 10737 1.52
2359 2360 0.71
2359 5615 0.46
2360 5025 0.97
2360 10494 0.89
2361 2362 0.69
2361 7300 0.79
2361 10320 1.78
2362 6007 0.45
2363 6324 0.68
2363 6341 1.9
2363 11205 0.75
2364 2740 0.16
2364 10485 0.79
2364 10491 0.75
2365 9679 1.48
2365 9684 1.15
2365 11151 0.13
2366 2662 0.54
2366 10480 0.25
2366 10485 1.04
2367 2662 0.38
2367 5038 0.12
2367 10474 0.4
2367 10481 0.5
2368 5072 0.23
2368 5109 1.26
2368 10469 0.66
2369 10294 0.1
2369 12719 0.12
2369 12722 0.37
2369 12723 0.4
2370 2374 0.3
2370 6345 0.82
2370 11208 1.04
2371 2756 0.67
2371 10691 0.35
2371 10697 0.95
2371 12154 0.33
2372 2374 1.05
2372 2408 1.55
2372 2422 1.25
2372 11211 1.27
2373 10446 0.74
2373 10692 0.82
2373 12857 0.46
2373 12956 1.32
2374 12683 1.48
2375 4536 0.32
2376 12745 1.26
2376 12824 0.89
2377 7432 0.19
2377 7774 0.42
2377 7854 0.5
2377 10291 0.19
2378 2393 0.37
2378 2399 0.22
2378 9682 0.62
2379 2397 1.3
2379 4999 0.94
2380 8510 0.21
2380 8511 0.25
2381 8510 0.22
2381 8511 0.2
2382 8513 0.2
2382 12216 0.25
2382 12317 0.2
2383 12213 0.68
2383 12216 0.28
2383 12317 0.23
2384 7635 0.13
2384 10061 1.8
2384 12495 1.85
2385 2388 0.04
2386 2387 0.04
2389 4978 1.56
2389 4991 0.18
2389 5002 1.22
2389 11672 0.55
2390 6336 0.32
2390 6341 0.77
2390 9682 0.77
2390 11209 0.77
2391 10318 0.52
2391 11870 1.2
2392 10315 0.71
2392 10317 0.36
2393 9681 0.21
2393 11212 2.0
2394 10440 0.21
2394 10446 0.65
2394 12857 0.27
2395 2418 1.41
2395 11776 0.35
2396 2415 0.35
2396 2419 1.41
2398 10918 1.36
2398 10924 0.25
2399 6337 0.54
2399 11210 0.23
2400 2830 1.04
2400 10699 1.0
2400 12944 0.4
2401 2716 0.37
2401 11640 0.81
2402 10479 0.31
2403 6337 0.46
2403 9683 0.48
2403 11207 1.55
2404 2723 0.53
2404 7523 0.65
2405 7432 0.19
2405 9154 0.69
2405 10291 0.1
2406 2407 0.22
2406 2897 0.36
2406 6737 0.08
2406 7654 0.19
2407 7654 0.17
2407 7655 0.06
2408 9680 1.02
2408 11209 1.4
2408 11212 1.02
2409 2414 1.3
2409 6347 1.01
2409 11210 0.93
2410 2412 0.5
2410 9658 0.11
2410 10739 0.9
2411 2414 0.5
2411 2488 0.8
2411 11212 0.26
2413 10477 0.27
2413 10483 0.42
2414 6352 0.5
2415 10963 0.35
2415 11776 0.55
2416 6586 0.05
2416 9077 0.36
2416 11000 0.61
2416 11776 1.5
2417 6582 0.05
2417 8268 1.5
2417 9078 0.5
2417 11003 0.68
2418 2421 0.4
2418 6586 0.25
2419 2420 0.4
2419 6582 0.08
2420 3851 1.04
2420 6371 0.29
2420 6387 0.32
2421 3853 1.04
2421 6371 0.32
2421 6387 0.29
2422 2476 0.24
2422 6350 1.76
2423 7716 0.96
2423 7719 1.15
2423 7788 0.08
2423 10644 0.05
2424 2425 0.07
2424 6374 0.5
2424 6376 0.05
2424 6378 0.25
2425 6376 0.06
2425 6385 0.39
2425 8754 0.2
2426 2449 0.08
2426 4395 0.28
2426 6335 0.03
2426 6340 0.23
2427 4503 0.34
2427 4508 0.07
2427 12143 0.74
2428 2430 0.09
2428 6651 0.19
2429 2433 0.08
2429 6651 0.19
2430 2431 0.04
2431 6651 0.08
2432 2433 0.04
2432 6651 0.08
2434 10838 0.5
2434 12402 0.11
2434 12774 0.15
2435 8449 0.12
2435 8450 0.64
2435 8900 0.61
2435 10503 0.44
2436 10861 0.49
2436 10862 0.5
2436 10868 0.53
2437 2442 0.45
2437 5216 0.17
2437 12135 0.47
2438 2444 0.45
2438 5215 0.17
2438 12136 0.47
2439 5215 0.12
2439 10419 0.49
2440 4007 0.08
2440 8363 0.5
2440 10630 0.5
2441 2443 0.45
2441 3245 1.2
2441 5215 0.21
2442 2444 0.44
2442 3244 1.2
2443 5202 0.71
2443 5216 0.28
2444 5200 0.71
2445 8892 0.38
2445 12356 0.63
2445 12357 0.24
2445 12358 0.87
2446 2554 0.5
2446 4050 0.19
2446 4051 0.37
2447 2453 1.28
2448 12638 0.2
2449 6304 0.19
2449 6335 0.06
2449 10583 0.21
2450 2452 0.13
2450 6724 0.22
2450 6728 0.07
2450 6731 0.38
2451 2454 0.79
2451 12674 0.49
2452 4401 0.19
2452 4402 0.16
2452 6728 0.13
2453 2455 3.48
2454 2456 3.48
2455 8213 1.23
2456 8216 1.23
2457 4344 0.15
2457 7516 0.33
2457 10350 0.17
2458 4344 0.16
2458 4753 0.4
2458 9339 0.16
2459 2645 0.07
2459 2874 0.09
2459 4725 0.07
2460 2461 0.18
2460 2795 0.11
2460 4062 0.21
2461 4064 0.2
2461 9905 0.13
2461 9906 0.04
2462 2463 0.08
2462 4052 0.06
2462 4302 0.25
2462 8841 0.51
2463 4055 0.08
2463 4301 0.24
2463 8835 0.52
2464 4060 0.08
2464 4062 0.14
2464 4298 0.24
2465 2466 0.08
2465 4259 0.08
2465 4309 0.03
2465 9340 0.08
2466 4311 0.03
2466 4398 0.1
2466 9343 0.04
2467 2803 0.24
2467 4320 0.04
2467 4324 0.09
2467 4455 0.08
2468 7775 0.03
2468 9001 0.18
2468 11307 0.31
2468 11308 0.57
2469 7775 0.1
2469 9901 0.4
2469 12205 1.59
2470 3750 1.49
2470 3756 0.27
2470 4012 1.26
2470 11615 0.56
2471 5099 0.25
2471 5104 0.07
2471 7933 0.08
2472 2473 1.51
2472 5531 2.65
2472 6648 0.32
2472 11840 2.02
2473 6649 0.93
2473 9395 1.0
2473 11960 2.51
2474 2624 0.34
2474 2709 0.47
2474 2935 0.11
2475 4080 0.21
2475 9906 0.06
2475 9909 0.13
2475 9912 0.05
2476 2486 1.0
2476 2498 1.47
2477 4951 0.49
2477 11023 0.57
2477 12164 1.47
2477 12168 0.26
2478 9229 0.21
2478 9331 0.21
2478 9911 0.13
2478 9912 0.05
2479 3878 0.16
2479 11026 1.04
2479 12159 0.75
2479 12189 1.5
2480 2481 0.72
2480 11029 0.85
2480 11780 1.09
2480 12174 1.25
2481 12155 0.91
2482 7483 0.1
2482 9913 0.1
2483 2484 0.12
2483 2758 0.07
2483 9917 0.09
2484 4375 0.33
2484 4440 0.26
2484 9918 0.09
2485 2492 0.22
2485 2546 0.08
2485 2797 0.21
2486 11211 1.59
2486 12826 1.12
2487 2504 1.11
2487 2515 0.27
2487 3432 0.63
2487 6383 1.12
2488 2502 0.99
2488 6351 0.57
2488 11216 1.33
2489 2518 0.77
2489 6398 0.53
2489 6399 0.61
2489 11222 0.68
2490 2491 0.14
2490 2780 0.08
2490 4518 0.07
2490 4523 0.1
2491 9328 0.1
2491 9344 0.08
2492 2547 0.08
2492 9228 0.33
2493 2494 0.07
2493 4523 0.1
2493 9328 0.06
2494 4532 0.08
2494 9326 0.09
2494 10363 0.08
2495 2496 0.07
2495 2499 0.1
2495 9327 0.09
2496 2497 0.08
2496 2506 0.09
2496 9326 0.09
2497 2513 0.09
2497 9325 0.09
2498 11214 0.38
2498 12826 0.97
2499 2506 0.07
2499 9231 0.62
2500 10129 0.2
2500 10147 0.2
2500 11882 0.23
2501 2502 0.56
2501 2909 0.25
2501 6351 1.05
2501 11215 0.52
2502 2910 0.35
2502 11216 0.49
2503 2910 1.85
2503 3600 1.17
2503 6372 0.7
2503 11219 0.72
2504 2508 1.09
2504 6383 0.26
2504 11178 0.75
2505 5835 0.5
2505 10181 0.31
2505 10185 0.5
2505 11886 0.98
2506 2513 0.08
2506 4554 0.12
2507 5814 0.38
2507 5816 0.94
2507 5841 0.52
2507 10183 0.5
2508 2515 1.31
2508 6396 0.05
2509 5819 0.13
2509 5831 0.37
2509 10211 0.5
2509 10212 0.19
2510 5822 0.12
2510 5824 0.38
2510 5832 0.25
2510 12286 0.81
2511 5829 0.06
2511 10218 0.56
2511 11912 0.2
2511 11927 0.66
2512 6193 1.0
2512 12309 0.62
2512 12428 0.79
2513 4555 0.12
2514 6380 0.42
2514 6381 0.5
2514 6382 0.14
2515 6382 0.45
2516 6399 0.68
2516 11220 1.4
2516 11221 0.78
2516 11795 0.75
2517 2527 0.17
2517 4337 0.07
2517 4641 0.1
2517 9329 0.15
2518 6396 0.85
2518 6402 0.7
2518 12523 1.08
2519 5905 0.5
2519 10198 0.7
2519 12272 0.5
2520 2931 0.2
2520 5874 0.51
2520 10220 0.5
2520 11914 0.5
2521 5909 0.25
2521 5910 0.5
2521 11980 0.6
2522 2933 0.15
2522 5876 0.5
2522 10221 0.34
2522 11914 0.5
2523 5897 0.6
2523 5912 0.19
2523 5913 0.53
2523 11917 0.9
2524 5915 0.65
2524 5919 0.08
2524 6215 1.09
2524 12306 0.78
2525 6209 0.49
2525 6218 1.0
2525 6221 0.25
2525 6222 0.5
2526 6199 0.09
2526 6202 0.94
2526 6203 0.42
2526 6208 0.42
2527 4336 0.07
2527 4553 0.07
2527 7515 0.35
2528 10195 1.3
2528 11892 1.95
2528 11893 0.5
2528 12417 1.01
2529 5939 0.54
2529 5949 0.46
2529 5950 0.75
2529 5968 1.15
2530 2531 0.77
2530 6239 0.75
2530 11918 1.7
2530 11999 0.47
2531 6240 0.81
2531 6245 0.04
2532 6239 0.53
2532 6240 0.49
2532 12000 0.75
2533 5983 0.33
2533 5984 0.41
2533 6022 2.04
2533 11895 1.19
2534 5988 0.74
2534 6004 0.77
2534 6009 1.74
2534 6027 1.21
2535 6012 0.25
2535 6013 0.25
2535 6014 1.21
2535 11921 1.55
2536 5997 1.0
2536 6014 0.27
2536 6018 0.48
2536 11988 1.5
2537 6021 1.0
2537 6249 0.74
2537 6263 1.0
2537 6267 0.26
2538 6039 1.75
2538 6071 0.16
2538 6072 1.4
2539 6080 0.23
2539 6091 0.26
2539 6093 0.51
2539 11923 0.06
2540 6099 0.5
2540 6119 0.26
2540 6120 0.32
2540 11990 1.52
2541 2542 0.32
2541 6103 0.85
2541 6125 1.0
2541 6126 0.23
2542 6126 0.22
2542 6301 2.25
2542 11991 0.78
2543 4553 0.34
2543 7515 0.07
2543 10366 0.16
2544 2545 0.08
2544 7337 0.24
2544 8052 0.37
2545 2548 0.16
2545 7517 0.19
2545 10362 0.67
2546 4164 0.04
2546 4191 0.03
2547 2713 0.04
2547 4209 0.04
2548 2549 0.07
2548 9231 0.18
2548 10367 0.1
2549 2550 0.09
2549 7434 0.35
2549 9232 0.18
2550 2551 0.09
2550 7436 0.35
2550 9233 0.18
2551 7437 0.35
2551 9234 0.18
2552 2553 0.07
2552 7436 0.25
2552 7438 0.22
2553 7437 0.3
2554 2555 0.2
2554 6437 0.24
2554 6593 0.19
2555 6401 0.3
2555 6433 0.12
2555 6593 0.3
2556 2559 0.17
2556 2849 0.05
2556 4615 0.15
2556 4739 0.03
2557 3086 1.19
2557 4676 0.5
2557 11801 0.86
2557 11802 0.51
2558 4625 1.19
2558 4626 0.29
2558 10004 1.09
2559 2560 0.27
2559 2850 0.04
2559 4645 0.11
2559 4743 0.02
2560 2561 0.28
2560 2850 0.22
2561 4372 0.16
2561 7031 0.1
2561 8022 0.19
2561 10366 0.3
2562 2563 0.08
2562 2564 0.2
2562 7188 0.03
2563 7130 0.23
2563 7283 0.3
2564 4372 0.15
2564 7130 0.09
2564 8994 0.08
2565 2566 0.63
2565 12578 0.65
2565 12580 0.31
2566 10878 0.63
2566 12579 0.23
2567 2568 0.1
2567 7480 0.45
2567 10881 0.15
2567 12588 0.15
2568 10881 0.21
2568 10886 0.2
2569 2570 0.5
2569 12677 0.51
2569 12678 0.5
2570 2571 0.52
2570 10655 0.5
2570 12679 0.5
2571 2572 0.08
2571 10661 0.48
2571 12682 0.49
2572 10662 0.5
2572 12684 0.52
2572 12686 0.54
2573 5128 0.38
2573 10440 0.85
2573 10686 0.41
2574 12854 0.12
2574 12857 0.42
2574 12860 0.75
2575 9217 0.64
2575 10447 0.53
2575 12964 0.5
2576 2577 0.5
2576 9217 0.83
2576 12904 0.5
2577 9640 0.09
2577 10455 0.5
2577 12905 0.4
2578 7496 0.45
2578 10408 0.75
2578 12710 0.36
2579 7496 0.36
2579 10420 0.42
2580 2581 1.9
2580 2583 2.32
2581 3484 0.13
2581 12726 1.13
2582 10302 1.0
2582 10433 0.52
2583 10439 0.24
2583 12877 0.2
2584 2586 0.5
2584 10302 0.72
2585 10303 0.4
2585 10305 0.51
2586 2587 0.31
2586 10304 0.25
2586 10305 0.39
2587 10304 0.4
2587 10306 0.38
2588 2589 0.16
2588 2598 0.43
2588 10415 0.77
2588 12718 0.39
2589 2594 0.17
2589 12719 0.2
2590 2591 0.2
2590 2594 0.15
2590 2598 0.4
2591 2592 0.2
2591 2594 0.16
2592 2593 0.44
2592 7855 0.45
2592 10294 0.26
2593 10293 0.41
2593 12720 0.25
2594 12719 0.05
2595 2596 0.25
2595 10296 0.56
2595 12727 0.25
2596 12728 0.23
2596 12729 0.76
2597 10676 1.15
2597 10683 0.32
2598 7849 0.4
2599 7522 1.0
2599 9675 0.25
2599 10935 0.5
2599 12942 1.02
2600 2601 0.48
2600 10715 0.3
2600 10716 0.72
2601 2608 0.63
2601 2683 0.58
2602 2603 0.1
2602 2605 0.33
2602 2609 0.66
2603 2604 0.13
2604 2608 0.36
2605 2606 0.7
2605 10716 0.35
2605 10722 0.51
2606 2607 0.5
2606 10716 0.5
2607 10721 0.75
2608 2683 0.52
2608 10716 0.15
2609 2610 0.4
2610 2611 0.36
2610 2612 0.5
2611 10710 1.0
2612 2613 0.25
2613 2614 0.13
2613 10464 0.3
2614 10470 0.21
2615 2620 0.6
2615 5087 0.14
2615 10458 0.5
2616 2617 0.04
2616 5962 0.35
2617 5963 0.35
2618 2619 0.04
2618 2664 0.4
2619 2665 0.4
2620 2621 0.25
2620 5088 0.5
2620 5092 0.13
2621 2622 0.51
2621 5089 0.5
2621 5093 0.13
2622 5090 0.5
2622 5095 0.13
2623 5096 0.12
2623 10459 0.54
2624 2625 0.52
2624 2934 0.52
2625 5966 0.19
2625 6182 1.58
2626 2627 0.04
2626 2935 0.16
2627 2667 0.16
2628 2629 1.13
2628 12965 0.14
2628 12966 0.17
2629 5114 0.48
2630 2631 0.58
2632 2633 0.36
2632 10309 0.27
2633 2636 0.26
2634 2635 0.04
2635 12924 0.17
2636 2637 0.18
2636 10309 0.17
2637 5124 0.25
2637 5125 0.13
2638 2639 0.04
2639 12924 0.15
2640 2872 0.07
2640 4312 0.06
2640 4734 0.09
2640 10353 0.09
2641 2869 0.08
2641 4321 0.05
2641 4323 0.08
2641 4737 0.1
2642 2644 0.08
2642 2645 0.08
2642 2874 0.08
2642 4269 0.08
2643 2644 0.07
2643 2647 0.08
2643 2677 0.11
2643 4269 0.1
2644 2646 0.1
2644 2873 0.08
2645 4137 0.06
2645 9339 0.09
2646 2647 0.08
2646 2872 0.08
2646 4406 0.09
2647 2648 0.11
2647 2768 0.13
2648 2649 0.08
2648 4406 0.07
2648 4409 0.13
2649 2672 0.08
2649 4456 0.08
2649 4681 0.1
2650 2666 0.2
2650 6323 3.64
2651 2667 0.18
2651 10149 2.55
2652 2654 0.92
2652 2921 0.26
2652 2922 0.26
2653 2656 0.92
2653 2921 0.26
2653 2922 0.26
2654 2658 1.88
2654 2923 0.3
2654 2924 0.3
2655 2924 0.38
2655 10186 0.51
2655 10191 0.99
2655 10192 0.35
2656 2659 1.88
2656 2923 0.3
2656 2924 0.3
2657 9895 1.75
2657 12952 2.0
2658 2661 1.49
2658 2925 0.16
2658 2926 0.16
2659 2660 1.49
2659 2925 0.3
2659 2926 0.16
2660 2669 2.47
2660 2927 0.26
2661 2668 2.47
2661 2928 0.26
2662 10316 1.0
2663 4842 0.21
2663 4857 0.37
2663 6483 0.61
2663 11747 0.28
2664 2665 0.15
2664 10142 3.0
2664 10148 1.0
2665 5962 0.16
2666 2707 0.16
2666 2935 0.36
2666 10148 2.55
2667 2935 0.3
2667 6319 3.64
2668 2670 1.0
2668 2930 0.25
2668 2931 0.25
2669 2671 1.0
2669 2930 0.25
2669 2931 0.25
2670 2932 0.25
2670 2933 0.25
2670 5887 1.06
2671 2932 0.25
2671 2933 0.25
2671 5888 1.06
2672 2673 0.08
2672 2769 0.13
2672 4481 0.09
2673 2674 0.09
2673 2869 0.07
2673 4456 0.09
2674 2675 0.15
2674 4340 0.08
2674 4481 0.07
2675 4339 0.06
2675 4484 0.06
2675 9329 0.17
2676 2785 0.09
2676 4782 0.09
2677 2682 0.07
2677 2768 0.09
2677 4282 0.08
2678 6815 2.0
2678 9894 1.75
2679 9657 0.65
2679 10734 0.8
2680 2681 0.43
2680 5024 0.55
2680 9657 1.27
2680 10746 0.41
2681 10746 0.44
2682 2694 0.09
2682 2767 0.1
2682 4286 0.09
2683 5047 0.06
2684 2685 0.5
2684 10487 0.81
2684 10489 0.5
2685 10805 0.5
2686 10482 0.68
2687 6100 0.3
2687 6101 0.04
2687 6106 0.42
2687 6125 1.0
2688 2689 1.18
2688 11044 0.3
2688 11045 0.93
2689 11051 0.46
2690 10140 1.15
2691 10141 1.15
2692 11783 0.26
2692 12031 0.21
2693 2696 1.0
2693 10828 0.63
2693 11072 0.38
2694 2700 0.07
2694 2766 0.09
2694 4295 0.09
2695 2892 2.37
2695 4580 0.83
2695 7418 0.36
2695 11822 1.92
2696 2697 1.17
2696 12226 0.3
2697 11078 0.45
2697 12150 0.11
2698 5714 1.0
2698 5723 1.0
2698 5724 1.0
2698 5736 0.99
2699 2717 0.3
2699 11077 0.16
2699 12217 0.2
2700 2701 0.08
2700 2765 0.09
2700 10354 0.1
2701 2710 0.08
2701 2764 0.08
2701 4346 0.09
2702 4890 0.97
2702 5006 1.49
2702 5008 1.0
2702 11667 0.5
2703 2704 0.29
2703 2706 0.2
2703 11749 0.58
2704 2705 0.2
2704 4844 0.28
2705 4764 4.76
2705 12882 3.89
2706 4763 4.76
2706 12881 4.0
2707 2708 0.04
2708 2935 0.16
2709 10213 0.55
2709 11912 1.23
2710 2711 0.1
2710 2763 0.08
2710 4348 0.08
2711 2712 0.08
2711 2713 0.08
2711 4346 0.07
2712 2757 0.1
2713 2714 0.08
2713 4225 0.07
2714 2715 0.17
2714 4207 0.08
2714 4216 0.08
2715 4762 0.08
2715 9334 0.11
2717 2741 0.47
2718 10489 0.62
2718 10493 0.16
2719 10726 0.43
2720 2725 0.4
2720 10722 0.64
2721 3123 0.36
2721 11225 0.69
2721 11806 0.25
2721 11807 0.72
2722 10718 0.15
2723 10711 0.38
2723 10712 0.57
2723 10717 0.19
2724 2726 0.69
2724 2913 0.98
2724 10123 0.44
2724 11228 0.25
2726 2831 1.16
2726 4639 0.84
2726 11805 0.37
2727 10471 0.59
2728 5061 0.12
2728 5064 0.26
2728 9637 0.17
2729 2730 0.36
2729 12958 0.49
2730 10704 0.5
2731 2732 0.25
2733 2734 0.36
2733 5109 0.05
2734 5108 0.08
2735 2736 0.25
2735 10314 1.01
2735 10469 0.99
2736 10475 0.57
2737 7489 0.28
2737 10319 0.57
2738 2739 0.38
2738 10491 1.1
2740 2753 0.03
2741 3923 0.25
2741 4492 0.5
2742 2750 0.8
2742 4494 0.5
2742 11083 0.57
2743 11502 0.76
2743 12199 0.45
2743 12200 0.58
2744 3978 0.27
2744 10540 0.14
2744 12333 0.07
2744 12334 0.1
2745 7467 0.86
2745 9096 0.68
2745 10767 0.97
2745 10770 0.35
2746 8972 0.51
2746 10866 0.66
2746 12548 0.5
2747 2748 1.75
2747 11016 0.6
2747 12200 1.72
2747 12482 0.25
2748 12166 0.64
2748 12170 0.56
2748 12171 1.62
2749 2750 0.69
2749 11084 0.26
2749 11089 0.26
2750 2751 0.15
2751 2752 0.23
2751 7077 0.09
2751 7555 0.15
2752 2866 0.25
2752 7077 0.17
2752 11078 0.29
2754 2755 0.25
2754 10451 0.97
2754 12914 0.26
2755 10450 0.9
2755 12915 0.23
2756 10697 0.59
2756 12896 0.1
2757 2758 0.1
2757 4239 0.1
2757 4362 0.09
2758 4373 0.09
2758 10355 0.09
2759 2760 0.1
2759 2778 0.08
2759 4436 0.09
2759 4440 0.2
2760 2761 0.08
2760 2777 0.09
2760 4434 0.09
2761 2762 0.08
2762 2763 0.09
2762 2775 0.09
2762 4418 0.08
2763 2764 0.08
2763 4426 0.08
2764 2765 0.09
2764 4418 0.1
2765 2766 0.07
2765 4416 0.08
2766 2767 0.07
2766 4415 0.09
2767 2768 0.07
2767 4413 0.09
2768 4409 0.09
2769 2770 0.08
2769 4486 0.09
2769 4681 0.09
2770 2771 0.08
2770 4460 0.09
2770 4493 0.09
2771 2772 0.08
2771 4466 0.09
2771 4504 0.09
2772 2773 0.08
2772 4469 0.1
2773 2774 0.07
2773 4513 0.08
2773 10359 0.09
2774 2775 0.09
2774 2779 0.09
2774 4470 0.09
2775 2776 0.08
2775 10359 0.08
2776 2777 0.08
2777 2778 0.08
2777 10360 0.08
2778 4472 0.1
2779 2780 0.09
2779 4513 0.08
2779 4519 0.09
2780 4516 0.06
2780 4520 0.07
2781 2782 0.13
2781 4486 0.07
2781 4500 0.15
2782 4498 0.19
2782 4749 0.14
2782 4790 0.2
2783 2784 0.08
2783 4493 0.06
2783 4498 0.08
2784 4499 0.08
2784 4500 0.04
2785 4785 0.1
2786 4198 0.16
2786 4753 0.09
2786 4762 0.07
2786 9336 0.11
2787 2788 0.09
2787 4302 0.05
2787 4792 0.08
2787 10351 0.05
2788 2789 0.06
2788 4301 0.05
2788 4794 0.08
2789 4075 0.08
2789 9335 0.06
2789 10351 0.08
2790 2791 0.05
2790 4080 0.14
2790 4298 0.05
2790 4795 0.06
2791 4076 0.08
2791 9332 0.05
2791 10352 0.17
2792 4051 0.23
2792 4303 0.15
2792 4689 0.05
2792 4696 0.83
2793 9908 0.06
2793 9909 0.12
2794 2822 0.51
2794 8341 0.06
2794 8343 0.07
2794 12220 0.5
2795 2796 0.2
2795 4063 0.13
2795 4296 0.2
2796 4366 0.06
2796 6670 0.13
2796 10347 0.24
2797 4150 0.28
2797 4782 0.29
2798 4135 0.03
2798 4306 0.1
2798 4559 0.12
2799 7623 0.06
2799 7644 0.25
2799 8135 0.21
2799 8145 0.18
2800 4473 0.15
2800 4475 0.09
2800 4476 0.09
2801 7688 0.15
2801 7691 0.07
2801 8162 0.15
2802 7687 0.06
2802 7688 0.51
2802 7689 0.19
2802 8151 0.17
2803 2804 0.26
2803 4325 0.08
2803 6932 0.09
2804 2806 0.08
2804 2808 0.5
2804 6928 0.09
2805 7622 0.06
2805 7643 0.26
2805 8119 0.22
2805 8120 0.16
2806 2807 0.09
2806 2809 0.49
2806 4325 0.27
2806 8049 0.13
2807 2810 0.49
2807 7878 0.12
2807 10357 0.07
2808 2809 0.06
2808 2811 0.13
2808 6926 0.08
2809 2810 0.06
2809 4331 0.13
2809 7869 0.14
2810 4329 0.13
2810 7876 0.12
2810 7877 0.11
2811 2812 0.06
2811 4331 0.06
2811 6915 0.06
2812 2819 0.31
2812 4333 0.12
2812 6915 0.1
2813 2866 0.25
2813 7555 0.11
2813 11084 0.5
2814 2815 0.06
2814 2816 0.04
2814 6915 0.19
2814 6923 0.05
2815 2816 0.04
2815 2818 0.12
2815 4326 0.5
2816 2817 0.05
2816 12755 0.13
2817 2818 0.12
2817 6918 0.12
2817 12711 0.11
2818 6919 0.12
2818 12937 0.43
2819 2823 0.39
2819 4330 0.06
2819 6914 0.06
2820 7599 0.25
2820 8113 0.21
2820 8115 0.16
2820 8414 0.06
2821 2843 0.06
2821 4330 0.06
2821 4332 0.13
2821 7866 0.1
2822 6912 0.06
2822 6913 0.06
2822 12711 0.39
2823 2825 0.13
2823 6911 0.06
2823 7864 0.25
2823 8050 0.1
2824 2846 0.19
2824 7043 1.04
2824 7044 0.06
2824 7046 0.55
2824 8371 0.43
2825 2827 0.06
2825 6906 0.5
2825 8335 0.06
2826 2827 0.07
2826 7017 0.15
2826 8334 0.08
2827 7118 0.14
2828 2834 0.25
2828 6903 0.07
2828 6904 0.07
2828 12220 0.26
2829 2833 0.12
2829 6905 0.11
2829 7895 0.14
2830 12941 0.25
2830 12942 1.0
2831 4640 0.62
2831 4646 0.43
2831 11227 0.61
2832 5587 1.08
2832 11631 0.15
2833 7897 0.16
2833 7898 0.04
2834 4389 0.25
2834 6896 0.08
2834 6900 0.06
2835 2836 0.17
2835 6890 0.13
2835 7888 0.14
2836 7001 0.45
2836 7889 0.15
2836 12181 0.25
2836 12183 0.25
2837 2838 0.05
2837 7886 0.18
2837 12180 0.06
2838 6985 0.5
2838 7887 0.16
2839 2840 0.06
2839 8411 0.14
2839 12179 0.15
2840 8375 0.38
2840 8410 0.14
2841 6906 0.17
2841 7900 0.15
2841 10596 0.08
2842 2913 0.2
2842 3004 0.13
2842 4626 0.14
2843 7864 0.38
2843 7865 0.07
2843 10356 0.06
2844 2845 0.07
2844 7047 0.06
2844 7054 0.47
2844 7055 0.43
2845 7046 0.54
2845 7047 0.04
2845 7051 0.48
2846 7044 0.15
2846 10605 0.4
2847 4378 0.12
2847 7457 0.31
2847 8251 0.13
2848 2852 0.19
2848 7461 0.25
2848 8247 0.38
2849 2850 0.15
2849 4612 0.05
2849 4629 0.14
2850 4549 0.07
2850 4663 0.11
2851 8067 0.68
2851 8077 0.05
2851 8101 1.75
2852 8249 0.26
2852 10368 0.75
2853 2867 0.5
2853 4263 1.29
2853 4285 1.42
2854 2865 0.2
2854 10079 0.25
2855 2864 0.25
2855 9894 0.28
2855 11795 0.33
2856 2857 0.15
2856 4579 0.36
2856 7421 1.4
2856 7427 1.26
2856 12732 0.17
2857 12733 0.13
2857 12800 1.38
2858 7569 0.15
2858 8090 0.22
2858 8091 0.16
2858 8421 0.06
2859 7570 0.15
2859 8095 0.18
2859 8096 0.18
2859 8420 0.06
2860 8063 0.68
2860 8074 0.09
2860 8100 1.75
2861 2866 0.47
2861 11090 0.62
2861 12150 0.54
2862 4363 0.24
2862 7512 0.06
2862 7514 0.17
2862 8078 0.22
2862 8080 0.16
2863 7513 0.06
2863 7520 0.15
2863 8084 0.19
2863 8086 0.14
2864 4648 0.22
2864 9895 0.28
2865 11788 0.13
2866 7077 0.08
2867 2868 1.14
2867 2870 0.72
2867 4287 1.21
2868 2870 1.34
2868 10159 0.61
2869 4340 0.09
2869 10358 0.09
2870 4661 0.88
2870 4662 0.41
2871 2872 0.09
2871 4406 0.09
2871 4734 0.09
2871 10358 0.09
2872 2873 0.09
2873 2874 0.09
2873 10353 0.06
2874 4726 0.09
2875 7598 0.23
2875 8099 0.23
2875 8415 0.06
2876 12582 0.1
2877 2878 0.34
2877 11040 0.22
2878 4565 0.31
2879 2885 0.98
2879 4636 1.0
2879 4666 0.95
2879 9823 0.53
2880 4558 0.14
2880 11035 0.64
2880 12806 0.13
2881 2882 0.4
2881 11147 0.27
2882 4561 0.25
2883 2884 0.4
2883 4551 0.25
2884 4550 0.5
2885 4635 1.0
2885 4644 1.0
2885 4668 1.0
2886 2887 0.27
2886 9659 1.01
2886 10038 0.06
2886 11193 0.45
2887 10037 0.06
2887 10651 0.38
2888 4669 0.5
2888 4670 0.57
2888 9826 0.34
2889 7082 1.0
2889 10846 0.45
2889 10852 0.4
2890 2891 0.88
2890 11163 0.5
2890 11164 0.45
2891 3583 0.6
2891 12476 0.3
2892 4623 0.61
2892 11743 0.27
2893 10903 0.22
2893 12639 0.37
2893 12640 0.28
2894 7544 0.53
2894 7573 0.49
2894 7574 0.07
2894 7578 0.48
2895 7603 0.43
2895 7605 0.04
2895 7655 0.46
2896 4496 0.2
2896 4497 0.58
2896 7292 0.71
2896 7293 0.25
2897 7653 0.38
2897 7656 0.04
2898 11100 0.54
2898 12535 0.12
2899 3598 0.21
2899 11167 0.5
2899 11173 0.52
2900 2902 0.24
2900 7543 0.17
2900 11173 0.26
2901 4270 0.16
2901 11978 0.25
2901 11979 2.42
2902 2903 0.09
2902 11173 0.08
2903 2904 0.25
2903 12465 0.42
2903 12466 0.08
2904 2905 0.32
2904 12467 0.09
2904 12468 0.43
2905 7620 0.07
2905 12467 0.28
2906 6355 0.2
2906 6356 0.61
2906 9247 1.51
2906 11213 0.2
2907 6364 0.76
2907 11215 0.29
2907 11218 1.12
2908 4276 0.95
2908 11974 1.44
2909 2910 0.54
2909 3421 1.17
2909 11215 0.6
2911 6350 0.12
2911 6351 0.28
2911 9680 0.15
2912 10297 0.74
2912 11859 0.1
2915 10677 0.25
2916 2917 0.53
2916 5805 0.68
2916 10173 0.38
2916 12254 0.27
2917 11864 0.28
2917 12403 0.39
2918 4281 1.0
2918 4292 0.5
2918 4651 0.99
2918 9397 0.5
2919 2920 0.24
2919 12269 0.3
2921 2922 0.3
2921 10195 1.45
2922 10191 0.3
2923 2924 0.22
2923 12409 1.24
2925 2926 0.13
2925 3330 0.88
2925 12411 0.87
2926 3337 0.75
2927 2928 0.2
2927 10198 0.7
2928 10194 0.13
2929 5819 0.52
2929 5821 0.22
2929 6180 0.09
2929 12281 0.52
2930 2931 0.4
2930 11980 0.6
2932 2933 0.44
2932 5897 0.4
2934 6181 0.19
2934 6183 1.58
2936 3870 0.09
2936 11199 0.52
2936 12594 0.12
2937 11793 1.25
2937 11803 0.7
2937 11804 1.18
2938 2939 0.95
2938 3083 2.75
2938 6454 1.1
2938 11466 0.98
2939 2940 0.3
2939 6460 1.35
2939 11466 1.15
2940 2941 1.0
2940 2961 1.5
2941 2960 1.49
2941 11465 0.5
2942 4292 0.5
2942 4654 0.99
2942 10160 0.5
2942 11975 0.5
2943 4650 1.09
2943 4652 0.12
2943 4653 0.26
2943 5156 0.41
2944 2945 1.44
2944 6456 1.0
2944 11482 2.0
2945 2946 0.48
2945 2956 1.65
2946 2947 0.43
2946 6457 2.15
2947 2954 1.5
2947 11481 0.5
2948 4631 1.04
2948 4642 1.0
2948 4643 1.0
2948 9824 0.5
2949 2950 0.5
2949 2952 1.0
2949 11481 0.69
2950 2951 0.5
2951 6459 1.44
2952 2953 0.75
2953 2954 0.5
2953 2974 1.47
2954 2955 1.29
2954 11483 1.8
2955 2956 0.45
2955 2957 0.08
2956 2958 0.15
2957 2958 0.41
2957 2977 1.48
2957 2978 1.22
2958 2959 2.17
2959 2960 2.13
2959 9612 1.03
2959 11482 1.52
2960 2961 1.0
2960 2971 0.99
2961 2962 0.75
2962 2963 0.52
2962 2969 1.05
2963 2965 1.3
2963 11466 0.51
2963 11468 1.12
2964 4618 1.01
2964 4620 1.0
2964 4622 1.01
2964 11745 0.77
2965 2967 1.28
2965 3107 1.8
2966 2967 0.5
2966 2987 1.0
2966 11446 1.42
2967 11468 1.27
2968 7426 1.1
2968 7427 0.92
2968 12799 0.4
2969 2970 0.35
2969 11468 1.09
2970 2971 0.75
2970 2984 1.0
2971 2980 1.35
2971 9612 2.28
2972 3286 0.6
2972 3289 0.99
2972 3290 1.29
2972 3301 1.0
2973 2974 1.61
2973 3003 2.0
2973 6832 0.99
2974 3002 0.49
2975 3000 1.26
2975 3001 0.2
2975 3002 0.53
2975 11483 0.2
2976 3483 0.78
2976 3486 1.07
2976 3499 0.55
2976 7194 0.7
2977 2978 0.83
2977 11483 0.67
2978 9172 0.7
2979 3349 0.06
2979 3350 0.07
2979 3369 2.11
2980 7209 1.86
2980 11467 0.1
2981 4045 1.04
2981 4046 0.76
2981 4061 1.24
2981 11618 2.04
2982 3631 1.94
2982 6515 0.52
2982 11938 0.44
2983 2984 1.0
2983 2992 1.5
2983 11467 0.55
2984 2985 1.55
2984 2992 0.5
2985 2986 0.25
2985 2989 1.06
2986 2987 1.79
2986 11468 0.75
2987 2988 0.99
2987 7281 0.9
2988 2989 1.35
2988 3148 0.6
2989 2990 0.24
2990 2991 1.3
2990 3018 0.9
2991 2992 0.95
2991 2993 1.4
2993 2994 1.5
2993 3020 0.75
2994 2995 0.25
2994 11469 0.55
2995 2996 1.74
2995 11467 1.12
2996 2997 0.19
2996 3024 0.51
2996 11484 0.53
2997 2998 0.18
2997 2999 0.21
2997 3025 0.52
2998 2999 0.31
2998 9172 0.64
2998 11484 0.39
2999 3000 1.08
3000 3026 0.47
3001 3006 2.39
3001 11485 1.9
3002 3003 1.77
3003 3005 1.0
3003 11936 2.0
3004 4627 1.37
3004 10123 1.04
3005 3006 0.75
3005 3032 1.18
3006 3033 0.9
3006 11485 1.25
3007 3647 1.25
3007 3650 0.73
3007 3673 1.49
3008 3010 1.1
3008 3026 1.95
3008 3034 0.32
3008 11485 0.32
3009 4642 1.0
3009 4864 0.61
3009 9819 0.5
3010 3011 1.0
3010 3036 2.0
3011 3012 1.32
3011 3028 0.5
3011 3038 1.0
3012 3013 0.68
3012 3030 1.17
3012 3040 0.88
3013 3014 1.25
3013 3022 1.0
3013 3040 0.57
3014 3015 0.35
3014 3021 1.0
3015 3016 1.5
3015 3045 2.25
3016 3017 0.75
3016 3048 0.32
3017 3019 0.5
3017 3049 0.75
3018 3019 0.65
3018 3053 1.29
3019 3020 2.0
3020 3021 0.25
3021 3022 1.26
3022 11469 0.67
3023 3059 2.11
3023 4033 0.76
3023 12014 1.52
3024 3025 0.14
3024 11469 1.5
3024 11486 0.63
3025 3026 1.26
3025 3027 0.75
3027 3028 0.24
3027 3029 0.25
3028 3029 0.31
3029 3030 0.15
3029 11486 0.12
3030 11486 0.15
3031 3215 0.46
3031 11229 1.23
3031 11802 0.9
3032 3033 0.81
3032 3076 1.82
3032 6898 2.62
3033 3034 1.47
3034 3035 1.8
3034 11485 0.2
3035 3036 1.5
3035 11487 1.0
3036 3037 1.0
3037 3038 1.0
3037 3044 0.5
3037 11488 1.0
3038 3039 2.33
3039 3040 0.77
3039 3041 1.32
3041 3045 0.38
3041 11471 0.71
3042 3761 1.67
3042 4000 1.35
3042 4001 0.16
3043 3044 1.0
3043 3067 1.01
3043 11471 1.0
3044 3069 1.0
3045 3046 0.13
3046 3047 1.65
3046 3064 0.72
3047 3048 1.12
3047 11472 0.77
3048 3049 0.5
3049 3050 0.5
3050 3058 1.23
3050 11470 0.7
3051 4841 0.71
3051 4842 1.07
3051 4849 1.4
3051 11749 0.54
3052 3053 0.43
3052 3055 0.98
3052 11470 0.3
3053 3054 0.17
3054 3148 2.09
3054 3183 1.9
3055 3056 0.48
3055 3185 0.85
3056 3057 0.4
3056 11470 0.92
3057 3058 0.5
3057 9660 1.73
3058 11472 0.53
3059 4053 1.41
3059 4054 1.0
3059 4078 1.99
3060 3061 0.9
3060 3185 2.04
3060 9173 1.37
3061 6626 1.86
3061 9660 0.18
3062 3063 1.01
3062 3247 1.65
3062 9660 0.95
3062 11472 1.7
3063 3064 0.25
3063 3246 1.71
3064 3065 0.96
3065 3066 0.8
3065 7279 2.35
3066 3067 1.0
3066 3068 1.72
3066 11471 1.0
3067 3068 0.75
3067 3069 1.0
3068 3242 1.25
3069 3072 1.06
3069 11488 0.5
3070 4077 0.99
3070 4091 1.03
3071 3072 0.9
3071 3240 1.68
3071 11488 0.35
3072 3241 0.94
3073 3081 1.0
3073 11487 0.5
3073 11488 1.98
3074 4091 1.54
3074 4106 1.07
3074 4107 0.91
3074 11940 2.25
3075 3076 1.5
3075 3079 1.0
3075 11487 0.5
3076 3077 1.0
3077 3078 1.0
3077 3234 1.0
3078 3079 0.5
3078 3236 1.03
3079 3080 0.5
3080 3081 0.47
3080 3237 1.02
3081 3238 1.01
3082 3083 0.3
3082 3214 0.9
3082 6454 2.94
3083 3107 1.06
3083 11444 1.75
3084 3085 1.59
3084 9614 1.29
3084 11444 0.17
3085 3214 1.0
3085 7060 1.5
3085 9614 0.55
3086 3215 0.53
3086 4647 0.77
3087 3093 0.19
3087 3113 0.5
3087 7108 0.56
3087 12380 0.5
3088 3089 2.27
3088 3103 1.01
3088 3220 0.55
3088 11445 0.75
3089 3096 0.24
3089 3115 0.54
3090 6821 0.42
3090 6824 0.42
3090 9361 0.5
3091 3195 0.97
3091 9300 1.19
3091 9330 1.05
3092 3101 0.5
3092 3195 0.5
3092 11414 0.75
3093 7109 0.45
3094 3100 1.0
3094 9304 0.25
3094 9305 1.48
3095 3096 0.73
3095 3097 0.7
3095 9305 0.85
3095 11413 0.87
3096 3097 0.53
3097 3102 2.04
3097 3110 0.98
3098 3113 0.4
3098 7107 0.45
3099 3100 1.52
3099 11413 0.78
3099 11415 0.97
3100 3125 1.0
3101 3197 1.0
3101 11416 2.0
3102 3103 0.25
3102 3109 0.75
3103 3104 1.72
3104 3105 0.24
3104 3108 0.49
3105 9611 0.76
3105 11445 2.08
3106 3107 0.98
3106 3116 0.32
3106 9611 0.58
3107 11446 1.47
3108 3116 1.03
3108 9676 0.51
3109 3110 2.04
3109 3111 0.25
3110 3122 1.2
3111 3112 1.15
3111 3120 2.0
3112 9676 0.85
3112 11447 1.99
3113 7106 0.43
3113 10920 0.25
3113 12379 0.5
3114 4640 0.52
3114 4646 0.99
3114 11229 0.28
3115 3220 2.0
3115 12024 0.2
3116 9610 1.54
3116 9611 0.48
3117 3150 1.17
3117 9610 1.51
3117 9676 1.83
3117 11447 0.89
3118 8610 0.07
3118 11110 0.52
3118 12533 1.0
3119 3120 1.0
3119 3151 1.0
3119 11447 0.15
3120 3121 0.5
3120 3152 1.04
3121 3122 1.81
3121 3139 1.39
3122 3139 2.05
3122 11415 1.62
3123 11796 0.81
3123 11806 0.35
3124 3125 1.0
3124 3128 1.42
3124 11415 0.37
3125 3128 0.7
3126 3127 0.34
3126 3138 1.22
3126 11415 0.8
3127 3128 1.1
3127 3137 1.37
3128 3129 0.03
3128 3130 0.86
3129 3136 1.21
3129 9306 1.55
3130 11414 2.42
3130 11416 0.75
3131 3566 0.5
3131 11097 1.04
3131 11103 0.77
3132 3133 0.5
3132 3201 0.9
3132 9307 1.0
3133 3134 0.5
3133 9306 1.0
3134 3135 1.5
3134 10113 1.34
3134 11419 0.9
3135 3136 0.51
3135 3158 0.77
3136 3137 0.63
3137 3138 0.61
3137 3157 1.33
3138 3155 1.52
3139 3140 0.3
3140 3142 0.95
3140 11417 0.65
3141 3142 1.07
3141 3144 0.8
3141 3152 0.26
3142 6464 1.32
3143 3181 0.34
3143 9661 0.72
3143 11449 0.94
3144 3145 0.42
3144 9661 0.5
3145 3146 1.0
3145 3151 1.0
3146 3147 1.25
3146 3150 0.95
3146 3180 1.5
3147 3149 1.0
3147 11448 0.86
3148 3149 1.65
3148 7281 1.1
3149 3150 1.25
3149 9610 2.03
3150 3151 1.0
3151 3152 0.58
3153 11098 1.02
3153 11099 1.0
3153 11105 0.21
3154 3155 0.48
3154 3156 0.17
3154 11417 2.15
3155 11418 0.5
3156 9308 0.32
3156 11418 0.22
3156 11421 1.14
3157 3158 0.23
3157 3159 1.35
3157 11418 0.91
3158 11419 1.5
3159 9308 0.8
3159 9309 0.52
3160 3169 2.59
3160 9309 0.61
3160 11422 0.52
3161 9345 1.87
3161 11405 0.68
3161 11422 0.21
3162 9186 0.46
3162 9309 1.74
3162 11421 2.52
3163 3186 0.18
3163 4048 1.56
3163 12568 0.51
3164 3165 0.95
3164 9188 0.25
3164 11421 0.87
3165 3166 0.59
3165 11420 1.53
3166 3173 0.94
3166 9187 0.88
3166 9188 0.6
3167 3316 0.15
3167 11094 0.36
3167 12486 0.16
3168 3169 0.06
3168 9312 0.2
3168 11425 0.2
3169 3170 0.12
3169 7195 0.32
3170 3171 1.23
3170 9312 0.06
3171 3172 0.6
3171 9311 1.43
3171 11405 1.52
3172 9312 1.08
3172 11406 1.5
3173 3403 2.12
3173 3404 1.6
3174 11417 1.61
3174 11420 2.25
3174 11421 1.92
3175 3221 0.4
3175 4049 0.89
3175 8576 0.03
3176 3194 0.8
3176 9609 1.18
3176 11420 1.28
3176 11449 2.27
3177 3178 0.75
3177 3179 0.8
3177 3189 1.73
3177 9609 1.08
3178 3179 1.36
3178 3187 1.27
3178 9608 0.75
3179 3180 0.5
3180 3181 0.99
3181 9609 1.67
3182 3192 0.18
3182 4049 1.56
3182 12568 0.51
3183 3184 1.75
3183 11448 0.23
3184 3185 0.09
3184 9608 0.69
3186 3192 0.39
3186 12570 0.48
3187 3188 0.5
3187 11450 0.52
3188 3189 0.75
3188 7201 0.05
3189 3190 0.1
3190 3191 0.84
3190 11451 0.83
3190 11453 1.31
3191 7201 0.45
3191 7203 0.62
3192 3196 0.21
3193 3194 1.06
3193 9609 0.9
3193 11451 0.44
3194 3399 1.62
3195 9303 0.47
3196 5941 0.5
3196 11118 1.27
3197 3198 0.26
3197 9303 0.5
3197 11402 2.13
3198 3199 0.58
3198 9302 0.48
3199 3200 2.52
3199 11401 0.53
3200 8605 0.92
3200 11402 1.0
3200 11403 0.38
3201 3202 0.44
3201 10113 0.5
3201 11403 0.72
3202 3203 0.65
3202 11403 0.86
3203 8603 0.5
3203 11404 0.51
3204 9345 0.25
3204 10113 0.52
3204 11404 0.9
3205 3207 0.5
3205 3209 0.23
3205 12613 0.32
3206 3208 2.56
3206 8604 1.05
3206 11381 0.9
3207 3209 0.3
3207 11125 0.33
3208 11380 0.93
3208 11382 0.62
3209 12568 1.03
3209 12611 1.0
3210 3212 0.43
3210 11142 0.66
3210 11143 0.33
3210 11149 0.83
3211 8311 0.69
3211 8319 0.69
3211 8834 1.0
3212 4551 0.24
3212 12635 0.59
3213 8276 0.04
3213 9686 0.2
3213 11354 0.18
3215 4640 0.77
3215 11227 0.74
3216 5150 0.8
3216 8219 1.47
3216 8250 1.28
3216 8828 1.0
3217 7224 0.05
3217 8260 0.11
3217 8286 0.64
3218 8832 0.37
3218 8833 0.68
3219 8296 0.56
3219 8297 0.1
3219 11355 0.04
3219 11358 1.04
3220 7060 4.0
3222 8631 0.64
3222 9287 0.7
3223 8684 0.08
3223 8697 1.09
3223 9741 0.25
3224 8491 0.23
3224 8495 0.41
3224 11239 0.19
3225 4540 0.5
3225 11120 0.94
3225 11126 0.08
3226 8559 0.05
3226 8560 1.21
3226 8819 0.6
3227 3228 0.19
3227 8345 0.75
3227 8369 0.25
3228 8368 0.11
3228 8369 0.1
3229 3230 0.37
3229 7219 0.61
3229 8366 0.1
3229 8367 0.27
3230 3231 0.25
3230 7218 0.44
3230 11319 0.06
3231 8364 0.31
3231 8820 0.13
3232 7171 0.05
3232 8501 0.29
3232 8503 0.17
3233 6583 0.59
3233 8652 1.02
3233 8656 0.43
3233 8663 0.45
3234 3235 0.74
3234 3264 2.5
3234 6836 1.0
3235 3236 0.26
3235 3250 1.25
3236 3237 0.98
3237 3238 0.52
3237 11489 1.03
3238 3239 1.5
3239 3240 0.5
3239 11490 1.0
3240 3241 0.48
3241 3242 1.02
3241 3254 1.01
3242 3243 1.5
3242 3255 1.0
3243 3257 1.0
3243 7279 0.84
3244 3385 1.04
3245 3480 1.3
3246 3247 1.0
3246 7279 0.8
3247 3248 0.17
3248 3249 0.79
3248 3259 1.13
3249 6626 0.98
3249 9660 1.5
3249 11474 1.4
3250 3265 1.23
3250 11489 1.0
3251 3966 1.46
3251 12226 0.31
3251 12238 0.14
3252 3267 1.29
3252 11489 0.5
3252 11490 1.47
3253 3258 0.19
3253 3260 0.25
3254 3255 1.01
3254 3269 1.4
3255 3256 1.24
3255 3280 0.5
3256 3257 0.25
3256 3281 0.75
3257 11473 1.15
3258 3410 2.01
3258 5139 1.0
3259 3284 0.93
3259 11473 1.37
3259 11474 0.78
3260 3272 0.19
3260 11587 0.08
3261 3262 0.07
3261 3263 0.1
3261 11474 1.0
3262 3263 0.06
3262 6627 0.6
3263 3278 1.51
3263 3459 1.25
3264 3265 1.3
3264 3305 1.74
3265 3266 1.1
3266 3267 0.59
3266 11491 2.13
3267 3268 1.4
3268 3269 1.02
3268 11490 1.01
3269 3270 1.0
3269 9604 1.58
3270 3271 1.05
3270 3280 0.9
3270 3288 1.61
3271 3282 0.94
3271 11475 0.56
3272 5130 2.01
3272 5140 1.0
3273 3274 0.75
3273 3282 1.24
3273 11475 0.5
3274 3275 0.25
3274 3283 0.75
3275 3286 0.64
3275 11476 1.75
3276 3973 3.46
3276 7508 0.5
3276 7628 1.29
3277 3278 0.75
3277 3293 1.49
3277 11476 1.0
3278 3279 0.25
3279 3294 1.5
3279 11455 1.0
3280 3281 1.0
3281 3282 0.5
3283 3284 1.57
3283 11473 1.0
3284 11476 0.5
3285 3286 1.04
3285 3289 0.49
3285 11475 0.23
3286 3287 1.56
3287 3291 0.86
3287 11476 0.72
3288 3289 1.5
3288 10286 0.37
3289 3304 0.98
3290 3291 0.2
3290 3297 0.5
3291 3292 0.23
3292 3293 0.77
3292 3296 0.5
3293 3294 1.04
3294 3295 0.49
3294 3479 1.3
3295 3296 1.57
3295 11458 1.33
3296 3297 0.66
3296 3298 0.5
3297 3299 0.5
3298 3299 0.75
3298 3319 1.0
3299 3300 0.75
3300 3301 0.5
3300 3317 0.53
3301 3302 0.1
3301 3303 0.21
3302 3303 0.17
3302 3304 0.9
3303 11477 0.35
3304 3313 0.52
3305 3306 1.0
3305 6839 1.01
3306 3336 2.28
3306 11491 1.19
3307 3966 3.46
3307 7509 0.5
3307 7629 1.29
3308 3309 1.07
3308 3328 0.8
3308 11491 0.58
3309 3329 1.73
3309 11492 1.18
3310 3314 0.08
3310 7940 0.35
3310 8619 0.1
3311 3332 1.35
3311 10287 0.32
3311 11492 0.42
3312 3313 0.74
3312 3321 1.19
3312 10287 1.26
3313 3315 0.49
3313 3322 1.08
3314 7937 0.19
3314 7938 0.11
3315 3323 1.01
3315 11477 0.38
3316 3990 0.36
3316 4502 1.11
3316 12486 0.15
3317 3318 0.15
3317 11477 0.64
3318 3319 1.6
3318 3325 0.84
3319 3320 0.5
3320 3327 0.41
3320 3490 2.1
3321 3322 0.19
3321 3334 0.28
3321 3349 1.26
3322 3323 0.59
3323 3324 0.38
3323 3350 1.0
3324 3325 0.62
3324 11477 1.0
3325 11478 0.25
3326 3327 1.34
3326 3352 0.73
3326 11478 2.26
3327 3491 2.86
3328 3329 1.51
3328 11493 1.62
3329 11494 0.76
3330 3360 0.2
3330 3377 1.0
3331 3332 0.55
3331 11492 1.16
3331 11494 1.15
3332 3333 0.82
3333 3334 1.53
3333 3345 1.45
3333 11494 1.01
3334 3347 0.78
3335 3336 1.0
3335 3338 0.77
3336 3339 0.75
3336 11493 1.5
3337 3356 0.2
3337 3378 1.0
3338 3339 1.0
3338 3354 0.88
3339 3340 1.6
3340 3341 1.35
3340 11493 1.0
3341 3342 0.75
3341 11496 0.57
3342 3343 0.58
3342 11494 1.35
3343 3344 1.0
3343 3364 0.5
3343 11496 0.75
3344 3345 0.28
3344 3365 0.49
3345 3346 1.33
3346 3347 0.4
3346 3367 1.97
3347 3348 0.5
3348 3349 0.47
3348 3368 2.0
3349 3350 0.05
3350 3351 1.33
3351 3352 1.57
3351 11478 1.39
3352 3353 1.34
3352 3370 1.2
3353 3370 1.53
3353 3555 1.42
3354 3355 1.1
3354 3357 0.75
3355 3359 0.9
3355 11496 2.77
3356 3360 0.04
3356 10188 0.98
3357 3358 0.72
3357 6850 0.62
3358 3359 0.51
3358 3386 1.99
3359 11495 1.0
3360 10187 0.48
3361 3362 0.66
3361 3372 1.0
3361 11495 1.01
3362 3363 0.12
3362 3374 0.56
3363 3364 0.73
3363 11496 0.43
3364 3365 1.02
3364 3375 0.46
3365 3366 0.26
3366 3367 1.35
3366 3597 3.06
3367 11479 1.12
3368 3369 1.32
3368 11479 0.95
3369 3370 1.88
3369 11480 1.05
3370 3383 1.0
3371 3372 1.0
3371 3387 1.0
3371 11495 1.0
3372 3373 0.99
3372 3388 1.0
3373 3374 0.68
3373 3376 0.17
3374 3375 0.52
3375 3376 0.9
3375 3391 1.49
3376 3389 1.28
3377 3380 0.2
3377 3382 1.3
3378 3379 0.2
3378 3400 1.3
3379 3380 0.04
3379 5812 0.98
3380 5811 1.6
3381 3393 0.51
3381 11479 1.29
3381 11480 0.45
3382 3402 0.2
3382 10131 1.2
3383 3384 0.78
3383 11480 1.52
3384 3395 0.92
3384 3553 1.54
3385 3396 0.1
3385 3481 0.3
3386 3387 1.5
3386 3591 1.0
3387 3388 1.0
3387 3592 1.0
3388 3389 0.04
3388 3390 0.1
3389 3390 0.1
3389 3391 1.47
3390 3593 0.9
3391 3595 1.0
3392 4271 1.38
3392 4274 1.11
3392 11837 1.15
3392 11954 1.16
3393 3394 0.88
3393 3601 1.01
3394 3605 0.46
3394 11480 0.66
3395 3557 0.81
3395 3610 0.1
3396 3480 0.06
3396 3582 0.65
3397 3481 0.13
3397 3485 0.45
3398 3399 0.62
3398 3422 1.31
3398 11451 1.2
3398 11453 1.22
3399 11454 0.85
3400 3402 0.2
3400 10132 1.2
3401 11423 1.25
3401 11426 0.13
3401 11454 1.02
3402 10135 0.06
3402 10175 0.75
3403 3404 1.0
3403 11426 0.35
3404 11427 0.74
3405 3435 2.14
3405 7196 1.01
3405 11427 1.45
3405 11428 0.39
3406 3846 0.37
3406 8902 0.27
3406 9922 1.27
3406 10290 1.2
3407 3408 0.16
3407 3411 0.18
3407 9173 0.28
3408 3409 0.06
3408 9179 0.12
3409 9180 0.2
3409 9607 0.23
3410 3608 2.3
3411 6626 1.26
3411 9178 0.04
3412 3845 0.56
3412 9925 0.51
3413 3414 0.08
3413 3416 0.58
3413 11452 0.06
3414 3415 0.06
3414 9179 0.1
3415 3417 0.71
3415 9180 0.05
3416 3417 0.9
3416 3460 0.5
3417 3418 0.25
3417 3419 0.2
3418 3419 0.16
3418 7206 0.16
3418 9606 0.31
3419 3445 0.76
3419 9605 0.48
3420 3422 1.86
3420 7205 0.81
3420 11453 0.1
3421 3432 0.24
3421 3434 0.26
3422 3423 0.43
3423 3424 0.55
3423 3428 0.37
3424 3425 0.77
3424 11454 1.3
3425 3426 0.13
3425 3430 0.75
3426 3427 1.79
3426 11426 1.19
3427 11427 1.23
3427 11429 1.01
3428 3429 0.96
3428 11457 0.55
3429 3430 0.15
3429 3452 1.82
3430 3431 0.55
3431 3453 1.63
3431 11429 1.38
3432 3449 0.18
3433 3456 0.59
3433 11429 0.56
3433 11430 1.75
3434 3449 0.14
3434 6382 0.21
3435 3436 1.24
3435 11430 0.51
3436 3437 0.2
3436 3439 0.5
3437 3438 1.44
3437 11428 1.86
3438 3439 0.7
3438 3564 1.38
3439 3440 0.25
3440 3441 1.31
3440 11431 0.4
3441 3442 0.5
3441 11430 0.25
3442 3443 0.55
3442 9153 1.59
3443 3444 0.4
3443 3456 1.06
3444 3455 1.32
3444 11433 1.24
3445 3446 0.31
3445 9605 0.59
3446 3447 1.56
3446 3457 0.7
3447 3448 1.31
3447 3465 1.1
3448 3467 0.61
3448 11460 0.87
3449 11218 0.47
3450 3452 0.35
3450 11457 1.33
3450 11460 0.16
3451 3458 0.16
3451 3461 0.32
3451 3464 0.16
3451 11096 0.45
3452 3453 0.5
3453 3454 0.65
3454 3455 0.75
3454 3469 1.0
3455 3456 0.9
3455 9317 1.0
3457 3460 1.04
3457 9605 0.1
3457 11456 0.11
3458 3461 0.16
3458 7081 0.3
3458 9150 0.6
3459 3460 0.05
3459 11455 1.55
3459 11456 1.07
3460 6626 1.83
3461 3464 0.16
3461 8614 0.2
3462 3463 1.06
3462 3479 1.5
3462 11455 0.13
3463 7194 1.2
3463 11456 1.62
3463 11459 1.74
3464 3996 0.75
3464 4522 0.6
3465 3466 1.32
3465 11459 0.2
3466 3467 0.44
3467 3468 1.3
3468 9318 0.35
3468 11460 1.29
3469 9317 0.75
3469 9318 0.5
3469 11432 0.24
3470 3517 0.51
3470 7199 0.49
3470 9317 0.24
3471 3474 0.25
3471 11790 0.2
3471 12556 0.37
3472 3473 0.33
3472 3477 0.4
3472 9153 0.75
3473 3476 0.87
3473 11431 1.46
3474 11790 0.03
3474 12555 0.04
3475 3476 1.0
3475 3564 1.55
3475 11431 0.27
3476 3564 1.97
3476 11434 0.81
3477 3521 0.49
3477 9153 0.5
3477 11434 1.01
3478 3482 0.25
3478 4598 0.12
3478 11790 0.06
3479 7194 0.68
3479 11458 0.33
3480 3484 0.07
3481 3484 0.35
3481 3485 0.1
3481 12714 0.9
3482 11197 0.62
3482 11790 0.12
3483 11458 0.62
3483 11461 1.07
3484 3582 0.45
3486 3500 0.8
3486 11459 1.07
3487 3503 0.25
3487 3505 0.52
3487 11053 0.31
3488 3489 0.86
3488 11461 0.65
3489 3490 0.75
3489 3492 1.01
3490 6482 1.0
3491 3492 0.5
3491 3494 0.5
3492 3493 0.5
3493 3494 0.52
3493 3495 1.54
3494 3551 2.0
3495 3496 0.35
3495 3497 0.36
3496 3497 0.35
3497 3498 2.24
3497 3547 0.99
3498 3535 1.05
3499 3500 1.25
3500 3501 1.22
3500 3536 1.1
3502 3504 1.02
3502 11462 0.09
3503 3513 0.33
3503 11059 0.45
3504 3515 0.51
3504 11435 0.43
3505 3513 0.25
3505 9765 0.4
3506 3507 0.38
3506 3511 0.24
3506 11435 0.17
3507 3508 0.29
3507 3511 0.31
3508 3509 0.17
3508 3516 0.81
3508 7200 0.26
3509 3514 0.25
3509 3517 0.25
3510 3511 0.26
3510 3512 0.28
3510 11435 0.37
3511 11432 0.25
3512 9318 0.28
3512 11432 0.35
3513 11058 0.43
3514 7200 0.17
3514 9317 0.23
3515 3516 0.14
3515 3542 0.87
3516 11435 0.38
3517 3528 1.03
3517 7198 0.51
3518 3519 0.5
3518 7198 0.5
3518 11433 0.5
3518 11436 1.04
3519 3520 0.25
3519 7252 0.89
3519 9153 0.5
3520 3521 0.25
3520 3527 1.32
3521 3522 1.02
3522 3524 0.67
3522 11434 0.5
3523 4090 0.35
3523 7549 0.24
3523 11111 0.76
3523 11117 0.5
3524 3525 1.15
3524 3565 1.8
3524 11409 1.9
3525 3526 0.58
3525 9690 0.92
3525 11437 0.32
3526 3527 1.22
3526 3534 1.11
3526 11437 0.79
3527 3534 0.47
3527 7253 0.19
3528 3531 0.5
3528 11436 1.0
3529 4501 0.25
3529 11088 0.25
3529 12483 1.0
3530 3531 0.14
3531 3532 1.0
3532 3533 0.5
3532 10030 0.5
3532 11436 0.5
3533 3534 0.25
3533 7254 0.32
3533 10031 0.5
3535 3536 0.25
3536 3537 0.2
3537 3538 1.65
3538 3539 0.73
3538 3547 1.01
3539 3543 0.49
3540 3544 0.98
3541 7285 0.5
3541 11438 0.99
3542 6474 0.56
3542 7285 0.51
3543 3544 0.75
3543 3548 0.52
3544 3545 0.45
3545 3549 1.02
3545 12243 0.55
3546 10029 1.0
3546 10030 0.85
3546 12246 0.71
3547 3548 1.0
3548 11464 0.51
3549 12349 1.49
3550 3561 0.8
3550 3616 0.75
3550 11087 0.5
3550 11099 0.51
3551 3556 0.1
3551 11463 1.22
3552 3559 1.85
3552 11463 0.44
3553 3554 0.05
3553 3557 1.54
3554 3555 0.05
3554 3556 0.11
3555 3556 0.13
3557 3766 1.12
3558 3559 2.28
3558 3770 0.63
3558 11463 1.04
3560 11497 1.46
3561 3571 0.5
3561 11086 0.5
3561 11092 0.57
3562 8212 0.96
3562 8214 0.29
3562 11407 1.0
3563 3586 2.9
3563 9315 0.18
3563 11407 2.0
3564 11408 1.15
3565 9322 0.34
3565 11410 0.67
3566 11098 0.25
3566 12479 1.01
3567 3570 0.5
3567 9320 1.26
3567 9321 1.01
3568 7916 1.61
3568 11411 1.0
3569 11440 1.1
3569 12454 1.75
3570 9320 0.76
3570 11410 0.5
3571 3572 0.5
3571 4497 0.51
3571 12479 0.5
3572 7293 0.4
3572 11097 0.51
3573 7453 1.77
3573 8223 0.29
3573 11390 0.25
3574 8865 0.8
3574 9729 1.2
3575 4928 1.01
3575 7277 0.4
3575 7911 2.25
3576 8085 0.48
3576 11261 0.05
3577 11261 0.1
3577 11265 0.67
3578 7238 0.12
3578 7239 0.51
3578 8161 0.16
3579 7248 0.5
3579 8064 0.1
3579 8065 0.24
3579 9674 0.03
3580 7232 0.06
3580 8009 0.51
3580 8021 0.04
3581 7839 0.62
3581 7842 0.9
3581 9240 0.5
3581 9726 0.35
3583 3584 0.45
3583 6389 0.45
3584 3590 0.92
3584 11169 0.4
3584 12470 0.33
3585 7847 0.45
3585 9224 0.28
3585 11338 1.09
3586 9312 1.65
3586 11428 1.02
3587 7773 0.82
3587 7778 0.38
3587 7779 0.29
3588 7770 0.16
3588 7773 0.18
3588 11301 0.11
3589 7728 0.15
3589 7732 0.11
3589 11302 0.34
3590 3598 0.25
3590 11168 0.35
3590 11174 0.39
3591 3592 1.5
3591 3618 0.5
3592 3593 1.0
3592 3619 0.5
3593 3594 1.02
3593 3621 0.5
3594 3595 0.5
3594 3623 1.0
3595 3596 0.44
3596 3597 1.07
3596 3624 1.06
3597 11607 1.07
3598 12466 0.4
3599 3617 0.21
3599 3643 1.31
3599 11607 1.77
3600 6370 0.32
3600 11216 0.96
3601 3602 1.51
3601 3617 0.23
3602 3603 0.36
3602 11608 0.99
3603 3604 0.42
3603 3611 0.3
3604 3605 0.34
3604 3610 1.4
3605 3606 0.19
3606 3607 0.28
3606 3608 0.32
3607 5130 2.3
3607 5132 1.7
3608 5131 1.7
3609 3648 2.42
3609 4275 1.01
3609 11954 0.48
3610 3612 1.25
3611 3613 1.37
3611 3615 0.8
3612 3613 0.34
3612 3766 1.12
3613 3614 0.49
3613 3642 1.64
3613 3771 1.45
3614 3615 0.51
3614 3645 0.66
3615 11608 0.52
3616 11088 0.5
3616 11093 0.51
3617 11608 1.48
3618 3619 1.51
3618 3626 1.0
3619 3620 0.25
3620 3621 0.75
3620 3627 1.0
3621 3622 0.5
3622 3623 1.01
3622 3628 0.5
3623 3624 1.24
3623 3632 2.02
3624 3636 1.0
3625 3630 0.65
3625 3917 0.48
3625 11095 0.69
3626 3627 1.76
3626 3629 1.34
3627 3628 0.5
3628 3631 1.49
3629 7027 2.83
3629 11938 0.31
3629 12012 3.15
3630 3915 0.91
3630 3918 0.5
3630 11096 0.49
3631 3632 1.01
3631 3654 1.0
3632 3633 1.37
3632 3635 1.21
3633 3634 0.19
3633 3636 1.45
3633 3646 1.26
3634 3635 0.44
3634 3658 0.49
3635 3657 0.31
3636 6519 0.8
3637 3647 1.51
3637 6519 1.0
3637 11607 1.5
3637 11609 1.86
3638 4047 0.59
3638 4090 0.41
3638 11110 0.62
3638 11116 0.54
3639 3650 1.21
3639 11609 0.26
3639 11610 1.0
3640 4002 0.18
3640 7552 1.03
3640 11115 0.25
3641 3642 0.76
3641 3645 0.5
3641 11610 0.96
3642 3652 0.83
3642 3780 1.27
3643 3644 1.25
3643 11609 0.49
3644 3645 1.0
3644 11608 0.77
3644 11610 0.5
3646 3647 0.5
3646 3660 1.3
3647 3672 1.51
3648 3649 0.32
3648 11945 1.0
3649 4277 1.78
3649 11838 1.73
3650 3651 1.52
3650 3674 1.0
3651 3652 1.01
3651 3661 1.0
3652 3662 0.99
3652 3781 1.17
3653 3654 1.97
3653 3663 1.12
3653 6515 0.41
3653 11938 1.2
3654 3655 0.51
3655 3656 0.75
3655 3666 1.0
3656 3657 0.57
3656 3668 1.0
3658 3659 0.2
3659 3670 0.91
3659 6520 0.33
3660 3671 0.19
3660 6520 0.69
3661 3662 1.0
3661 3676 0.71
3662 11591 1.32
3663 3664 0.71
3663 3678 1.16
3664 3665 1.51
3664 3679 1.21
3665 3666 0.21
3665 3680 1.2
3666 3667 0.48
3667 3668 0.28
3667 3685 2.0
3668 3670 1.46
3669 3675 0.51
3669 5478 1.0
3669 11838 2.0
3670 3671 0.75
3671 3672 0.5
3671 3698 1.32
3672 3673 1.24
3672 3689 1.22
3673 3674 0.75
3673 3689 0.92
3674 3676 1.06
3675 4853 0.49
3675 11946 1.58
3676 3694 1.0
3677 3678 1.55
3677 3681 0.57
3678 3679 0.73
3678 3682 0.81
3679 3680 1.4
3680 3683 0.73
3681 3682 1.25
3681 3713 0.94
3682 3683 1.69
3682 3714 1.06
3683 3684 1.25
3683 3695 0.54
3684 3685 0.22
3684 3696 0.29
3685 3687 1.35
3686 4611 0.4
3686 10003 0.29
3686 10078 0.34
3687 3688 0.29
3688 3697 0.89
3689 3690 0.07
3690 3691 0.04
3690 11611 0.55
3691 3694 2.02
3691 11612 0.21
3692 3700 0.48
3692 4117 0.28
3692 11116 0.25
3693 3722 0.6
3693 4417 0.26
3693 11118 0.5
3694 3709 0.47
3694 11591 1.54
3695 3696 1.45
3695 3716 1.18
3696 3697 1.41
3696 3718 0.91
3697 3698 1.3
3698 3699 0.22
3699 3701 0.61
3699 11611 0.8
3700 4563 0.62
3700 6699 0.25
3700 7297 0.37
3701 3702 0.53
3701 3704 1.1
3702 3705 0.25
3702 11611 0.72
3703 4141 1.25
3703 5338 1.09
3703 9370 0.14
3703 11836 3.08
3704 3705 0.82
3704 3720 1.17
3705 3706 0.54
3706 3707 1.72
3706 3721 1.01
3706 11612 1.03
3707 3721 1.27
3707 3724 0.8
3708 3709 0.99
3708 3710 0.51
3708 11612 1.77
3709 3801 1.25
3710 3711 1.29
3710 3807 1.47
3711 3712 0.61
3711 3815 0.67
3712 3724 1.47
3712 3816 1.1
3712 3824 1.73
3713 3714 1.39
3713 3725 0.6
3714 3733 0.52
3715 3874 0.45
3715 10007 0.45
3715 11199 0.5
3715 11808 0.56
3716 3717 2.7
3716 3733 0.72
3717 3718 0.75
3717 3735 1.11
3717 6517 0.5
3718 6516 0.5
3719 3720 0.32
3719 6516 1.5
3719 6517 0.75
3720 11613 0.49
3721 3723 0.76
3722 3803 0.11
3722 4400 0.25
3723 3724 1.51
3723 3740 0.5
3723 11613 1.75
3724 11614 0.5
3725 3726 1.29
3725 3727 1.04
3726 3727 1.2
3726 3744 0.7
3727 3728 0.45
3728 3730 1.05
3728 3731 0.42
3729 3730 0.31
3729 3731 0.25
3729 3753 3.23
3730 12013 0.41
3731 3732 0.28
3732 3733 0.36
3732 3734 3.25
3734 3735 0.35
3734 3753 1.12
3735 6518 0.65
3736 3737 0.1
3736 3757 1.61
3736 6518 0.9
3737 3738 0.47
3737 11613 0.53
3738 3739 0.53
3738 3759 1.5
3739 3740 0.76
3739 3760 1.5
3740 3761 1.53
3740 11614 1.51
3741 4009 0.39
3741 11121 0.47
3741 12559 0.55
3742 3743 0.5
3742 3824 1.85
3742 11614 1.35
3743 3763 0.5
3743 3826 1.69
3744 3745 1.46
3745 4006 2.73
3745 12013 0.13
3746 3831 0.3
3746 4465 0.5
3746 5069 0.13
3746 12604 0.15
3747 9200 0.5
3747 11266 1.25
3747 11269 0.5
3748 3749 0.04
3748 4008 2.43
3748 12013 1.32
3749 3750 1.64
3749 3751 1.66
3750 3751 0.17
3751 3752 0.28
3752 3753 0.58
3752 3754 0.67
3753 3754 1.17
3754 3756 0.49
3755 3756 0.24
3755 3757 0.62
3757 3758 0.75
3757 11615 0.91
3758 3759 0.3
3758 3999 1.41
3759 3760 0.45
3760 3761 0.79
3761 3762 1.1
3762 3763 0.5
3762 3764 0.49
3763 3765 0.48
3764 3765 0.5
3764 4003 1.39
3765 3827 2.06
3766 3767 0.61
3767 3768 0.53
3767 3772 1.5
3768 3769 1.51
3768 11587 1.09
3769 3770 0.12
3769 9155 0.95
3771 3772 0.15
3771 3776 0.56
3772 3773 0.58
3773 3774 0.65
3773 3776 0.65
3774 3775 1.47
3777 3788 1.52
3777 11590 0.54
3778 11499 0.94
3778 12475 0.56
3778 12477 0.84
3779 3790 0.24
3779 11505 1.05
3779 12488 0.13
3779 12494 0.09
3780 3781 0.28
3781 3782 1.27
3783 3804 1.15
3783 11592 0.9
3784 3785 0.65
3784 11589 0.5
3784 11592 0.21
3785 3786 1.24
3785 3787 0.5
3785 11589 0.46
3786 3788 1.06
3787 3788 1.26
3787 11506 1.5
3788 3789 0.62
3789 11506 1.43
3789 12505 1.14
3790 9747 1.22
3790 12491 0.25
3790 12493 0.6
3791 12581 0.04
3791 12583 0.26
3791 12595 0.49
3792 3793 0.19
3792 3796 1.48
3792 10114 0.83
3793 3795 0.06
3793 7083 0.06
3794 3795 0.18
3794 3798 1.48
3794 10116 0.83
3795 11527 1.13
3796 3797 0.19
3796 7144 1.15
3797 3799 0.08
3797 11521 0.05
3798 3799 0.24
3798 7143 1.46
3799 11526 1.09
3800 11521 0.56
3800 12534 0.12
3801 3802 0.25
3801 3807 1.01
3802 11591 0.5
3803 4419 0.26
3803 4463 0.25
3803 11124 0.53
3805 3812 2.66
3806 11506 1.02
3807 3808 1.0
3807 3815 0.99
3808 3809 1.9
3808 3817 1.0
3809 3810 0.5
3809 3811 0.3
3810 3812 0.28
3811 3812 0.5
3811 11594 0.47
3812 3814 0.57
3813 3839 0.26
3813 4032 0.64
3813 11127 0.5
3814 3823 0.34
3814 11594 0.61
3815 3816 0.25
3816 3817 0.75
3817 3818 0.49
3817 11593 1.5
3818 3819 0.99
3818 3820 1.5
3819 3821 1.58
3819 11594 0.26
3820 3828 0.69
3820 11593 0.5
3821 3822 0.2
3821 3829 0.86
3822 3823 1.33
3824 3825 0.17
3825 3826 0.61
3825 6408 2.07
3826 3827 0.48
3828 3829 0.71
3829 6408 0.9
3830 11531 0.29
3830 11532 0.63
3830 12610 0.14
3831 4495 0.11
3831 11128 0.2
3832 3837 1.12
3832 8928 0.35
3832 11018 0.12
3833 3834 1.0
3833 11787 0.42
3833 12675 1.07
3833 12834 0.52
3834 4596 0.4
3834 9816 0.93
3834 11200 1.1
3835 3841 0.5
3835 3883 0.5
3835 6753 0.5
3836 3837 1.13
3836 8928 1.28
3836 11020 1.36
3837 9006 2.09
3838 8906 0.82
3838 9042 0.74
3838 9043 0.37
3838 9044 0.65
3839 4020 0.5
3839 12602 0.25
3840 9047 0.52
3840 9049 0.45
3840 10993 0.27
3841 11135 0.5
3841 11136 0.5
3842 3850 0.7
3842 9049 0.22
3842 10993 0.35
3843 9012 0.53
3843 9924 0.5
3843 10993 1.56
3844 4592 0.25
3844 4593 0.87
3844 7422 0.25
3844 9815 0.68
3845 3846 0.27
3845 8902 0.44
3845 9921 0.69
3846 8902 0.27
3846 10988 0.26
3847 3848 0.27
3847 3850 0.37
3847 3853 1.12
3847 9922 0.68
3848 3849 0.44
3848 3850 0.3
3848 10945 0.28
3849 3850 0.27
3849 3851 1.12
3849 9662 0.34
3851 3852 0.41
3852 3854 0.24
3852 10950 0.79
3853 3854 0.4
3854 10997 0.21
3855 3863 0.4
3855 9078 0.49
3855 10997 0.61
3856 9044 0.4
3856 10990 0.4
3856 10994 0.25
3857 4647 1.0
3857 11805 0.3
3857 11806 0.78
3857 11807 0.6
3858 3859 0.51
3858 3861 0.74
3858 9044 0.25
3858 10994 0.39
3859 8907 0.25
3859 10995 0.17
3860 9046 0.4
3860 10995 0.5
3860 11773 0.62
3861 3862 0.5
3861 8904 0.85
3861 12082 0.66
3862 10995 0.59
3862 11773 0.5
3863 9077 0.5
3863 10996 0.8
3863 11773 0.5
3864 3865 0.47
3864 8909 0.2
3864 12082 0.8
3865 5979 0.69
3865 11772 0.39
3866 3867 1.0
3866 8927 0.74
3866 11024 0.75
3867 12162 1.2
3867 12163 0.52
3868 3869 0.4
3868 4934 0.64
3868 12163 0.78
3869 4934 0.5
3869 11021 1.02
3870 11809 0.4
3870 12593 0.89
3871 8289 1.03
3871 9666 0.1
3871 10277 0.41
3871 12032 0.25
3872 3874 0.62
3872 4596 0.5
3872 11199 0.51
3873 11009 1.2
3873 11010 0.44
3873 11011 0.64
3874 9813 0.31
3875 8293 1.3
3875 8915 0.51
3875 11007 0.5
3875 12081 0.8
3876 8915 0.55
3876 11007 0.5
3876 11013 0.98
3876 11777 1.0
3877 6624 1.45
3877 11025 0.75
3877 12189 0.71
3878 11029 1.07
3878 12158 0.91
3879 12184 1.5
3879 12185 0.35
3879 12600 0.84
3880 3882 0.49
3880 5071 0.25
3880 11127 0.5
3881 11030 1.6
3881 11033 0.68
3881 11780 0.4
3881 11782 1.67
3882 4530 0.38
3882 11128 0.51
3882 12606 0.51
3883 4534 0.25
3883 11129 0.52
3883 11135 0.49
3884 4423 0.93
3884 6756 0.5
3884 11125 0.33
3884 11130 0.65
3885 4958 0.1
3885 11151 0.93
3885 11783 0.5
3886 5857 1.1
3886 9017 0.25
3886 10939 0.59
3887 9019 0.9
3887 10940 0.95
3887 11304 0.72
3887 11340 1.0
3888 6756 0.5
3888 11131 0.36
3888 11136 0.64
3889 3890 0.39
3889 9063 0.15
3889 10764 0.45
3890 3891 0.19
3890 10764 0.25
3891 8202 0.33
3891 9064 1.48
3892 3895 0.5
3892 11132 0.49
3892 12613 0.51
3893 3894 0.23
3893 7712 0.62
3893 10956 0.5
3894 6876 1.0
3894 10960 0.5
3895 3898 0.09
3895 12614 0.5
3896 3897 0.22
3896 9112 0.81
3896 10960 0.1
3897 8263 0.4
3897 10960 0.19
3898 3901 0.5
3898 6696 0.57
3899 9085 0.64
3899 9115 0.64
3899 10276 1.25
3899 10961 0.45
3900 9087 0.98
3900 9669 0.5
3900 10949 0.5
3900 10957 0.49
3901 10888 0.75
3901 10894 0.5
3902 3905 1.0
3902 6473 1.0
3902 6479 0.55
3902 12841 0.46
3903 3904 0.29
3903 9123 0.38
3903 10779 0.44
3903 12049 0.4
3904 9124 0.87
3904 10513 0.11
3905 6480 0.48
3905 11143 0.17
3906 10513 0.86
3906 10514 0.98
3906 12050 0.74
3907 5780 0.5
3907 6754 1.0
3907 10024 0.16
3907 11139 1.0
3908 5121 0.25
3908 5152 0.25
3908 7551 0.25
3908 11133 0.78
3909 3910 0.26
3909 10965 0.55
3909 12038 0.53
3910 10970 0.71
3910 12037 0.35
3911 3912 0.52
3911 4588 0.7
3911 6491 0.98
3911 10004 1.11
3912 4580 1.7
3912 7422 0.64
3912 10006 0.82
3913 4580 0.58
3913 4581 0.79
3914 10971 0.76
3914 10975 0.37
3914 12087 0.5
3914 12088 0.53
3915 10852 1.46
3915 11096 0.25
3916 10972 0.75
3916 10976 0.48
3916 12088 0.5
3916 12091 0.51
3917 3918 0.51
3917 11089 0.52
3918 3919 0.51
3918 11084 0.48
3919 7082 0.44
3919 11090 0.45
3920 3922 0.3
3920 10787 0.12
3920 12095 0.31
3921 3922 0.38
3921 10781 0.13
3921 12042 1.52
3921 12096 0.11
3922 12092 0.81
3922 12095 0.08
3923 3927 1.0
3923 4494 0.26
3924 3925 0.22
3924 10789 0.7
3924 12103 0.17
3926 10789 0.29
3926 12099 1.5
3926 12252 0.15
3927 11078 0.31
3927 12230 0.15
3928 8246 0.33
3928 10783 0.27
3928 10789 0.63
3928 12105 1.0
3929 10795 0.95
3929 10796 0.14
3929 12312 0.52
3930 8940 0.5
3930 10803 0.68
3930 10809 0.24
3930 12316 0.48
3931 11069 0.72
3931 11070 0.69
3931 11076 0.97
3932 10981 1.03
3932 12241 0.25
3932 12242 0.71
3933 3934 0.14
3934 11062 0.56
3934 11063 0.33
3935 6349 1.02
3935 9773 0.48
3935 9776 0.38
3936 10980 0.26
3936 12237 0.55
3937 10984 0.52
3937 12237 0.63
3937 12305 0.63
3938 9774 0.51
3938 9776 0.62
3938 9778 0.51
3938 9780 0.95
3939 6361 0.51
3939 9778 0.49
3939 9886 1.0
3939 10280 0.55
3940 9764 0.16
3940 11059 0.22
3940 11060 0.52
3941 9035 1.08
3941 9037 0.4
3941 10497 0.42
3942 3943 0.5
3942 4477 0.33
3942 11045 0.89
3943 3949 0.5
3943 11046 1.0
3943 11052 0.4
3944 9102 0.27
3944 9105 0.46
3944 10501 0.5
3945 8314 0.18
3945 9100 0.27
3945 9101 0.17
3945 10501 0.28
3946 9033 0.47
3946 9039 0.23
3946 10498 0.4
3947 8455 0.13
3947 9144 0.25
3947 10511 0.25
3948 3952 0.18
3948 8455 0.55
3948 8793 0.42
3948 10512 0.57
3949 3955 1.0
3949 11047 0.76
3949 11053 0.32
3950 3951 0.12
3950 12027 0.47
3950 12029 0.12
3951 8793 0.1
3951 12028 0.5
3951 12029 0.08
3952 3953 0.35
3952 12030 0.57
3953 3954 0.34
3953 12068 0.24
3953 12070 0.54
3954 10518 0.21
3954 12068 0.16
3955 11054 0.34
3955 12353 0.75
3956 10516 0.43
3956 10522 0.5
3956 12059 0.39
3956 12062 0.25
3957 8882 0.25
3957 10517 0.5
3957 12062 0.25
3958 3962 0.4
3958 3965 0.19
3958 11070 0.55
3959 3960 0.6
3959 10517 0.5
3959 12065 0.34
3959 12067 0.37
3960 10518 0.03
3960 12069 0.37
3961 3964 0.42
3961 10321 0.2
3961 12070 0.42
3961 12073 0.2
3962 3965 0.19
3962 4492 0.3
3962 11071 0.78
3963 10321 0.23
3963 12071 0.4
3963 12080 0.47
3964 10518 0.13
3964 12074 0.16
3965 3970 0.3
3965 12436 1.0
3966 3970 0.25
3966 3979 0.25
3967 8439 0.55
3967 10520 0.53
3967 10526 0.38
3967 12115 0.5
3968 3972 0.25
3968 8409 0.03
3968 10521 0.49
3968 12118 0.21
3969 3974 0.5
3969 8471 0.75
3969 10522 0.5
3969 12127 0.25
3970 3973 0.25
3970 3979 0.25
3971 10526 0.64
3971 12262 0.2
3971 12264 0.52
3972 7474 0.18
3972 12265 0.18
3973 3979 0.25
3973 12234 1.46
3974 3975 0.51
3974 10528 0.25
3974 12280 0.25
3975 12273 0.25
3975 12278 0.26
3976 3977 0.51
3976 10534 0.23
3976 12276 0.25
3977 3978 0.31
3977 8476 0.23
3977 12331 0.25
3978 10540 0.2
3978 12330 0.45
3979 4474 1.25
3980 8486 0.7
3980 10538 0.48
3980 12325 0.42
3981 3990 0.16
3981 3992 0.39
3981 11100 0.78
3982 5279 0.5
3982 5291 0.19
3982 10548 0.17
3982 10554 0.5
3983 3985 0.3
3983 5076 0.15
3983 5362 0.25
3984 8456 0.03
3984 9141 0.55
3984 10510 0.53
3984 12061 0.03
3985 5362 0.05
3985 5370 0.44
3985 10331 0.52
3986 3987 0.31
3986 3988 0.48
3986 12263 0.5
3987 8884 0.19
3987 12326 0.45
3988 12263 0.45
3988 12264 0.28
3989 9987 0.37
3989 10008 0.09
3989 12559 1.51
3990 3992 0.16
3990 7079 0.22
3991 5037 1.04
3992 3993 0.11
3993 3994 0.15
3993 3997 0.39
3994 7081 0.3
3994 12486 0.36
3995 10308 0.5
3995 10310 0.58
3996 3997 0.15
3996 12486 0.21
3997 11095 0.38
3998 4011 0.49
3998 4031 0.73
3998 12596 1.14
3999 4000 0.3
3999 11615 0.8
4000 4014 0.8
4001 4005 0.36
4001 11616 0.35
4002 4009 0.46
4002 11198 0.57
4003 4004 1.27
4003 11616 0.25
4004 6406 2.07
4004 11595 1.6
4005 4016 0.84
4005 11616 0.09
4006 4008 1.69
4006 4017 1.11
4007 10623 0.43
4007 10629 0.19
4008 4012 2.81
4008 4019 1.18
4009 4569 0.46
4009 4574 0.5
4010 10978 0.07
4010 10982 0.78
4010 12235 0.57
4011 10012 0.15
4011 12602 0.76
4012 4013 1.15
4012 4022 1.0
4013 4014 0.52
4013 11615 1.32
4014 4015 0.1
4015 4016 1.8
4015 4023 0.5
4016 4024 0.35
4016 6412 3.25
4017 4019 1.8
4017 12014 1.44
4018 4020 0.25
4018 5121 0.49
4018 12602 0.36
4019 4021 2.77
4019 4033 1.87
4020 7551 0.24
4021 4022 0.78
4021 4025 0.45
4022 4023 1.55
4023 4024 1.76
4024 4028 0.85
4025 4026 0.57
4025 4036 0.77
4026 4027 1.55
4026 11617 0.62
4027 4028 1.18
4027 4039 0.77
4028 4040 0.64
4028 11618 1.5
4029 4037 0.5
4029 4049 0.18
4029 11106 0.85
4030 4046 1.64
4030 11597 1.29
4030 11618 0.31
4031 4032 0.69
4031 12559 0.21
4031 12602 0.62
4032 5065 0.7
4033 4034 0.24
4034 4041 2.11
4034 4054 2.0
4035 9981 0.07
4035 11109 1.0
4035 11186 1.2
4036 4041 0.69
4036 11617 0.84
4037 4048 0.17
4037 7078 0.17
4038 4039 0.76
4038 4043 1.26
4038 11617 1.01
4039 4040 1.16
4040 4045 1.48
4041 4042 0.88
4041 4056 1.32
4042 4043 0.8
4042 4057 1.0
4043 4044 0.5
4044 4045 1.22
4044 4058 1.01
4045 4059 1.04
4047 7552 0.29
4047 11110 0.24
4048 8578 0.86
4050 6437 0.49
4050 6762 0.36
4050 10350 0.37
4051 4052 0.15
4051 10346 0.5
4052 4303 0.24
4052 6623 0.51
4053 9160 0.38
4053 11939 2.0
4054 4056 1.99
4054 4079 2.0
4055 4060 0.08
4055 4300 0.24
4055 6625 0.5
4056 4057 0.95
4056 4066 1.0
4057 4058 1.25
4058 4059 1.25
4058 4068 1.38
4059 11620 0.49
4060 4294 0.3
4060 4299 0.25
4061 4069 1.24
4061 11620 0.52
4062 4064 0.19
4062 10347 0.19
4063 4085 0.36
4063 6663 0.2
4064 4297 0.05
4065 4087 0.1
4065 4296 0.13
4065 6670 0.4
4066 4081 1.01
4066 11619 1.72
4067 4073 0.16
4067 4689 0.06
4067 7516 0.07
4067 9338 0.08
4068 4070 2.23
4068 11619 0.62
4069 4102 1.46
4069 11599 1.05
4070 4071 0.35
4070 4082 2.25
4071 4098 0.47
4071 11620 2.86
4071 11622 0.45
4072 11563 1.04
4072 11564 0.5
4072 12887 0.4
4073 4792 0.06
4073 9337 0.06
4073 10351 0.08
4074 4089 2.0
4074 11939 0.5
4075 4076 0.08
4075 4794 0.06
4075 9334 0.08
4076 4795 0.06
4076 9333 0.08
4077 4078 0.67
4077 11939 0.8
4078 4079 0.98
4079 4081 1.99
4079 4092 2.0
4080 4242 0.3
4080 4297 0.06
4081 4082 1.57
4081 11621 1.05
4082 4088 0.95
4082 11619 0.76
4083 4084 0.74
4083 11061 1.16
4083 11067 0.49
4084 4487 0.35
4084 4488 0.88
4085 9230 0.16
4085 9920 0.13
4086 11073 0.15
4086 11079 0.5
4086 12422 0.24
4087 7486 0.35
4087 9920 0.13
4088 4097 1.03
4088 11621 1.6
4089 4091 1.79
4089 4104 1.0
4090 4117 0.51
4090 11111 1.08
4091 4092 1.0
4092 4093 1.0
4092 4107 1.51
4093 4094 1.01
4093 4108 1.49
4094 4095 0.33
4094 4109 1.49
4095 4096 1.02
4095 11621 1.08
4096 4097 0.83
4096 4111 1.01
4097 4098 1.8
4098 4113 1.75
4098 11622 0.34
4099 7487 0.05
4099 9920 0.17
4100 4101 0.75
4100 9761 0.26
4100 11601 1.07
4101 4102 0.99
4101 6453 0.7
4102 6453 0.26
4103 4104 0.9
4103 4129 2.5
4104 4105 1.0
4105 4106 0.53
4106 4130 1.98
4107 4108 1.0
4108 4109 0.82
4108 4118 1.49
4109 4110 0.22
4110 4111 1.65
4110 4119 1.57
4111 4112 1.5
4111 4121 1.76
4112 4113 1.0
4112 4123 1.1
4113 4124 1.0
4113 6449 2.33
4114 4115 0.72
4114 4116 0.9
4114 11622 1.4
4115 4116 0.46
4115 7614 1.48
4115 9761 1.33
4116 6449 0.4
4117 11117 0.34
4118 4119 1.01
4118 4132 0.55
4119 4120 0.62
4119 4133 0.75
4120 4121 1.66
4120 4134 1.13
4121 4122 0.42
4122 4123 0.34
4122 4126 0.78
4123 4124 1.03
4124 4125 2.0
4124 4127 1.02
4125 4128 1.05
4125 4226 0.9
4126 4127 1.25
4126 11623 0.99
4127 4128 2.0
4127 11624 0.99
4128 4139 1.11
4129 4130 1.86
4129 4145 1.5
4130 4146 1.49
4130 11940 1.4
4131 4132 0.51
4131 4140 0.55
4131 11940 1.09
4132 4133 1.04
4133 4134 0.66
4133 4142 0.24
4134 4144 0.21
4134 11623 1.97
4135 4259 0.09
4135 10350 0.39
4135 12838 0.46
4136 4152 0.71
4136 11623 0.24
4136 11624 1.01
4137 4150 0.14
4137 4269 0.1
4137 9339 0.11
4138 4139 1.38
4138 4155 0.44
4138 11624 0.65
4139 4155 1.0
4139 4171 1.41
4140 4142 1.29
4140 4148 1.25
4141 9387 0.2
4141 11953 0.54
4142 4143 0.56
4143 4144 0.15
4143 4149 0.73
4144 11623 1.99
4145 4146 1.83
4145 4156 1.0
4146 4147 1.49
4146 4157 0.98
4147 4148 1.91
4147 4158 1.0
4147 11940 1.41
4148 4159 1.02
4148 6504 0.56
4149 6504 1.53
4149 11625 0.45
4150 4153 0.11
4150 4164 0.1
4150 4282 0.1
4151 4152 0.6
4151 4154 0.8
4151 11625 1.17
4152 11626 0.75
4153 4164 0.08
4153 4181 0.09
4153 9338 0.29
4154 4168 1.14
4154 6507 2.28
4154 11626 0.29
4155 11626 1.95
4156 4157 1.88
4157 4158 1.49
4158 4159 2.0
4159 4161 1.59
4159 6505 0.47
4160 6505 0.97
4160 6506 1.1
4160 11625 1.3
4161 4162 0.7
4162 4163 0.41
4163 4176 1.87
4163 11961 0.34
4164 4286 0.09
4165 4166 1.2
4165 4179 1.85
4165 6507 0.09
4165 11961 0.29
4166 4167 0.67
4166 4180 1.4
4167 4168 1.15
4167 4174 1.27
4168 4169 0.79
4169 4170 0.52
4169 6508 0.8
4170 4172 0.92
4170 4173 0.75
4171 4172 0.3
4171 4241 1.08
4172 4173 0.4
4173 4244 0.39
4174 4175 0.25
4174 6508 0.41
4175 4251 1.27
4175 11962 0.63
4176 4177 1.44
4176 4182 1.3
4177 4178 1.37
4177 4179 0.59
4177 4183 1.07
4178 9364 1.14
4178 11962 1.3
4179 4180 0.2
4181 4191 0.09
4181 4198 0.07
4181 4753 0.15
4182 4195 0.09
4183 4184 0.57
4183 4185 0.93
4184 4195 0.52
4184 4196 0.61
4184 4210 0.98
4185 4210 0.11
4185 9364 0.9
4186 9387 0.45
4186 11837 0.92
4186 11953 0.56
4187 4189 1.89
4187 4211 0.31
4188 4189 1.0
4188 4252 1.59
4188 4258 0.85
4189 4190 0.94
4189 4264 0.86
4190 4211 1.55
4190 4214 0.83
4190 4268 1.5
4191 4203 0.08
4191 4295 0.09
4192 4193 0.95
4193 4194 0.59
4193 4200 1.03
4194 4195 0.81
4194 4196 1.0
4196 4197 0.2
4197 4200 1.39
4197 4205 0.71
4197 4208 0.93
4198 4203 0.09
4198 4207 0.08
4199 4200 1.0
4199 11941 9.99
4199 11963 1.2
4200 11963 0.24
4201 4202 0.94
4201 4218 1.0
4202 4219 0.99
4202 11963 0.51
4203 4209 0.1
4203 10354 0.08
4204 4205 1.0
4204 11963 0.41
4205 4206 0.89
4206 4208 0.95
4206 4222 0.81
4207 4209 0.1
4207 4762 0.14
4208 11964 0.29
4209 4346 0.08
4210 11964 0.31
4211 4212 1.0
4211 11833 0.88
4212 4213 0.76
4212 11833 0.79
4213 4214 1.31
4213 4224 0.33
4214 4215 0.42
4215 4224 1.08
4215 11978 2.18
4216 4225 0.08
4216 4234 0.06
4216 4305 0.1
4216 9333 0.28
4217 4280 0.69
4217 5427 0.83
4217 11953 0.57
4218 4219 0.94
4218 9366 1.0
4219 9365 0.75
4220 4221 1.05
4220 9365 0.42
4220 9368 1.05
4221 4222 0.62
4222 4223 0.42
4222 4224 1.52
4223 11965 2.44
4223 11966 2.36
4225 4239 0.09
4226 4227 1.2
4226 6449 0.53
4226 6450 0.96
4227 4228 0.98
4227 11603 0.75
4228 4229 1.85
4228 6450 0.21
4229 4230 0.51
4230 4231 1.12
4232 4233 1.11
4232 11565 0.7
4232 12874 0.53
4233 11559 0.54
4233 11560 0.33
4233 11566 0.78
4234 4239 0.05
4234 4305 0.05
4234 9914 0.08
4235 4236 0.44
4235 11560 0.31
4235 12957 0.87
4236 4237 0.74
4236 11561 0.25
4238 11564 0.5
4238 11565 0.1
4238 12879 0.56
4239 10355 0.08
4240 4243 0.72
4241 4245 0.66
4242 4305 0.12
4242 9913 0.1
4242 9914 0.09
4243 11605 1.86
4243 11606 1.19
4244 4245 0.49
4244 4247 0.95
4245 4248 0.9
4246 4249 0.59
4247 4248 0.68
4249 4250 0.21
4250 4255 1.58
4250 12912 2.31
4251 4252 0.15
4252 4253 0.86
4254 4255 0.12
4254 10161 0.9
4254 11977 0.9
4256 4257 0.1
4256 4262 0.7
4256 11835 1.66
4258 11976 1.28
4259 4308 0.04
4259 9341 0.04
4260 4261 1.04
4260 4266 1.4
4260 10161 0.16
4260 11977 0.16
4261 4267 1.8
4262 4263 0.41
4262 11835 1.34
4263 4284 1.3
4264 4265 1.01
4265 4266 0.53
4265 4268 0.87
4266 4267 0.46
4266 11976 1.18
4268 9384 0.4
4269 4282 0.14
4270 4271 0.21
4270 9372 2.3
4271 11837 1.15
4272 4273 2.38
4272 11979 2.32
4273 4275 0.9
4273 4276 2.61
4274 4275 0.64
4274 11979 0.9
4276 4277 1.17
4277 4278 0.99
4278 4290 1.5
4278 11838 1.5
4279 4293 1.73
4279 11946 0.54
4280 5430 1.15
4280 11837 0.35
4281 4649 0.99
4281 11946 0.38
4282 4286 0.08
4282 4782 0.03
4283 4284 1.68
4283 4288 1.3
4283 11974 0.49
4284 4285 1.25
4284 4289 0.99
4285 11975 0.75
4286 4295 0.08
4287 4657 0.99
4287 10160 0.5
4287 11975 0.5
4288 4289 0.87
4288 4290 0.66
4289 4291 0.51
4289 9397 2.0
4290 4291 0.46
4290 4293 0.61
4291 4293 0.38
4291 9397 1.5
4294 6628 0.21
4294 6659 0.21
4295 10354 0.08
4296 9905 0.07
4296 9908 0.05
4297 4298 0.15
4297 9906 0.21
4298 4299 0.07
4299 4300 0.08
4299 4795 0.05
4300 4301 0.08
4300 4794 0.06
4301 4302 0.08
4302 4303 0.08
4303 4792 0.06
4304 6762 0.03
4304 8755 0.05
4304 8757 0.09
4304 10350 0.5
4305 9228 0.12
4305 9332 0.3
4306 4557 0.12
4306 4725 0.05
4307 4308 0.11
4307 4562 0.11
4307 4726 0.04
4308 4564 0.11
4309 4310 0.1
4309 4566 0.12
4310 4567 0.12
4310 10353 0.07
4311 4312 0.11
4311 4571 0.12
4312 4568 0.12
4313 4314 0.11
4313 4398 0.04
4313 4420 0.12
4314 4570 0.11
4314 4734 0.05
4315 4316 0.04
4315 4319 0.08
4315 4420 0.09
4316 4317 0.11
4316 4455 0.04
4317 4318 0.11
4317 4737 0.03
4318 4322 0.08
4318 4570 0.09
4319 4320 0.27
4319 4578 0.17
4320 4321 0.1
4321 4322 0.09
4322 4589 0.17
4323 4324 0.18
4323 4334 0.15
4323 4340 0.07
4324 4325 0.24
4324 4480 0.15
4325 7880 0.17
4325 7882 0.11
4326 4327 0.1
4326 12950 0.07
4327 6923 0.5
4327 6928 0.09
4327 9342 0.45
4328 4612 0.52
4328 7023 0.16
4328 10357 0.34
4329 4331 0.06
4329 4332 0.25
4329 7870 0.07
4329 7875 0.13
4330 4333 0.22
4330 7442 0.13
4331 4333 0.17
4331 8200 0.1
4332 4333 0.12
4332 7865 0.06
4334 4335 0.16
4334 4339 0.09
4334 4480 0.16
4335 4338 0.07
4335 4739 0.15
4336 4337 0.16
4336 4743 0.07
4337 4338 0.16
4337 4739 0.05
4338 4339 0.17
4338 9329 0.08
4339 4340 0.18
4341 4342 0.08
4341 4481 0.07
4341 4482 0.08
4342 4483 0.09
4342 4484 0.05
4343 4484 0.15
4343 4641 0.17
4343 9329 0.08
4344 4725 0.23
4344 10350 0.22
4345 7130 0.24
4345 8022 0.19
4345 8052 0.06
4346 10354 0.08
4347 7350 0.31
4347 7423 0.19
4347 10370 0.33
4348 4362 0.08
4349 4350 0.05
4349 8074 0.53
4349 8413 0.41
4350 8066 0.57
4350 10100 0.44
4351 4352 0.05
4351 8071 0.57
4351 10101 0.18
4352 8077 0.53
4352 8413 0.41
4353 4355 0.5
4353 4357 0.36
4353 10101 0.26
4354 4356 0.48
4354 4358 0.36
4354 10100 0.26
4355 4356 0.07
4355 10371 0.12
4356 7458 0.23
4357 4359 0.1
4357 4360 0.1
4358 4359 0.15
4358 4360 0.1
4359 7439 0.33
4359 7539 0.65
4360 7440 0.33
4360 7540 0.65
4361 7439 0.19
4361 7440 0.11
4361 7458 0.13
4362 4373 0.09
4362 4434 0.08
4363 7423 0.26
4364 4555 0.24
4364 9233 0.26
4364 9235 0.09
4364 9236 0.09
4365 4440 0.14
4365 4444 0.09
4365 4452 0.09
4366 4367 0.24
4367 6659 0.08
4367 10347 0.08
4368 4369 0.5
4368 5211 0.5
4368 7572 0.06
4368 10379 0.25
4369 4370 0.5
4369 7571 0.08
4369 7573 0.26
4370 4371 0.51
4370 7525 0.08
4370 10375 0.25
4371 7524 0.08
4371 7537 0.23
4372 8022 0.06
4372 8056 0.26
4372 8057 0.08
4373 4436 0.08
4374 7567 0.23
4374 8421 0.49
4374 10374 0.5
4374 10378 0.5
4375 4380 0.09
4375 4392 0.09
4375 7484 0.29
4376 7295 0.7
4376 7494 0.25
4376 7512 0.5
4376 10374 0.5
4377 7558 0.5
4377 7559 0.08
4377 7560 0.1
4378 8256 0.2
4378 10614 0.06
4379 7456 0.26
4379 10607 0.51
4379 10613 0.25
4380 4444 0.25
4380 7485 0.44
4381 4382 0.31
4381 7055 0.25
4381 7059 0.26
4381 10607 0.5
4382 4383 0.21
4382 7009 0.3
4382 7054 0.25
4383 4384 0.25
4383 7004 0.26
4383 7008 0.25
4384 7005 0.25
4384 7007 0.24
4384 10601 0.25
4385 4386 0.07
4385 7005 0.49
4385 7893 0.16
4385 7894 0.25
4385 12183 0.25
4386 6894 0.19
4386 7892 0.15
4387 4389 0.07
4387 6893 0.25
4387 6894 0.25
4387 6900 0.25
4388 4389 0.06
4388 4390 0.09
4388 6892 0.16
4389 4390 0.06
4390 4391 0.15
4390 6896 0.26
4391 6891 0.29
4391 6895 0.25
4391 10589 0.36
4392 4452 0.25
4392 7486 0.27
4393 4394 0.26
4393 6721 0.25
4393 6724 0.26
4393 10589 0.4
4394 4395 0.08
4394 6340 0.25
4394 6362 0.16
4395 4396 0.17
4395 6362 0.15
4396 4397 0.51
4396 6335 0.25
4396 6353 0.25
4397 6332 0.25
4397 6346 0.25
4397 10577 0.5
4398 4455 0.09
4398 9342 0.05
4399 6195 0.26
4399 6197 0.25
4399 9013 0.27
4399 10577 0.51
4400 4417 0.5
4400 4419 0.27
4400 4563 0.25
4401 4402 0.09
4401 8350 0.62
4402 4403 0.25
4402 8351 0.51
4403 4404 0.27
4403 6368 0.26
4403 8354 0.48
4404 4405 0.5
4404 8355 0.51
4404 10584 0.28
4405 6367 0.27
4405 8356 0.51
4405 10578 0.5
4406 4456 0.09
4407 4408 0.12
4407 8797 0.21
4407 8818 0.59
4407 10578 0.4
4408 8357 0.51
4408 8797 0.15
4408 10572 0.27
4409 4413 0.08
4409 4681 0.08
4409 4785 0.03
4410 4411 0.52
4410 5946 0.03
4410 5970 0.54
4410 8013 0.03
4411 4412 0.53
4411 5813 0.51
4411 8786 0.53
4412 5803 0.5
4412 5806 0.5
4412 10560 0.5
4413 4415 0.08
4413 4460 0.09
4414 5579 0.52
4414 8978 0.12
4414 10554 0.5
4415 4416 0.08
4415 4466 0.09
4416 4418 0.08
4416 4469 0.1
4417 7549 0.5
4417 11117 0.25
4418 10359 0.09
4419 11123 0.27
4420 4571 0.09
4421 5848 0.1
4421 8778 0.1
4421 9020 0.04
4422 7982 0.15
4422 7989 0.12
4422 8299 0.25
4423 4462 1.11
4423 11119 0.27
4423 12569 0.99
4424 4425 0.24
4424 6717 0.47
4424 9632 0.25
4425 6297 0.51
4425 8382 0.51
4425 10582 0.27
4426 4434 0.08
4427 4428 0.04
4427 6281 0.03
4427 6284 0.45
4427 6285 0.5
4428 6281 0.03
4428 8385 0.51
4428 10582 0.5
4429 5793 0.63
4429 7972 0.4
4429 10564 0.17
4430 8370 0.5
4430 8695 0.52
4430 10605 0.31
4431 5500 0.08
4431 5506 0.51
4431 10556 0.5
4432 7450 0.35
4432 10604 0.49
4432 10610 0.16
4433 6129 0.55
4433 8647 0.31
4433 10567 0.5
4433 10573 1.01
4434 4436 0.08
4435 5860 0.58
4435 5863 0.5
4435 10561 0.5
4435 10567 0.51
4437 4438 0.41
4437 5746 0.49
4437 8523 0.58
4437 10561 0.5
4438 5488 0.18
4438 8521 0.61
4438 10555 0.22
4439 4441 0.75
4439 6907 0.34
4439 7035 0.12
4439 10118 0.2
4440 4473 0.19
4441 4445 0.41
4441 10875 0.06
4442 4443 0.8
4442 6907 0.27
4442 7545 0.48
4443 7526 0.61
4443 10875 0.07
4444 4475 0.19
4445 10869 0.51
4445 10875 0.54
4445 12549 0.35
4446 4447 0.4
4446 4450 0.5
4446 12509 0.25
4446 12510 0.27
4447 4448 0.2
4447 8540 0.25
4447 10849 0.37
4448 4449 0.2
4448 4453 0.38
4448 12455 0.26
4449 4454 0.38
4449 10844 0.25
4450 4451 0.4
4450 10848 0.5
4450 12502 0.25
4451 10849 0.15
4451 12450 0.5
4452 4476 0.19
4453 4454 0.04
4453 10849 0.3
4453 12451 0.12
4454 10837 1.0
4454 12451 0.15
4455 6932 0.24
4456 10358 0.08
4457 4459 0.63
4457 6255 0.44
4457 8530 0.5
4457 10845 0.25
4458 4459 0.26
4458 10845 0.63
4458 12460 0.3
4459 10839 0.5
4460 4466 0.08
4460 4681 0.08
4462 4463 0.5
4462 11124 0.46
4462 11130 0.56
4463 7298 0.5
4464 4465 0.46
4464 7298 0.03
4464 11129 0.51
4465 11123 0.24
4466 4469 0.08
4467 8952 0.26
4467 8954 0.5
4467 10825 0.79
4467 10831 0.11
4468 8953 0.45
4468 8954 0.6
4468 10818 0.35
4469 10359 0.08
4470 10360 0.09
4471 10822 0.95
4471 11066 0.41
4471 11072 0.63
4472 4473 0.18
4472 4533 0.08
4472 10360 0.08
4473 4542 0.2
4474 9765 0.66
4474 11064 0.93
4474 11065 0.34
4475 4547 0.35
4476 4548 0.35
4477 11052 0.51
4477 12351 0.23
4478 4479 0.22
4478 8342 0.27
4478 8345 0.36
4479 8344 0.33
4479 11321 0.36
4480 7880 0.25
4480 10361 0.16
4481 4486 0.16
4482 4498 0.28
4482 4586 0.28
4483 4499 0.28
4483 4606 0.28
4484 4500 0.24
4485 6333 0.79
4485 11049 0.99
4485 11050 1.39
4485 11055 0.57
4486 4493 0.08
4486 4749 0.09
4487 6363 0.53
4487 11067 0.89
4487 12422 0.98
4488 9762 0.4
4488 11068 0.07
4489 4490 0.14
4489 8110 0.64
4490 11325 0.43
4491 4682 0.23
4491 8121 0.24
4492 11077 0.28
4493 4504 0.08
4494 11078 1.0
4494 12436 0.31
4495 4530 0.49
4495 11129 0.49
4496 11091 0.22
4496 12423 1.06
4497 11086 0.51
4497 12425 0.86
4498 4511 0.11
4499 4511 0.11
4499 4749 0.07
4500 4512 0.08
4501 4502 0.38
4501 11082 1.03
4501 11094 1.01
4502 12437 1.08
4503 4507 0.07
4503 7296 0.46
4503 11101 0.32
4503 12538 0.51
4504 4511 0.09
4504 4513 0.15
4505 4506 0.33
4505 8614 0.1
4505 11101 1.06
4506 12141 1.0
4507 4508 0.04
4509 4510 0.04
4510 8581 0.1
4511 4512 0.08
4511 4516 0.16
4512 4518 0.18
4513 4516 0.09
4514 4515 0.5
4514 8966 0.36
4514 10860 0.5
4515 8967 0.38
4515 10855 0.21
4516 4518 0.08
4517 10880 0.16
4517 12585 0.12
4517 12586 0.27
4518 9344 0.16
4519 4524 0.08
4520 4523 0.07
4520 4529 0.07
4521 8613 0.08
4522 6635 0.95
4522 8558 0.15
4523 4532 0.07
4524 4529 0.09
4524 4533 0.08
4524 10360 0.1
4525 4527 0.31
4525 12215 0.04
4525 12319 0.1
4526 4527 0.11
4526 7920 0.28
4526 12213 0.34
4527 5084 0.24
4528 10826 0.56
4528 12366 0.52
4528 12367 0.45
4528 12405 0.65
4529 4532 0.08
4529 4539 0.08
4530 4534 0.25
4531 10904 0.1
4531 10910 0.91
4532 4541 0.09
4533 4539 0.08
4533 7510 0.14
4534 4706 0.5
4535 4545 1.47
4535 10894 0.55
4536 4544 1.27
4536 10900 0.37
4536 12637 1.28
4537 4538 0.04
4539 4541 0.09
4539 7510 0.06
4540 12568 0.51
4540 12569 0.19
4540 12570 0.64
4541 7510 0.09
4541 10363 0.09
4542 4543 0.15
4542 7510 0.15
4543 4546 0.16
4543 9324 0.39
4543 10363 0.19
4544 4545 0.13
4544 11144 0.05
4545 4551 0.83
4545 11137 1.09
4546 4547 0.09
4546 4548 0.09
4547 7439 1.48
4548 4556 0.5
4549 4612 0.18
4549 7024 0.34
4549 7031 0.5
4550 11144 1.05
4550 11150 0.75
4550 12655 0.6
4551 11149 1.05
4552 4560 0.87
4552 11148 0.87
4552 12655 0.5
4553 4641 0.17
4553 10362 0.47
4554 4555 0.08
4554 9235 0.24
4554 10362 0.23
4555 9237 0.09
4556 9324 0.15
4556 10105 0.14
4557 4562 0.09
4557 4691 0.81
4558 12806 0.15
4559 4564 0.09
4559 4694 0.81
4560 4561 0.25
4560 11041 1.22
4561 11040 2.59
4561 11148 1.4
4562 4567 0.08
4563 11117 0.64
4563 11123 0.39
4564 4566 0.08
4565 4573 1.66
4565 7067 1.15
4565 11146 0.44
4566 4571 0.1
4567 4568 0.1
4568 4570 0.09
4569 6752 0.32
4569 11115 0.62
4569 11121 0.38
4572 4573 0.31
4572 7074 0.45
4572 11040 1.38
4573 7290 0.5
4574 11198 0.37
4574 12559 0.38
4575 4588 0.91
4575 4609 0.36
4575 10004 0.51
4575 11231 0.52
4576 4577 0.1
4576 11693 1.03
4576 12928 2.9
4577 11696 1.06
4578 4586 0.22
4578 4606 0.32
4578 4629 0.41
4579 7420 0.49
4579 9836 1.32
4579 11821 1.0
4580 11690 0.62
4581 4582 1.27
4581 6487 0.63
4582 4583 0.55
4582 6488 0.56
4583 6489 0.75
4583 11691 0.46
4584 6490 0.42
4584 10027 0.07
4584 11691 1.73
4585 6490 0.5
4585 6754 0.51
4585 6759 0.34
4585 11204 1.0
4586 4589 0.28
4586 7882 0.36
4587 5780 0.5
4587 7050 0.5
4587 11204 0.5
4588 7422 0.6
4588 11202 0.16
4589 4606 0.27
4589 4615 0.41
4590 4591 0.55
4590 4594 0.62
4590 6488 1.5
4590 11203 1.51
4591 4595 0.49
4591 7012 0.6
4591 12631 1.01
4592 9814 0.78
4592 11202 0.39
4593 4594 1.5
4593 9817 0.82
4593 11203 0.45
4594 9817 1.71
4594 11201 0.53
4595 7053 0.73
4595 11201 0.26
4596 9814 0.97
4597 4598 0.72
4597 11197 0.26
4597 11200 0.93
4598 4599 0.14
4598 7542 0.37
4599 12555 0.22
4599 12596 0.35
4600 4617 1.59
4600 7414 1.25
4600 11692 1.0
4600 11694 1.0
4601 4602 0.77
4601 7527 0.4
4601 10084 0.05
4602 4603 0.5
4602 4619 0.96
4603 4604 0.97
4603 11820 0.5
4604 4605 1.13
4604 7426 0.55
4604 9836 1.11
4605 10080 0.45
4605 10081 0.33
4605 11821 1.6
4606 7878 0.6
4607 4608 0.83
4607 4625 1.0
4607 6491 0.86
4607 10004 1.03
4608 4624 2.03
4608 11690 0.11
4609 4610 0.37
4609 11231 0.64
4610 10007 0.41
4610 11202 0.68
4610 11808 0.79
4611 11196 0.65
4611 11799 0.39
4611 12593 0.57
4612 10361 0.15
4613 9149 0.08
4613 11196 0.5
4613 12651 0.63
4614 11225 0.8
4614 11799 0.61
4614 11809 0.91
4614 12593 0.36
4615 4645 0.17
4616 6404 0.52
4616 11786 0.6
4616 11800 0.34
4617 4867 1.0
4617 11692 1.96
4618 4619 0.99
4618 7527 0.71
4619 4622 1.0
4620 4628 1.13
4620 7527 2.0
4621 4866 1.25
4621 12881 0.4
4621 12882 0.47
4622 4623 1.0
4622 4630 0.5
4623 4630 1.16
4623 4633 1.0
4623 11820 2.1
4624 4636 1.04
4624 9829 0.56
4624 11743 1.13
4625 4637 1.0
4625 9829 0.54
4626 4639 0.99
4626 11231 0.51
4627 9151 0.23
4627 10123 0.5
4627 11228 0.87
4628 4642 0.88
4628 4864 1.87
4628 11745 1.05
4629 4663 0.17
4630 4632 0.42
4630 11745 1.05
4631 4632 1.01
4631 11745 0.2
4632 4633 1.0
4632 4643 1.0
4633 4634 0.88
4633 4644 1.0
4634 4635 0.12
4634 11743 1.0
4635 4636 1.01
4636 9828 0.52
4637 4638 0.52
4637 9828 0.55
4638 4639 1.0
4638 11230 1.0
4639 4646 1.01
4642 9818 0.5
4643 4644 1.01
4643 4656 1.02
4644 4660 1.01
4645 8051 0.64
4646 11230 1.01
4647 11227 0.55
4647 11804 0.77
4648 10076 0.82
4648 11224 0.2
4648 11793 1.18
4649 4650 1.64
4649 4651 1.01
4650 9818 0.5
4650 11746 1.0
4651 4652 1.0
4651 4654 1.0
4652 4653 0.21
4653 4655 0.75
4653 11744 0.85
4654 4657 1.0
4654 11744 0.64
4655 4656 0.5
4655 4659 1.01
4655 11744 0.35
4656 4660 1.01
4656 5156 1.0
4657 4658 0.16
4657 4661 0.34
4658 4659 0.85
4658 4661 0.36
4658 11744 1.14
4659 4660 0.5
4659 4667 1.0
4660 4668 1.0
4661 4662 0.87
4662 4674 1.25
4662 9827 0.84
4663 8056 0.64
4664 4665 0.06
4664 4666 0.06
4664 4668 0.94
4664 11742 0.58
4665 4666 0.06
4665 4669 0.51
4667 4668 0.51
4667 11742 0.62
4669 9823 1.0
4670 4671 0.51
4670 4675 1.0
4671 4672 0.21
4671 9831 0.34
4672 11229 0.93
4672 11230 1.25
4673 4675 0.13
4673 7541 0.43
4674 4675 0.7
4674 9826 0.72
4675 7541 0.52
4677 11223 0.5
4677 11792 0.41
4677 11793 0.67
4678 4679 1.0
4678 9830 0.5
4678 11728 0.99
4678 11826 1.01
4679 4680 1.0
4679 4683 0.99
4679 5457 0.5
4680 4874 1.0
4680 5458 0.53
4681 4790 0.03
4682 8125 0.04
4683 4684 1.65
4683 11725 1.11
4683 11728 1.0
4684 4875 0.58
4684 4876 0.37
4684 11729 0.63
4685 4686 1.06
4685 11723 0.35
4685 11827 0.75
4686 4692 0.72
4686 11728 0.81
4687 4714 0.07
4687 7529 0.16
4687 11723 1.46
4688 4690 0.85
4688 11725 0.18
4688 11729 1.25
4689 4698 0.83
4689 4792 0.15
4690 4877 1.0
4690 11726 0.5
4690 11729 0.54
4691 4698 0.12
4691 8043 0.14
4692 4693 0.3
4692 7529 0.31
4693 4695 0.26
4693 7530 0.33
4693 11724 0.2
4694 4696 0.27
4694 7957 6.68
4694 8046 0.14
4695 11724 0.12
4695 11725 0.57
4696 8043 0.38
4697 4700 0.51
4697 11724 0.5
4697 11725 0.39
4697 11726 1.0
4698 8046 0.42
4699 4702 1.0
4699 8902 0.42
4699 11766 0.5
4700 4701 1.0
4700 11719 0.75
4701 4881 1.0
4701 6620 0.05
4701 11726 0.5
4702 9052 0.63
4702 10936 0.26
4703 4783 0.49
4703 6647 0.25
4703 11716 0.44
4704 4705 0.1
4704 4720 1.13
4704 11722 0.56
4705 7381 0.55
4705 7384 0.92
4705 11723 0.63
4706 7548 0.14
4706 11135 0.25
4707 4708 0.16
4707 4711 0.62
4707 6645 0.38
4708 4710 0.32
4708 6643 0.13
4708 11717 0.38
4709 6643 0.15
4709 6646 0.12
4709 6861 0.71
4710 6646 0.09
4710 6647 0.14
4711 6859 0.16
4711 6860 0.17
4712 6856 0.14
4712 6860 0.17
4712 6863 0.17
4713 4715 0.32
4713 6861 0.18
4713 6863 0.16
4714 6862 0.05
4714 6863 0.06
4715 4716 0.08
4715 6622 1.57
4716 4717 0.12
4716 11724 0.65
4717 4718 0.1
4717 6858 0.14
4718 6621 1.57
4718 6860 0.46
4719 4720 0.5
4719 7376 0.37
4719 11716 0.35
4720 4721 0.43
4720 11717 0.15
4721 4722 0.08
4721 6855 0.1
4721 7536 0.42
4722 6856 0.09
4722 7380 0.07
4722 7536 0.39
4723 6857 0.13
4723 7380 0.07
4723 11718 0.24
4724 4732 0.25
4724 7379 0.18
4724 11718 0.25
4724 11719 0.59
4725 4726 0.1
4726 10353 0.09
4727 4728 0.51
4727 6476 0.25
4727 7366 0.3
4727 7374 0.13
4728 4729 0.12
4728 4735 0.2
4728 7378 0.18
4729 4746 0.18
4729 7378 0.25
4729 7534 0.23
4730 4731 0.07
4730 7534 0.22
4730 7536 0.25
4731 4736 0.2
4731 6684 0.24
4732 4733 0.63
4732 6684 0.09
4732 11712 0.28
4733 7346 0.26
4733 7347 0.26
4733 11719 0.24
4734 4737 0.09
4735 4741 0.24
4735 4746 0.17
4735 7366 0.5
4736 4745 0.25
4736 6685 0.27
4737 10358 0.08
4738 6686 0.13
4738 7345 0.55
4738 7349 0.55
4738 11712 0.26
4739 4743 0.18
4740 7356 0.5
4740 7358 0.71
4740 7359 0.47
4740 7361 0.2
4740 7364 0.42
4740 7431 0.42
4741 4742 0.12
4741 7363 0.29
4742 7362 0.18
4742 11711 0.22
4744 4745 0.08
4744 4748 0.37
4744 7532 0.16
4745 4748 0.41
4745 6686 0.28
4746 7533 0.21
4746 11711 0.32
4747 4748 0.18
4747 7354 0.5
4747 11705 0.34
4747 11711 0.38
4750 7338 0.12
4750 11708 1.0
4751 4754 0.33
4751 7335 0.47
4751 11706 0.69
4752 7335 0.24
4752 11707 0.68
4753 9337 0.11
4754 7330 0.52
4754 7334 0.4
4755 7325 0.44
4755 7330 1.1
4755 11699 0.5
4756 4888 1.0
4756 7324 0.25
4756 7333 1.0
4757 4759 0.87
4757 4889 0.95
4757 7323 0.46
4758 7322 0.35
4758 7327 0.45
4758 12928 0.25
4759 4890 0.36
4759 7321 0.16
4760 4761 0.35
4760 11696 1.3
4760 12928 0.62
4761 7320 0.4
4762 9335 0.11
4763 4765 0.19
4763 4766 0.27
4763 4767 1.18
4764 4765 0.24
4764 4766 0.18
4764 4768 1.36
4765 4766 0.18
4765 11829 0.42
4766 4791 0.9
4767 4771 1.25
4767 4784 0.57
4768 4769 0.45
4768 4772 1.5
4769 4784 0.4
4769 11829 0.65
4770 4771 0.26
4770 4772 0.2
4770 4774 4.8
4770 6667 4.56
4771 4773 0.21
4771 5420 2.4
4772 4773 0.18
4772 5419 1.77
4773 4775 4.3
4773 6668 4.56
4774 4776 0.16
4774 4777 0.16
4774 6646 1.15
4775 4776 0.16
4775 4777 0.16
4775 6645 1.35
4776 4777 0.25
4776 4786 0.15
4777 11721 0.14
4778 4779 1.1
4778 5418 0.47
4778 5426 1.62
4778 11832 0.66
4779 4780 0.86
4780 4781 0.67
4780 11832 1.64
4781 7384 2.19
4781 11753 0.71
4783 7372 0.84
4783 7381 0.13
4783 11721 0.51
4784 4802 1.0
4784 9812 0.52
4785 4790 0.09
4786 7385 0.25
4786 7386 0.46
4786 11709 0.51
4787 4788 0.47
4787 4789 0.67
4787 5547 1.02
4787 11828 0.53
4788 4789 0.46
4788 4804 0.52
4789 11750 1.5
4791 11751 0.47
4791 11831 0.5
4793 7396 0.16
4793 7402 0.24
4793 11715 0.5
4794 4795 0.08
4796 4797 0.49
4796 4799 1.01
4796 6704 0.51
4797 4798 1.4
4797 4801 1.64
4798 9851 1.41
4798 11752 1.51
4799 4800 0.5
4800 4801 0.89
4800 4803 0.51
4801 11752 1.0
4802 11752 0.97
4803 5549 1.0
4803 11828 0.5
4804 4805 0.49
4805 4806 1.88
4805 4811 0.52
4806 4814 1.0
4806 11750 1.01
4806 11830 0.99
4807 4808 1.5
4807 4816 1.0
4807 11830 0.5
4808 7407 0.5
4808 7408 0.6
4808 7411 0.5
4809 10936 0.31
4809 10945 0.84
4809 10946 0.86
4810 7359 0.31
4810 7360 0.56
4810 7389 0.43
4810 11703 0.48
4811 4812 0.5
4811 5524 1.01
4812 4813 1.43
4812 4824 1.01
4813 4814 0.51
4813 11748 1.0
4814 4815 1.0
4815 4816 0.49
4815 4826 1.01
4815 11830 0.99
4816 4827 1.0
4817 4818 1.04
4817 4829 1.02
4817 7411 0.5
4818 4819 0.8
4818 4830 0.99
4818 7412 0.68
4819 4845 0.23
4819 7394 0.5
4819 11704 0.25
4820 8048 0.35
4820 8963 0.11
4820 8977 0.76
4821 7353 0.19
4821 7356 0.5
4821 7357 0.49
4822 4823 0.27
4822 7353 0.25
4822 7355 0.56
4823 7351 0.48
4823 7354 0.62
4824 4835 1.03
4824 5508 1.01
4824 11748 1.43
4825 4831 0.67
4825 4832 0.45
4825 10945 0.05
4826 4827 0.52
4826 4833 0.6
4826 11748 1.5
4827 4828 0.09
4828 4829 1.46
4828 4834 0.59
4829 4830 1.0
4829 4844 0.98
4830 4844 1.46
4830 4845 1.11
4830 4846 1.01
4830 11700 1.06
4831 4832 0.5
4831 5859 0.52
4832 4843 0.5
4832 6588 0.5
4833 4834 0.54
4833 4840 0.88
4834 11749 1.18
4835 4836 0.97
4835 4837 1.25
4836 4837 0.85
4836 4853 0.99
4837 4838 0.5
4837 4855 1.4
4838 4839 0.55
4838 11748 2.0
4839 4840 1.43
4839 4841 1.0
4839 9822 0.83
4840 4841 0.49
4841 9821 0.5
4842 9821 0.3
4843 7018 0.5
4843 10951 0.24
4844 4846 1.03
4844 4849 1.0
4845 7531 0.5
4845 11704 0.33
4846 4847 1.09
4846 4850 1.01
4847 4848 2.12
4847 11697 1.0
4847 11700 1.0
4848 11701 1.1
4848 12927 0.91
4849 4850 0.98
4849 4859 1.1
4850 11697 1.08
4851 4930 0.25
4851 7617 0.22
4851 8262 0.26
4851 9054 0.49
4852 4868 0.21
4852 9025 0.22
4852 9034 0.98
4852 9901 0.22
4853 4854 0.88
4854 4855 0.87
4854 4865 1.0
4855 4856 0.32
4856 9820 0.33
4856 11746 1.1
4857 9820 0.13
4857 9822 0.62
4857 11747 0.46
4858 4859 0.34
4858 4866 2.15
4858 6483 1.28
4859 4860 0.34
4859 4867 1.53
4860 4861 1.63
4860 4867 1.01
4861 4862 1.51
4861 11694 1.0
4861 11697 1.0
4862 4863 0.99
4862 11698 1.0
4863 4869 1.01
4863 12927 1.19
4864 11747 0.12
4865 11746 1.01
4866 11747 1.3
4867 11694 1.58
4868 5147 0.18
4868 9026 0.18
4868 11308 0.1
4869 7413 0.66
4869 11694 2.26
4870 7635 0.15
4870 11306 0.6
4870 12490 0.14
4871 4872 0.2
4871 8034 0.15
4871 10051 0.06
4872 10056 0.06
4872 11331 0.15
4873 9812 0.52
4873 11750 1.0
4873 11752 1.0
4873 11828 1.89
4874 4875 0.49
4874 4907 0.32
4874 5220 0.5
4875 4876 0.51
4875 4907 0.6
4876 4877 1.0
4876 11679 1.0
4877 4878 0.5
4877 4940 1.0
4878 4879 0.1
4878 4880 0.06
4879 4880 0.08
4879 4881 0.41
4880 11726 0.9
4881 4882 0.88
4881 11676 1.0
4882 4883 0.45
4882 8868 0.99
4882 11720 1.0
4883 8868 1.08
4883 11714 0.71
4884 4885 0.48
4884 4974 1.02
4884 7340 1.14
4885 4886 0.5
4885 11708 1.0
4886 4887 0.51
4886 4986 0.99
4886 11702 1.0
4887 4888 1.01
4887 7333 0.99
4887 11670 0.99
4888 4889 0.5
4888 5000 0.99
4889 4890 0.5
4889 11667 1.0
4890 4891 1.0
4891 5008 1.0
4891 7320 0.4
4892 11696 0.99
4892 12883 0.3
4893 4894 0.16
4893 4895 0.24
4893 8868 0.75
4894 4896 0.26
4894 7314 0.96
4895 4897 5.36
4895 6621 2.81
4896 4898 5.36
4896 6622 2.9
4897 6470 2.67
4898 6469 2.67
4899 4901 0.5
4899 4902 0.5
4899 5041 2.8
4899 6470 3.18
4900 4901 0.45
4900 4902 0.48
4900 5042 2.8
4900 6469 3.18
4901 4902 0.72
4903 4905 0.21
4903 11288 0.8
4904 4939 1.28
4905 11337 0.78
4906 4926 1.04
4906 4966 0.35
4906 11651 1.17
4907 4908 1.67
4907 5222 1.21
4908 4909 1.0
4908 4929 1.0
4908 5223 1.0
4909 4910 1.01
4909 5224 1.0
4909 11680 1.0
4910 4911 0.25
4910 5225 1.01
4911 4912 0.75
4911 4931 1.0
4912 4913 1.01
4912 5226 1.0
4912 11681 1.0
4913 4914 0.47
4913 4933 0.97
4913 5227 1.01
4914 4915 0.51
4914 11653 0.97
4915 4916 0.23
4915 4935 0.98
4916 4917 0.79
4916 4936 1.25
4916 5229 1.05
4917 4918 0.08
4917 4937 0.99
4918 4919 0.88
4918 5230 0.55
4919 4920 0.17
4919 4921 0.11
4919 4938 1.0
4920 4921 0.15
4920 5232 0.42
4921 4922 0.88
4922 4923 0.16
4922 7304 1.0
4923 4924 0.85
4923 5234 1.01
4924 4925 0.16
4924 7305 1.0
4925 5235 0.99
4926 4927 0.5
4926 4969 1.53
4927 4939 0.35
4927 11652 1.02
4928 11017 1.05
4928 12167 0.24
4929 4941 1.0
4929 11679 1.0
4929 11680 1.01
4930 7581 0.51
4930 8897 0.32
4930 10951 0.41
4931 4943 1.0
4931 11680 1.31
4931 11681 0.76
4932 8922 1.27
4932 11004 0.25
4932 11027 1.65
4933 11653 0.47
4933 11681 1.0
4934 11020 0.42
4935 4936 0.74
4935 11650 1.35
4935 11653 0.5
4936 4937 0.35
4936 4945 0.59
4937 4938 1.0
4937 4944 0.46
4938 4946 0.51
4938 7304 1.0
4939 11649 1.66
4940 4941 1.01
4940 11676 1.0
4940 11679 1.0
4941 7316 0.3
4942 4943 1.28
4942 7316 0.7
4942 9841 0.53
4942 11680 1.0
4943 9842 0.5
4943 9843 0.76
4944 4945 0.04
4944 4946 1.05
4946 11654 0.27
4947 4949 0.27
4947 9148 0.16
4948 4960 1.01
4948 7304 0.51
4948 11654 1.05
4948 11655 1.05
4949 8918 0.4
4950 4964 0.52
4950 4978 0.63
4950 11675 1.31
4951 4954 0.26
4952 4953 0.5
4952 9847 1.11
4952 11647 0.2
4952 11650 1.7
4953 4966 1.79
4953 4967 0.58
4954 11026 0.28
4955 9845 0.19
4955 11677 0.25
4956 4957 0.14
4956 4965 1.48
4956 9845 0.68
4957 9842 0.5
4957 11678 0.75
4958 9679 0.83
4958 11781 0.08
4959 11650 0.55
4959 11653 1.46
4959 11678 1.56
4960 11651 1.14
4960 11652 0.54
4961 4963 1.01
4961 9006 0.78
4961 10989 0.24
4962 4975 1.19
4962 7312 0.63
4962 11673 0.99
4963 9042 0.16
4963 10990 0.98
4964 4965 0.28
4964 7309 1.0
4965 7308 0.4
4966 11648 1.0
4967 7307 0.61
4967 11647 0.58
4968 4972 0.51
4968 7307 0.51
4968 11648 0.99
4969 11648 1.01
4969 11649 1.0
4970 5004 0.25
4970 5005 0.16
4970 8702 0.25
4970 10545 0.65
4971 8481 1.0
4971 8483 0.04
4971 8485 1.11
4971 10537 0.95
4972 4980 1.02
4973 6468 0.38
4973 6469 0.25
4973 6470 0.32
4973 11648 0.62
4974 4975 1.0
4974 4986 1.0
4974 11673 1.34
4975 4976 0.98
4976 4977 0.48
4976 4992 1.0
4976 11674 1.4
4977 4978 0.75
4977 4993 1.26
4978 4979 0.62
4979 4985 0.2
4979 9846 1.14
4980 4981 0.5
4980 7306 0.5
4980 9846 1.06
4981 4982 0.5
4982 4983 0.51
4984 6468 0.21
4985 4995 1.4
4986 11670 0.5
4987 4989 0.4
4987 8483 0.36
4987 10544 0.51
4988 5001 1.0
4988 11670 1.5
4988 11671 0.5
4989 5127 0.6
4989 10544 0.25
4990 4991 0.62
4990 4993 0.32
4990 11671 0.5
4991 4993 0.7
4992 4993 0.53
4992 11671 0.49
4994 4997 0.81
4994 8486 0.12
4994 10539 0.51
4994 10545 0.06
4995 6471 1.5
4995 11672 0.28
4996 5003 0.32
4996 11672 0.73
4997 5007 0.5
4997 5014 1.01
4997 12218 0.5
4998 4999 1.25
4998 10934 0.25
5000 5001 1.49
5000 11667 0.5
5000 11670 1.0
5001 5002 1.51
5001 11668 0.5
5002 5003 1.28
5002 12930 1.01
5003 11669 1.0
5004 7963 0.59
5004 8702 0.2
5004 12327 1.52
5005 7962 1.1
5005 8702 0.22
5005 12328 1.52
5006 5009 1.0
5006 11668 0.5
5006 12930 1.5
5007 8702 0.04
5007 8710 0.7
5007 10546 1.0
5008 5009 1.53
5008 6472 0.5
5009 5010 0.25
5010 5012 0.5
5010 12931 1.29
5011 10930 0.74
5011 12936 0.25
5012 9840 1.23
5012 11665 0.5
5013 5017 0.5
5013 7318 0.98
5013 11665 0.26
5014 5016 0.54
5014 10546 0.52
5014 12334 0.45
5015 5017 0.73
5015 11665 0.28
5015 12886 0.96
5016 5018 0.35
5016 5019 0.3
5016 10541 0.52
5017 7319 1.0
5018 5019 0.24
5018 12110 0.13
5018 12336 0.5
5019 5020 0.19
5019 10547 0.29
5020 5021 0.17
5020 12125 0.12
5021 5023 0.17
5021 5279 0.53
5021 10547 0.19
5022 10739 0.26
5022 10745 1.01
5023 5036 0.4
5023 10548 0.53
5023 12125 0.15
5024 10740 0.5
5025 10740 1.53
5026 5027 1.1
5027 10495 0.65
5028 5617 0.86
5029 5030 0.37
5029 10492 0.99
5030 5031 0.67
5030 10490 0.28
5031 5032 0.25
5031 5034 0.25
5031 5035 0.76
5032 10810 0.25
5033 5036 0.5
5033 5039 0.5
5033 10542 0.5
5033 12110 0.5
5034 10490 0.61
5034 10810 0.25
5036 10328 0.51
5036 10548 0.33
5037 5038 0.32
5037 10479 1.23
5038 10480 1.18
5039 5073 0.67
5039 10328 0.5
5039 12339 0.5
5040 10317 0.21
5040 11869 0.18
5041 5043 0.35
5041 5044 0.38
5041 5045 2.92
5042 5043 0.15
5042 5044 0.49
5042 5046 2.92
5043 6694 2.62
5043 10086 1.6
5044 6693 2.68
5044 10089 1.6
5045 5048 0.31
5045 5049 0.74
5046 5047 0.25
5046 5050 0.74
5047 5048 0.2
5048 10710 0.13
5049 5051 0.43
5049 5053 0.41
5050 5052 0.65
5050 5055 0.41
5051 5057 0.95
5052 5058 0.95
5053 5054 0.04
5054 5058 0.24
5055 5056 0.04
5056 5057 0.24
5059 5060 0.04
5059 5063 0.04
5061 5062 0.04
5065 5066 0.31
5065 5070 0.16
5066 11127 0.39
5066 12604 0.14
5067 6699 0.17
5067 6752 0.06
5067 12560 0.44
5068 5069 0.13
5068 5070 0.15
5068 11122 0.16
5068 12604 0.15
5069 7297 0.2
5070 7299 0.08
5071 7551 0.78
5071 11133 0.25
5072 10468 0.56
5073 5074 0.32
5073 5075 0.63
5073 10326 0.53
5074 5079 0.52
5074 9626 0.42
5074 12342 0.51
5075 5076 0.14
5075 9626 0.11
5075 10328 0.9
5076 9626 0.15
5076 9627 0.55
5077 10701 0.51
5077 10707 0.5
5077 10708 0.48
5077 12948 0.52
5078 9654 1.1
5078 10700 0.53
5078 10701 0.5
5078 12948 0.48
5079 5080 0.24
5079 10327 0.52
5079 10329 0.86
5080 5380 0.87
5081 10701 0.51
5081 10702 0.2
5082 5083 0.17
5082 7923 0.4
5082 8482 0.8
5082 10809 0.94
5083 7917 0.14
5083 7923 0.31
5083 8515 0.06
5083 12319 0.5
5084 5086 0.43
5084 7931 0.3
5084 8515 0.06
5085 5121 0.23
5085 10018 0.1
5086 5102 1.0
5086 8517 0.43
5086 8941 0.71
5087 5092 0.63
5087 12956 0.39
5088 5089 0.25
5088 10458 0.51
5088 12959 0.51
5089 5090 0.51
5089 5107 0.49
5090 10459 0.1
5090 12967 0.25
5091 8898 0.35
5091 9348 0.87
5091 10941 0.15
5092 5093 0.25
5092 10452 0.4
5093 5094 0.4
5093 5098 0.38
5094 5095 0.09
5094 12961 0.44
5095 5096 0.26
5095 10453 0.38
5096 5097 0.11
5096 12965 0.08
5097 12964 0.25
5097 12965 0.12
5098 10452 0.26
5098 12961 0.24
5099 6683 0.11
5099 7923 0.7
5099 8619 0.09
5099 10543 0.2
5100 10453 0.18
5100 12962 0.57
5100 12963 0.2
5101 10466 0.64
5101 12969 0.51
5102 5493 0.52
5102 8621 0.05
5102 8625 0.06
5103 10461 0.5
5103 10466 0.38
5104 5106 0.22
5104 5118 0.28
5104 10543 0.34
5105 10462 0.51
5105 10467 0.49
5105 10468 0.7
5106 5115 0.19
5106 5118 0.15
5106 10544 0.25
5107 12959 0.25
5107 12960 0.4
5108 10462 0.48
5108 10468 0.63
5110 10463 0.51
5111 5117 0.32
5111 10313 0.26
5112 5113 0.09
5112 12966 0.1
5112 12969 0.67
5113 5114 0.93
5113 10460 0.33
5113 12966 0.2
5114 10461 0.6
5115 5151 0.32
5115 5162 0.56
5115 10544 0.33
5116 10457 0.05
5116 10463 0.49
5117 5124 1.07
5117 10311 0.25
5117 11866 0.13
5118 5157 0.54
5119 5120 0.18
5119 8625 0.4
5119 8629 0.25
5119 10550 0.12
5120 5500 0.32
5120 5505 0.59
5120 8625 0.43
5122 5123 0.28
5122 10457 0.86
5125 5126 0.05
5125 10309 0.3
5126 11865 0.26
5127 5151 0.13
5127 5153 0.22
5127 10545 0.83
5128 12161 0.17
5128 12855 0.12
5131 6812 0.04
5132 6811 0.04
5133 5135 3.31
5133 6812 2.41
5134 5136 3.31
5134 6811 2.41
5135 5137 3.27
5136 5138 3.27
5137 9162 6.37
5138 9161 6.37
5139 5155 3.25
5140 5154 3.25
5141 7762 0.23
5141 7771 0.17
5141 12204 0.19
5141 12205 0.16
5142 6816 0.31
5142 6818 0.14
5142 12929 0.44
5142 12938 0.34
5143 5144 0.04
5143 6816 1.25
5144 12873 0.71
5145 5146 0.04
5145 12868 0.71
5146 12949 1.25
5147 9026 0.23
5147 12495 0.71
5148 9616 0.18
5148 10322 0.26
5148 12229 0.16
5149 7592 0.2
5149 10799 0.32
5150 8230 1.41
5150 11387 0.63
5151 5153 0.2
5151 5162 0.44
5152 5467 0.74
5152 5780 0.87
5153 10551 0.87
5154 10064 1.54
5155 10063 1.54
5156 9824 0.5
5157 8630 0.06
5157 8639 0.05
5158 5159 0.18
5158 5160 0.2
5158 10612 0.23
5159 8221 1.09
5159 8225 1.09
5160 5161 0.18
5160 10617 0.57
5161 8217 1.09
5161 8229 1.09
5162 8639 0.03
5162 8640 0.07
5163 5165 1.03
5163 10436 0.1
5163 10443 0.41
5164 10430 0.5
5164 12866 0.77
5164 12867 0.25
5165 5167 0.5
5165 12867 0.12
5166 8357 0.5
5166 8818 0.07
5166 8827 0.05
5166 10341 0.5
5167 5168 0.51
5167 12786 0.11
5167 12787 0.39
5168 6722 0.5
5168 12788 0.1
5168 12789 0.41
5169 5170 0.51
5169 10430 0.52
5169 12782 0.76
5169 12788 0.25
5170 5171 0.52
5170 10424 0.78
5170 12791 0.25
5171 5217 0.64
5171 10418 0.44
5171 12712 0.25
5172 5175 0.15
5172 5179 1.0
5172 10097 3.06
5173 5174 0.26
5173 5175 0.05
5173 12860 0.73
5174 5181 1.0
5174 10094 3.06
5175 12861 0.05
5176 5177 0.25
5176 12861 0.25
5177 5178 0.1
5177 5180 0.37
5177 10435 1.0
5178 5182 0.51
5179 5180 0.22
5179 5185 0.4
5180 12865 0.13
5181 5182 0.28
5181 5187 0.4
5182 5186 0.31
5182 12864 0.49
5182 12865 0.04
5183 5192 0.16
5183 5193 0.1
5183 5195 0.16
5183 12776 0.15
5184 5185 0.22
5184 12783 0.36
5184 12865 0.13
5185 5189 0.14
5186 5187 0.11
5186 5188 0.2
5187 5191 0.14
5188 5192 0.16
5188 10428 0.23
5188 12783 0.07
5189 5190 0.25
5189 5196 0.78
5190 5193 0.16
5190 12783 0.17
5191 5192 0.2
5191 5197 0.78
5193 5194 0.21
5194 5195 0.06
5194 5196 0.29
5194 12781 0.42
5195 5197 0.29
5195 12227 0.11
5196 5200 1.77
5197 5202 1.77
5198 12225 0.49
5198 12696 0.16
5198 12697 0.03
5199 12225 0.07
5199 12697 0.49
5199 12700 0.4
5200 5201 0.12
5201 12225 0.43
5201 12700 0.11
5201 12703 0.44
5202 12700 0.15
5203 5204 0.12
5203 5205 0.15
5203 7751 0.5
5203 7753 0.12
5203 10401 0.51
5204 5206 0.15
5204 6730 0.22
5204 7768 0.12
5204 9040 0.5
5205 8163 0.29
5205 8169 0.52
5206 8166 0.29
5206 8171 0.52
5207 6743 0.06
5207 7743 0.2
5207 9040 0.2
5208 5209 0.5
5208 6747 0.25
5208 7647 0.06
5208 10389 0.24
5209 5210 0.52
5209 7646 0.06
5209 7649 0.25
5210 5211 0.5
5210 7601 0.06
5210 10384 0.25
5211 7600 0.06
5211 7602 0.25
5212 7700 0.32
5212 7701 0.31
5212 7702 0.06
5213 7705 0.25
5213 7706 0.14
5213 7707 0.15
5214 7660 0.2
5214 7661 0.13
5214 7662 0.14
5216 5217 0.14
5217 5218 0.39
5219 10416 0.5
5219 12693 0.56
5219 12696 0.5
5219 12699 0.33
5220 5221 0.5
5220 5458 0.99
5221 5222 1.0
5221 5237 1.0
5222 5223 1.0
5222 5238 1.0
5223 5224 1.02
5223 5239 1.0
5224 5225 1.01
5224 5240 1.01
5225 5226 1.0
5225 5241 1.0
5226 5227 1.0
5226 11683 1.0
5227 5228 0.17
5228 5229 1.02
5228 5244 1.0
5229 5245 1.0
5229 11656 1.0
5230 5232 1.02
5230 11656 0.5
5231 5242 0.16
5231 8710 0.37
5231 8713 0.08
5231 10551 0.19
5232 5233 0.5
5233 5234 1.0
5233 5247 1.01
5233 11656 1.0
5234 5235 1.02
5234 5248 1.0
5235 5236 1.01
5235 5249 1.0
5236 5250 1.0
5236 10741 0.97
5236 11639 1.01
5237 5251 0.51
5237 5463 1.0
5238 5239 1.02
5238 5252 0.5
5238 11682 0.58
5239 5240 1.05
5239 5257 1.0
5240 5241 1.0
5241 5259 1.02
5241 11683 1.01
5242 5529 0.31
5242 8716 0.12
5242 10551 0.26
5243 5244 1.01
5243 5262 1.0
5243 11683 0.1
5244 5245 1.01
5244 5264 1.0
5245 5246 0.98
5246 5247 1.0
5246 5265 1.0
5246 11656 1.0
5247 5248 1.0
5247 11657 1.0
5248 5249 1.0
5248 5267 1.0
5249 5250 1.01
5249 5268 1.0
5250 5269 1.03
5250 5629 1.03
5251 5252 1.0
5251 5254 0.75
5251 5466 1.0
5252 5255 0.75
5252 11682 0.3
5253 5256 0.51
5253 5266 0.75
5253 10546 0.5
5254 5255 1.01
5254 5270 0.25
5255 5272 0.75
5255 7303 1.21
5256 5548 0.51
5256 8714 0.87
5256 10553 0.77
5257 5258 0.57
5257 11684 0.28
5258 5273 0.5
5258 7303 0.13
5259 5260 0.11
5260 5261 0.5
5260 5262 1.0
5261 5263 1.0
5261 5276 0.52
5262 5263 0.55
5262 5264 1.0
5263 5277 0.52
5264 5278 1.01
5265 5280 1.0
5265 11657 1.02
5266 5279 0.25
5266 10547 0.5
5266 10553 0.48
5267 5268 1.01
5267 11657 1.0
5267 11659 1.01
5268 5269 1.01
5268 5283 1.0
5269 9849 1.0
5269 11815 1.02
5270 5271 0.5
5270 5472 1.0
5271 5272 1.01
5271 5284 1.01
5272 5273 1.19
5272 5285 1.01
5273 5274 0.81
5273 5287 0.83
5274 5275 0.1
5275 5276 1.0
5275 5289 1.0
5276 5277 1.0
5276 11685 1.0
5277 5278 1.01
5277 5292 1.0
5278 5294 1.0
5278 11658 1.02
5279 5282 0.51
5280 5281 1.0
5280 5296 1.0
5280 11658 1.01
5281 5297 1.01
5281 11657 1.0
5281 11659 1.01
5282 5569 0.52
5282 10553 0.25
5282 10554 0.51
5283 5299 1.0
5283 9849 1.02
5283 11659 1.01
5284 5285 1.01
5284 5495 1.0
5285 5286 1.09
5285 5301 1.0
5286 5287 0.5
5286 5303 1.05
5287 5288 0.25
5288 5289 0.54
5288 5290 0.96
5289 5290 0.81
5289 11685 1.01
5290 5304 0.2
5291 5334 0.55
5291 5336 0.3
5291 10548 0.26
5292 5293 0.27
5292 11685 1.0
5293 5294 0.76
5293 5312 1.0
5294 5295 1.02
5294 5313 1.0
5295 5296 1.01
5295 5314 1.01
5295 11658 0.99
5296 5297 1.0
5296 5315 1.0
5297 5298 1.01
5297 5316 1.0
5298 5299 1.01
5298 5317 1.01
5298 11659 1.0
5299 5300 1.0
5299 5318 1.01
5300 5319 1.0
5300 5664 1.03
5300 9849 1.0
5301 5302 0.08
5302 5303 1.0
5302 5321 1.03
5303 5304 1.0
5303 5322 1.03
5304 5305 0.65
5304 5309 0.83
5305 5306 0.85
5305 5323 0.4
5306 5307 0.08
5306 5309 0.63
5307 5308 0.5
5308 5311 0.7
5308 5324 0.37
5309 5310 0.15
5310 5311 0.36
5310 11685 1.0
5311 5312 0.92
5312 5313 0.75
5313 5314 1.0
5313 5325 1.01
5314 5315 1.0
5314 5326 1.01
5315 5316 1.0
5315 5327 0.99
5316 5317 1.01
5316 5328 1.01
5317 5318 1.01
5317 5329 1.0
5318 5319 1.0
5318 5330 1.0
5319 5330 1.67
5319 5679 0.97
5320 5321 1.0
5320 5332 1.03
5321 5322 1.0
5321 5333 1.01
5322 5323 1.0
5322 11686 1.01
5323 5335 0.94
5324 5325 1.66
5324 5339 0.98
5325 5326 1.01
5325 5340 1.0
5326 5327 1.0
5326 11660 1.0
5327 5328 0.98
5327 5341 1.0
5328 5329 1.0
5328 5342 1.0
5329 5330 1.0
5329 11661 1.01
5330 9850 1.22
5331 5347 1.0
5331 5697 0.78
5332 5333 0.99
5332 5348 1.0
5333 5349 1.02
5333 11686 1.0
5334 5343 0.19
5334 8758 0.5
5334 10554 0.34
5335 5337 0.1
5335 11687 0.1
5336 5343 0.5
5336 10328 0.5
5337 5339 1.4
5337 11687 0.1
5338 5481 1.32
5338 11953 1.67
5339 5340 1.56
5339 5352 1.0
5340 5353 1.01
5340 11660 1.0
5341 5342 1.0
5341 11660 1.0
5342 5355 1.0
5342 11661 1.01
5343 8758 0.45
5343 10330 0.51
5344 5345 0.1
5344 5346 0.15
5344 9850 0.36
5345 5346 0.1
5345 5347 1.0
5346 5358 0.81
5347 5363 0.82
5347 5710 0.37
5348 5349 1.01
5348 5366 1.0
5348 5554 2.05
5349 5350 0.99
5349 5367 1.0
5350 5351 1.01
5350 11686 1.01
5350 11688 1.01
5351 5352 1.53
5351 5369 1.02
5351 11687 1.0
5352 5353 1.5
5352 11689 1.07
5353 5354 1.0
5353 11662 1.0
5354 5355 2.0
5354 5372 1.02
5354 11660 1.0
5355 5356 1.0
5355 5374 1.0
5356 5357 0.52
5356 11661 1.0
5357 5361 0.94
5357 5375 0.54
5358 5359 0.1
5358 5360 0.12
5359 5360 0.1
5359 5361 0.62
5360 6500 0.71
5361 5376 0.47
5361 11663 0.56
5362 5368 0.52
5362 8976 0.5
5363 5710 0.9
5364 5365 0.19
5364 6501 0.25
5364 11663 0.44
5365 5378 0.44
5365 5379 0.38
5366 5367 1.0
5366 5381 1.01
5366 5567 1.0
5367 5382 1.0
5367 11688 0.99
5368 5624 0.51
5368 10330 0.5
5368 10331 0.08
5369 5384 1.0
5369 11688 1.01
5369 11689 1.89
5370 5371 0.5
5370 5409 0.25
5370 9627 0.15
5370 10329 0.15
5371 5441 0.25
5371 5638 0.51
5371 10331 0.45
5372 5373 1.0
5372 5387 0.98
5372 11662 1.01
5373 5374 1.03
5373 5388 1.0
5374 5375 0.97
5374 5389 1.0
5375 6679 0.12
5375 7528 1.05
5376 5377 0.5
5376 5390 1.0
5376 6680 0.7
5377 5378 0.18
5377 11663 0.62
5378 5379 0.32
5378 5391 1.16
5379 5392 1.0
5380 5409 0.1
5380 5429 0.47
5380 5434 0.47
5380 10329 0.26
5381 5382 1.04
5381 5393 0.5
5381 5586 1.0
5382 5383 1.0
5382 5395 1.01
5383 5384 1.0
5383 5396 1.0
5383 11688 1.0
5384 5385 1.99
5384 5397 1.0
5385 5386 1.0
5385 5398 1.01
5385 11689 1.02
5386 5387 1.01
5386 5399 1.0
5386 11662 1.0
5387 5388 1.0
5388 5389 1.0
5388 5400 1.01
5389 5401 1.0
5389 7528 0.94
5390 5391 0.11
5390 7528 1.05
5391 5392 0.9
5391 5405 0.36
5392 5404 1.0
5392 11645 0.99
5393 5394 0.51
5393 5605 1.01
5394 5608 0.88
5394 6498 0.11
5395 5396 0.99
5395 6498 0.87
5396 6803 0.13
5397 5398 2.06
5397 6803 0.87
5398 5399 1.0
5400 5401 1.0
5401 5402 1.71
5402 5403 0.29
5402 5405 0.76
5402 11942 3.0
5403 5404 1.0
5403 5405 0.7
5404 5766 0.16
5406 5407 2.01
5406 5408 2.1
5406 9533 0.5
5407 5412 0.4
5407 9544 1.0
5408 5410 0.24
5408 9851 3.0
5408 11754 0.17
5409 5441 0.5
5409 8783 0.07
5410 5411 0.35
5410 5414 0.74
5410 11754 0.34
5411 5416 1.88
5411 5421 1.15
5412 5413 0.1
5412 11754 1.12
5413 5414 0.99
5413 6702 1.7
5414 5415 1.72
5415 5421 0.68
5416 5417 0.03
5416 5421 1.58
5416 9851 0.54
5417 5418 0.13
5417 5419 0.2
5417 5420 0.21
5418 5419 0.21
5418 5420 0.2
5419 5423 1.57
5420 5424 1.48
5421 5422 0.03
5422 5423 0.26
5422 5424 0.23
5422 5425 0.1
5423 5425 0.24
5423 5432 1.47
5424 5425 0.31
5424 5433 1.18
5425 5426 0.05
5427 5430 0.94
5427 11955 1.51
5428 5431 0.29
5428 5433 0.17
5428 11756 2.81
5429 5443 0.52
5429 8783 0.16
5430 5439 1.51
5430 5487 1.51
5431 5432 0.3
5431 7430 2.94
5431 11755 1.42
5432 5536 4.29
5433 5535 4.28
5434 5465 0.52
5434 8783 0.16
5435 5442 2.18
5435 5489 2.0
5435 11755 1.0
5436 5437 0.75
5436 5440 1.85
5436 11755 1.55
5437 5438 1.75
5437 5447 1.53
5438 5440 1.01
5438 5444 0.5
5438 11727 1.0
5439 9388 1.5
5439 11954 1.29
5440 11730 0.5
5441 5641 0.5
5441 8984 0.06
5442 5446 0.5
5442 5468 1.05
5442 11730 0.5
5443 5658 0.53
5443 8782 0.16
5444 5445 0.51
5444 11730 1.0
5445 5449 0.5
5445 9825 0.51
5446 5448 1.0
5446 5453 0.5
5447 11727 1.54
5448 5449 1.0
5448 5452 0.5
5449 5450 0.51
5450 5451 0.5
5450 9830 0.51
5451 5452 0.5
5451 5461 1.0
5452 5454 0.39
5453 5455 0.52
5453 5469 1.0
5454 5455 0.12
5455 5456 0.04
5455 5484 2.4
5456 5470 0.99
5456 11731 0.98
5457 5458 1.0
5457 5461 1.01
5458 5462 1.0
5459 5591 0.32
5459 5592 0.15
5459 5594 0.08
5460 5464 0.08
5460 8186 0.15
5460 8188 0.04
5461 5462 1.0
5461 11731 1.04
5462 5463 0.5
5463 5466 0.5
5464 8189 0.13
5464 8190 0.04
5465 5661 0.53
5465 8782 0.16
5466 5472 1.0
5466 11731 1.0
5467 5473 0.3
5467 11133 0.36
5468 5469 1.06
5468 5482 1.14
5468 11732 0.75
5469 5476 0.66
5470 5471 1.0
5470 5477 0.5
5471 5472 1.0
5471 5494 1.52
5471 11731 1.0
5472 5495 1.51
5473 5512 0.5
5473 5858 0.39
5474 7663 0.11
5474 7664 0.1
5474 10391 0.12
5475 5496 0.72
5475 6033 0.4
5476 5477 0.75
5476 5485 0.4
5477 11733 1.03
5478 6656 0.99
5479 5499 0.26
5479 11965 2.21
5479 11968 1.87
5480 5483 0.43
5480 8517 0.06
5480 8942 0.74
5481 5502 1.0
5481 9376 1.0
5481 11955 1.56
5482 5490 0.83
5482 11732 0.7
5483 5488 0.48
5483 8520 0.06
5484 5485 0.41
5484 5491 1.0
5484 11732 0.36
5485 5492 0.76
5486 5488 0.5
5486 5493 0.52
5486 8517 0.48
5487 5504 1.0
5487 9388 1.5
5487 11955 1.25
5488 10555 0.18
5489 5490 0.83
5489 11757 0.7
5490 5491 0.68
5491 5492 1.03
5491 5507 1.18
5492 11733 1.0
5493 5498 0.62
5493 5500 0.48
5494 5495 1.0
5494 11733 1.01
5496 5625 0.46
5496 11627 1.3
5497 5538 1.07
5497 9809 2.19
5498 5746 0.51
5498 10555 0.37
5498 10556 0.51
5499 5501 1.48
5499 11967 1.09
5501 9369 0.3
5501 11967 1.3
5501 11969 1.0
5502 5503 1.58
5502 9378 1.0
5503 5504 0.99
5503 11955 1.0
5504 9390 1.08
5504 11956 1.5
5505 5506 0.18
5505 8633 0.19
5505 8641 0.34
5506 5513 0.5
5506 5517 0.34
5507 5515 1.01
5508 5524 1.5
5508 6654 1.0
5508 6656 1.0
5509 5510 0.52
5509 5511 0.17
5509 11969 0.23
5510 5511 0.4
5510 5514 2.61
5510 9373 1.11
5511 5525 1.27
5511 7062 0.94
5512 5772 0.45
5512 11134 0.5
5512 12606 0.5
5513 5790 0.5
5513 10556 0.5
5513 10557 0.52
5514 5516 2.0
5514 11970 0.99
5515 5546 1.02
5515 11734 2.0
5515 11759 1.0
5516 5518 2.58
5516 5528 1.0
5516 9378 0.5
5517 5527 0.6
5517 8641 0.08
5517 8645 0.18
5518 5519 0.43
5518 9390 0.5
5519 5520 1.5
5519 11957 0.5
5520 6650 0.51
5520 9393 1.0
5520 11956 1.96
5521 5523 0.18
5521 6652 0.13
5521 11958 1.79
5522 5530 0.78
5522 5614 0.75
5522 5633 0.68
5522 9759 0.5
5523 5545 1.85
5523 11949 1.26
5524 6658 0.99
5524 6660 1.01
5525 5526 0.38
5525 11970 2.22
5526 7063 2.09
5526 11839 1.82
5527 5539 0.37
5527 5793 0.65
5527 10557 0.12
5528 5531 1.57
5528 11957 2.57
5528 11970 2.01
5529 7955 0.26
5529 8646 0.37
5529 10552 0.4
5530 9760 0.45
5530 11818 0.66
5531 6397 0.77
5532 5533 0.31
5532 5535 0.21
5532 9809 1.89
5533 5536 0.31
5533 9800 1.57
5534 5542 2.2
5534 5571 0.21
5534 5572 0.25
5534 5573 0.23
5535 5544 1.0
5536 5542 0.64
5537 5538 1.0
5537 5556 1.51
5537 9547 1.0
5537 11758 1.0
5539 5793 0.5
5539 7955 0.27
5539 8722 0.2
5540 5541 1.0
5540 5558 1.5
5540 11758 0.96
5541 5543 0.27
5541 5544 0.28
5542 5543 0.29
5544 5571 2.13
5545 9395 1.85
5545 9400 1.0
5545 11951 1.0
5546 5550 0.99
5547 5549 1.01
5547 6660 1.0
5547 6661 0.99
5548 5553 0.5
5548 5560 0.51
5548 10552 0.61
5549 6662 0.5
5549 6664 1.01
5550 5551 1.0
5550 7433 0.6
5551 5552 0.99
5551 5562 1.01
5552 11735 1.01
5552 11736 1.0
5553 8767 0.1
5553 8768 0.07
5553 10559 0.5
5554 11735 1.04
5554 11737 1.0
5555 5568 0.48
5555 5644 1.3
5555 9760 0.35
5556 5557 0.99
5557 5558 0.98
5557 11758 1.5
5558 5559 0.96
5558 11760 1.53
5559 5590 3.86
5560 5564 0.26
5560 10559 0.5
5561 5562 1.0
5561 5581 0.49
5561 7433 0.47
5561 9799 0.8
5562 5563 0.21
5563 5583 0.76
5563 11736 0.78
5564 5566 0.51
5564 5569 0.25
5564 10553 0.5
5565 5603 1.53
5565 11735 1.01
5565 11736 1.03
5565 11737 1.0
5566 5578 0.26
5566 5801 0.5
5566 10559 0.26
5567 5586 1.0
5567 11737 1.02
5568 5587 1.59
5568 5615 1.28
5568 11810 1.25
5569 5578 0.52
5569 8978 0.2
5570 7061 2.8
5570 7063 1.95
5570 9379 1.5
5571 5573 0.27
5571 5593 3.18
5572 5573 0.14
5572 5592 2.4
5573 5574 0.25
5574 5575 0.33
5574 5577 2.55
5575 5576 1.63
5575 5597 1.0
5575 11760 1.0
5576 5577 0.28
5576 5598 1.48
5576 5599 1.0
5577 11761 0.44
5578 5803 0.5
5578 10560 0.51
5579 5610 0.5
5579 8758 0.05
5579 8759 0.04
5580 5581 0.6
5580 5582 0.5
5580 9797 0.13
5581 5582 0.26
5582 5583 1.1
5583 5584 0.89
5584 5602 0.8
5584 11736 0.75
5585 5586 1.0
5585 5604 0.5
5585 11737 1.01
5586 5605 0.51
5587 5618 1.28
5587 5626 0.66
5588 5589 0.53
5588 5590 0.66
5588 6521 1.0
5588 9561 1.0
5590 5591 0.03
5591 5593 0.19
5592 6708 2.37
5593 6710 2.16
5594 5595 0.5
5594 6522 0.85
5594 11760 1.42
5595 5596 0.51
5595 11762 1.0
5596 5597 1.01
5596 11762 1.49
5597 5598 0.54
5597 6535 2.28
5598 5599 1.06
5598 6536 2.46
5599 11763 2.08
5600 5601 0.25
5600 6545 1.79
5601 5602 2.51
5601 6524 1.73
5601 11761 0.72
5602 5603 1.0
5602 6525 1.57
5603 5604 1.0
5603 6526 1.51
5604 5605 1.0
5604 5606 0.62
5605 5607 0.5
5606 5607 0.89
5606 6527 0.97
5607 5608 0.12
5608 6528 0.97
5609 5630 1.0
5609 10743 0.94
5609 11639 1.02
5609 11817 0.81
5610 5613 0.27
5610 5806 0.5
5610 10560 0.51
5611 5612 0.85
5611 10744 0.99
5611 11817 0.36
5612 5614 0.5
5612 9759 0.5
5612 10745 1.01
5613 5815 0.56
5613 8759 0.56
5613 10332 0.26
5614 11640 0.75
5616 5624 0.5
5616 8759 0.5
5616 8979 0.25
5616 10330 0.5
5617 5621 1.0
5617 7301 0.87
5617 11632 0.11
5618 5619 0.89
5618 11812 0.89
5619 5620 0.88
5619 5628 0.5
5620 5621 0.12
5620 11632 0.99
5620 11813 0.51
5621 5622 0.7
5622 5623 0.04
5622 11813 0.6
5623 5660 2.22
5623 11627 1.0
5624 8760 0.13
5624 8980 0.25
5625 5648 0.44
5625 6052 0.41
5625 11627 1.04
5626 5627 1.2
5626 5645 0.49
5627 5628 0.82
5627 11811 0.5
5628 5646 0.5
5628 11813 0.88
5629 11639 1.0
5629 11815 1.0
5630 5631 0.76
5630 5636 1.01
5631 5632 0.49
5631 7317 1.17
5632 5633 1.03
5632 5640 1.25
5633 5634 0.24
5634 11818 1.2
5635 5637 0.18
5635 5820 0.5
5635 8980 0.25
5635 10332 0.51
5636 5665 0.35
5636 6676 0.54
5636 7317 0.33
5637 5827 0.3
5637 8765 0.56
5637 8981 0.29
5638 5641 0.27
5638 8760 0.4
5638 8982 0.25
5639 5651 0.53
5639 5665 0.32
5640 11816 0.5
5640 11819 1.5
5641 5655 0.26
5641 8983 0.25
5642 5643 0.52
5642 5653 0.56
5643 5644 0.49
5643 9760 1.34
5644 11810 0.49
5645 11810 1.6
5646 5657 0.83
5646 11811 0.74
5647 5648 1.01
5647 11627 0.52
5647 11628 1.5
5648 11874 1.03
5649 5654 1.01
5649 11810 0.49
5650 5664 1.09
5650 9849 1.0
5650 11815 1.01
5651 5666 0.81
5651 11641 1.0
5652 5653 2.0
5652 5667 1.01
5652 11816 0.5
5653 5669 1.01
5654 5671 0.64
5654 11814 1.67
5655 5670 0.27
5655 7817 0.03
5656 5657 0.5
5656 5659 1.8
5656 5674 2.19
5657 11813 1.78
5658 5693 0.27
5658 7817 0.07
5659 5660 0.19
5659 11634 1.0
5660 11628 1.31
5661 5702 0.27
5661 7817 0.07
5662 5663 0.5
5662 11628 0.98
5662 11874 0.49
5663 5678 0.47
5663 6114 0.92
5664 5679 1.02
5664 11641 0.61
5666 5681 1.0
5666 11641 0.4
5666 11819 1.0
5667 5668 0.5
5667 5683 1.0
5667 11819 0.5
5668 5684 0.99
5668 11642 1.0
5669 7302 0.5
5669 11642 0.5
5670 7816 0.05
5670 8983 0.26
5670 10334 0.25
5671 5672 0.58
5671 5687 0.81
5671 7302 0.6
5672 5673 1.3
5672 11633 0.56
5673 5674 0.04
5673 11814 1.04
5674 5676 2.21
5675 5706 1.52
5676 11634 0.55
5677 5678 0.98
5677 5691 0.5
5677 11628 1.0
5678 5696 1.02
5679 5680 0.18
5680 5692 0.5
5680 11641 1.12
5681 5682 1.0
5681 5699 1.0
5682 5683 0.49
5682 5700 1.01
5682 11819 1.0
5683 5684 0.51
5684 5685 0.99
5684 5701 1.0
5685 5686 1.0
5685 11642 1.0
5685 11644 1.0
5686 5687 0.49
5686 5703 1.0
5687 11633 0.5
5688 5689 0.74
5688 5707 1.0
5689 5690 1.0
5689 11634 0.5
5689 11636 1.01
5690 5691 0.5
5690 11629 0.5
5691 5694 0.51
5692 5697 0.61
5692 5698 0.53
5693 5708 0.26
5693 7816 0.05
5694 5695 0.5
5694 11629 0.5
5695 5696 0.47
5695 5730 2.5
5696 5720 1.52
5696 6127 0.95
5697 5698 0.22
5697 5710 1.09
5698 5699 1.01
5698 5711 1.0
5699 5700 1.0
5699 11643 1.02
5700 5701 1.0
5700 5713 1.0
5701 5714 1.0
5701 11644 0.99
5702 5712 0.26
5702 7816 0.05
5703 5704 1.01
5703 5716 1.0
5703 11644 1.01
5704 5717 1.0
5704 9839 0.5
5704 11633 1.04
5705 5706 0.99
5705 5718 1.0
5705 9839 1.0
5706 5707 0.74
5706 5718 1.99
5707 11636 0.74
5708 5852 0.49
5708 8781 0.07
5709 5729 2.0
5709 11629 0.5
5709 11636 1.0
5710 5711 0.63
5711 5721 1.0
5711 11643 1.0
5712 5853 0.49
5712 8781 0.07
5713 5714 1.0
5713 5723 0.99
5713 11643 0.99
5714 5715 0.99
5715 5716 1.0
5715 5724 1.0
5715 11644 0.99
5716 5717 1.01
5716 5725 0.99
5717 5726 1.0
5717 9838 0.5
5718 9838 1.0
5718 11635 1.03
5719 5727 2.0
5719 5728 1.0
5719 11636 1.0
5720 5731 0.96
5720 11875 0.45
5721 5722 1.01
5721 5733 1.01
5722 5723 1.0
5722 5734 1.0
5722 11643 1.0
5723 5735 1.01
5724 5725 1.01
5724 5737 1.0
5725 5726 1.01
5725 5738 0.99
5726 5739 1.0
5726 9837 0.51
5727 5728 1.0
5727 11635 1.5
5727 11638 0.99
5728 5729 1.0
5728 5742 1.01
5729 5730 1.0
5729 5743 1.0
5730 5732 0.43
5730 11630 1.5
5731 5732 0.23
5731 11876 0.47
5732 5745 1.0
5733 5734 0.99
5733 11645 1.0
5734 5735 0.99
5734 5747 1.01
5735 5736 0.99
5735 5748 1.0
5736 5737 0.99
5736 11646 1.0
5737 5738 1.0
5737 5750 0.99
5738 5739 1.01
5738 5751 0.99
5739 5740 1.5
5739 11637 0.99
5740 5753 1.0
5740 11635 1.02
5740 11638 1.5
5741 8521 0.15
5741 8523 0.13
5741 12365 0.42
5741 12366 0.45
5742 5743 0.99
5742 5755 0.99
5742 11638 1.01
5743 5756 1.0
5743 11630 0.5
5744 5860 0.52
5744 8523 0.5
5744 10561 0.56
5744 10827 0.45
5745 5758 1.06
5745 11630 0.92
5746 5749 0.5
5746 5752 0.5
5747 5748 1.0
5747 5767 1.0
5747 11645 1.0
5748 5769 1.0
5748 11646 1.0
5749 5863 0.51
5749 10561 0.5
5749 10562 0.51
5750 5751 1.0
5750 5773 1.0
5750 11646 1.0
5751 5775 0.99
5751 11637 1.0
5752 5790 0.51
5752 10556 0.5
5752 10562 0.5
5753 5754 1.51
5753 5759 0.5
5753 11637 1.51
5754 5755 1.0
5754 5760 0.5
5754 11638 1.0
5755 5756 1.0
5755 5761 0.5
5756 5757 0.5
5756 5762 0.5
5757 5758 0.9
5757 5763 0.5
5757 11630 0.99
5758 5764 0.44
5758 6930 0.53
5759 5760 1.5
5759 5779 0.33
5760 5761 1.0
5761 5781 0.5
5762 5763 0.5
5762 5783 0.5
5763 5764 0.91
5763 5784 0.5
5764 5786 0.5
5765 5766 0.9
5765 5767 0.77
5765 11645 1.0
5766 6763 3.0
5767 5768 0.2
5768 5769 0.77
5769 5770 0.23
5770 5771 0.77
5770 12017 3.0
5771 5773 1.0
5771 11646 1.0
5772 6461 0.54
5772 7548 0.54
5773 5775 1.0
5774 6473 0.48
5774 11135 0.55
5775 5776 0.23
5776 5777 0.77
5777 5778 0.22
5777 11637 1.01
5778 5779 1.13
5778 6765 3.0
5779 5781 2.75
5779 6766 3.0
5780 5858 0.8
5781 5782 0.2
5782 5783 0.81
5782 6768 3.0
5783 5784 0.5
5784 5785 0.19
5785 5786 0.72
5785 6769 3.0
5786 11877 1.04
5787 10746 0.66
5787 11640 0.32
5790 5791 0.5
5790 5792 0.5
5791 5868 0.5
5791 10562 0.51
5791 10563 0.51
5792 5793 0.51
5792 10557 0.5
5792 10563 0.5
5793 7972 0.47
5793 8407 0.5
5794 8299 0.25
5794 8729 0.08
5794 8731 0.06
5794 8768 0.4
5795 5883 0.37
5795 8730 0.31
5795 8769 0.4
5795 10564 0.43
5796 8299 0.19
5796 8768 0.6
5796 8770 0.05
5796 8771 0.1
5797 5802 0.23
5797 7991 0.16
5797 8769 0.1
5797 8771 0.42
5798 5800 0.11
5799 5800 0.09
5799 10131 0.2
5799 10172 1.35
5799 10175 0.52
5800 10132 0.2
5800 10176 0.8
5801 5803 0.25
5801 8770 0.25
5801 10565 0.31
5802 5804 0.19
5802 8734 0.31
5802 10565 0.19
5803 8786 0.5
5804 8786 0.05
5804 8787 0.07
5804 10565 0.24
5805 10178 0.54
5805 12403 0.7
5806 5813 0.5
5806 5815 0.5
5807 5809 0.54
5808 5809 0.07
5808 5810 0.12
5808 10178 0.23
5809 5810 0.06
5809 11886 1.12
5810 10181 1.16
5811 6179 1.0
5811 11884 0.79
5811 11887 1.02
5812 10183 0.5
5812 11888 0.46
5813 5817 0.51
5813 5970 0.49
5814 10180 1.05
5814 10208 0.66
5814 10210 0.86
5815 5817 0.5
5815 5820 0.5
5815 10332 0.5
5815 10335 0.54
5816 5843 0.74
5816 6820 0.23
5816 10210 0.29
5817 5996 0.5
5817 10335 0.24
5818 5819 0.51
5818 6819 0.34
5818 10211 0.13
5819 5821 0.5
5820 5823 0.5
5820 5828 0.25
5821 10212 0.12
5821 12281 0.19
5822 5825 0.38
5822 10151 0.06
5822 12281 0.81
5823 5834 0.25
5823 6001 0.5
5823 10335 0.25
5824 5825 0.08
5824 5826 0.26
5824 11911 0.25
5825 5826 0.24
5825 12386 0.32
5826 6872 0.15
5827 5828 0.23
5827 5833 0.25
5828 5833 0.12
5828 5834 0.51
5829 6184 0.89
5829 11912 0.26
5830 5831 0.48
5830 5844 0.46
5830 6820 0.26
5830 10211 0.25
5831 5845 0.46
5831 12383 0.19
5832 5846 0.45
5832 11911 0.38
5832 12289 0.55
5833 5836 0.37
5833 8985 0.32
5834 6005 0.51
5834 8987 0.25
5835 10181 0.61
5835 11887 0.5
5836 8766 0.43
5836 8778 0.19
5836 9015 0.17
5837 5856 0.5
5837 10182 0.51
5837 11887 0.5
5838 5839 0.19
5838 5855 0.24
5838 9015 0.35
5838 10336 0.11
5839 6035 0.25
5839 8789 0.31
5839 10336 0.25
5840 5841 0.49
5840 10183 0.53
5840 10189 0.5
5840 11888 0.49
5841 5842 0.23
5842 5843 0.94
5842 10214 0.25
5843 5844 0.5
5843 5862 0.25
5844 5845 0.39
5844 11910 0.25
5845 5864 0.25
5845 12299 0.45
5846 5847 0.37
5846 5849 0.26
5846 12299 0.55
5847 5850 0.08
5847 5851 0.43
5847 10216 0.04
5848 8778 0.03
5848 8780 0.15
5848 10334 0.5
5849 5850 0.36
5849 5876 0.54
5849 10215 0.58
5850 5851 0.38
5850 5877 0.68
5851 5965 0.2
5852 6085 1.15
5852 8780 0.17
5853 6089 1.15
5853 8780 0.17
5854 5855 0.3
5854 9020 0.11
5854 10337 0.31
5855 6048 0.5
5855 10337 0.12
5856 10186 0.5
5856 10187 0.5
5856 12377 0.5
5857 9019 0.72
5857 9226 1.35
5858 5906 0.32
5859 6588 0.5
5859 10950 0.12
5860 5861 0.5
5860 12406 0.44
5861 6129 0.45
5861 10567 0.57
5862 5872 0.52
5862 10214 0.94
5862 11910 0.5
5863 5865 0.5
5863 5867 0.53
5864 5874 0.51
5864 10215 0.45
5864 11910 0.5
5865 6132 0.52
5865 10567 0.5
5865 10568 0.5
5866 5966 1.58
5866 10218 0.04
5866 10223 1.15
5867 5868 0.48
5867 10562 0.51
5867 10568 0.52
5868 5869 0.51
5868 5878 0.51
5869 6141 0.52
5869 10568 0.5
5869 10569 0.51
5870 10187 0.5
5870 10193 0.38
5870 12377 0.41
5871 5872 0.94
5871 10214 0.52
5871 10219 0.5
5872 5873 0.5
5872 5881 0.51
5873 5874 0.5
5873 10220 0.31
5873 11910 0.52
5874 5875 0.5
5875 5876 0.5
5875 10215 0.52
5875 11914 0.52
5876 5877 0.37
5877 6875 0.55
5877 10221 0.55
5878 8406 0.51
5878 10563 0.5
5878 10569 0.5
5879 6734 0.1
5879 7761 0.37
5879 7836 0.37
5879 10403 0.6
5880 6187 0.5
5880 7717 0.5
5880 7719 0.37
5880 7720 0.5
5881 10219 0.94
5881 10220 0.5
5881 11913 0.88
5882 5884 0.5
5882 8406 0.5
5882 10570 0.51
5883 5884 0.19
5883 5895 0.25
5883 10564 0.57
5884 5895 0.17
5884 5898 0.52
5885 5886 0.07
5885 6873 0.19
5885 6874 0.24
5885 10213 0.32
5886 6872 0.21
5886 6874 0.26
5886 11911 0.4
5887 5890 0.85
5887 5899 0.9
5888 5889 0.85
5888 5900 0.7
5889 5891 1.11
5889 6182 0.19
5889 6183 0.23
5890 5892 1.11
5890 6182 0.23
5890 6183 0.1
5891 5894 0.1
5891 6314 2.38
5892 5893 0.1
5892 6315 2.38
5893 5894 0.2
5893 10222 1.03
5894 10223 0.21
5894 11915 0.52
5895 5901 0.34
5895 10571 0.43
5896 5897 0.25
5896 5912 0.63
5896 11981 0.32
5896 12426 0.44
5897 11982 0.5
5898 5902 0.5
5898 6191 0.52
5898 10570 0.5
5899 5916 1.19
5899 6183 0.68
5900 5917 1.19
5900 6182 0.68
5901 5903 0.27
5901 10571 0.28
5902 5920 0.27
5902 6195 0.5
5902 10571 0.22
5903 5920 0.5
5903 5921 0.24
5903 8732 0.06
5904 5905 0.75
5904 5924 1.04
5904 10197 0.25
5905 11891 1.7
5905 11894 0.88
5906 11134 0.35
5906 11139 0.25
5907 5908 0.5
5907 5926 0.78
5907 12272 0.47
5908 5909 0.75
5908 12275 0.57
5909 5927 0.81
5910 5911 0.25
5910 12277 0.63
5911 5912 0.31
5911 5928 0.85
5911 12426 0.6
5913 5918 0.23
5913 6877 0.44
5913 11982 0.54
5914 5915 0.04
5914 5917 0.1
5914 6877 0.38
5915 5916 0.1
5916 5977 3.07
5917 5978 3.07
5918 5919 1.53
5918 5930 0.75
5919 11918 1.26
5919 11999 1.55
5920 5925 0.26
5920 5929 0.31
5920 9013 0.27
5920 10571 0.32
5921 8735 0.12
5921 8736 0.05
5921 8787 0.43
5922 5923 0.25
5922 5937 0.45
5922 10196 1.05
5922 11893 1.27
5923 5924 0.25
5923 5938 0.5
5923 10197 1.0
5924 5939 0.54
5924 11894 0.75
5925 5929 0.2
5925 5956 0.25
5925 8735 0.43
5926 5927 1.24
5926 5931 0.35
5926 11894 1.44
5927 5928 0.5
5927 5933 0.3
5928 5934 0.25
5928 11917 0.5
5929 7468 0.06
5929 8795 0.06
5930 5936 0.25
5930 11917 0.5
5931 5942 0.15
5931 11916 0.4
5932 5946 0.2
5932 8736 0.21
5932 8738 0.2
5932 10566 0.21
5933 5934 0.75
5933 5954 1.33
5933 11916 0.88
5934 5935 0.5
5934 5943 0.25
5935 5936 0.5
5935 5944 0.25
5935 11917 0.25
5936 5945 0.25
5937 5938 0.27
5937 5948 0.55
5938 5939 0.25
5938 5949 0.5
5939 5940 0.74
5940 5942 1.45
5940 5950 0.5
5940 11894 0.5
5941 11119 0.3
5941 12568 0.13
5942 5951 0.72
5943 5944 0.5
5943 5955 0.95
5944 5945 0.5
5944 5957 0.85
5945 5958 0.8
5945 11918 1.5
5946 8013 0.06
5946 10566 0.31
5947 5948 1.27
5947 11893 1.01
5947 11896 1.06
5947 12417 0.5
5948 5949 0.25
5950 5951 1.18
5950 5969 0.8
5951 5952 0.76
5952 5953 0.45
5952 11916 0.88
5953 5954 0.75
5953 11919 0.25
5954 5955 0.75
5954 5972 0.38
5955 5975 0.51
5955 11984 0.5
5956 5967 0.26
5956 8017 0.25
5956 8737 0.27
5957 5958 0.5
5957 11984 0.13
5958 5959 0.53
5959 5960 0.93
5959 5961 0.57
5960 5961 0.45
5960 11918 0.8
5961 11920 0.5
5962 5963 0.15
5962 6180 0.38
5963 10143 3.0
5963 10149 1.0
5964 5965 0.06
5964 5966 0.53
5964 10216 0.63
5964 10217 0.33
5965 6875 0.45
5965 10222 0.88
5966 6181 0.19
5967 6205 0.19
5967 8795 0.18
5967 10572 0.25
5968 5989 1.02
5968 11897 0.48
5968 12419 0.46
5969 11897 0.34
5969 11919 2.05
5970 5971 0.5
5970 5996 0.5
5970 10338 0.69
5971 5985 0.2
5971 5991 0.25
5971 8013 0.65
5971 8359 0.26
5971 8743 0.31
5972 5973 0.22
5972 5974 0.6
5973 5974 0.4
5973 5975 0.75
5974 5995 1.22
5975 5976 0.5
5975 11986 1.57
5976 5997 1.51
5976 6024 0.78
5976 11984 0.51
5977 6015 2.5
5977 6023 0.13
5978 6016 2.5
5978 6024 0.19
5979 11000 0.29
5979 11002 1.0
5980 5981 0.56
5980 5999 1.0
5980 11920 0.51
5981 6238 1.25
5981 12000 1.53
5982 5983 0.65
5982 11898 0.64
5983 11898 0.87
5984 5986 0.7
5984 6004 1.0
5984 11899 0.19
5985 5991 0.14
5985 6212 0.54
5985 8359 0.18
5986 5987 0.2
5986 11896 1.28
5987 5988 0.77
5987 6004 0.55
5988 5989 0.26
5988 12419 1.05
5989 5990 0.51
5990 11897 1.01
5990 11900 0.7
5991 10338 0.3
5992 5993 0.25
5992 6010 0.96
5992 11900 1.12
5993 5994 0.5
5993 11919 1.75
5994 5995 0.25
5994 11985 0.66
5995 6012 0.6
5995 11986 1.25
5996 6001 0.51
5996 10338 0.51
5997 6000 1.02
5997 11986 0.26
5998 5999 1.0
5998 6000 0.6
5999 11987 0.6
6000 6019 0.87
6000 11987 1.0
6001 6003 0.5
6001 6005 0.24
6001 6011 0.37
6001 10335 0.55
6002 6021 1.09
6002 11928 0.64
6002 11987 1.0
6003 6034 0.25
6003 6213 0.5
6003 10338 0.51
6004 6026 1.4
6005 6011 0.25
6005 8988 0.24
6006 6008 0.51
6006 11872 1.72
6006 11898 0.25
6007 6008 1.72
6007 6033 1.25
6007 11872 0.5
6008 6037 1.7
6009 6010 0.98
6009 6043 1.55
6009 11900 1.0
6010 6013 0.62
6010 6029 0.57
6011 6034 0.25
6011 10339 0.38
6012 11985 0.25
6013 11985 0.36
6014 6047 1.55
6014 11986 1.01
6015 6017 0.44
6015 6018 0.44
6015 6104 5.3
6016 6017 0.44
6016 6018 0.44
6016 6105 5.3
6017 6018 0.32
6017 6019 0.23
6019 6020 0.94
6019 6030 1.0
6020 6021 1.06
6020 6031 0.66
6020 11987 0.87
6021 6032 0.26
6022 6025 0.28
6022 6036 0.93
6023 6024 0.12
6023 11920 0.6
6025 6026 1.0
6025 11899 1.72
6026 6027 0.75
6027 6028 0.26
6028 6040 0.75
6028 11903 1.45
6029 6044 0.77
6029 6045 1.0
6030 6031 1.09
6030 6049 0.5
6031 6032 1.08
6031 11922 1.34
6032 6051 1.74
6032 6267 1.0
6033 11873 0.25
6034 6224 0.51
6034 10339 0.23
6035 6042 0.5
6035 8789 0.18
6035 8988 0.25
6036 6037 0.03
6036 6038 0.07
6036 6040 2.03
6037 6038 0.07
6037 11901 0.97
6038 6039 0.07
6039 11902 1.17
6040 6041 0.26
6041 6057 0.93
6041 11903 0.77
6042 6046 0.25
6042 6050 0.25
6042 10339 0.25
6043 11903 0.7
6043 12375 0.23
6044 6045 0.26
6044 12375 0.51
6045 11921 0.77
6046 6234 0.24
6046 6235 0.37
6046 10339 0.39
6047 6063 1.23
6047 11921 0.75
6047 11988 0.75
6048 6055 0.25
6048 8789 0.06
6048 8790 0.13
6049 6065 1.0
6049 11988 1.0
6050 6070 0.21
6050 6235 0.5
6050 8790 0.39
6051 6277 1.0
6051 11922 1.0
6051 12420 0.5
6052 6053 0.5
6052 11873 1.0
6053 6054 1.0
6053 6068 1.0
6054 10199 1.0
6054 11901 1.0
6055 6070 0.52
6055 6073 0.3
6055 10337 0.55
6056 6057 0.26
6056 11902 1.04
6056 11904 1.08
6057 12376 2.0
6058 6059 1.22
6058 6076 0.5
6058 12376 0.38
6059 6060 0.13
6059 6081 0.36
6059 11921 1.51
6060 6061 0.07
6060 6063 0.72
6061 6062 0.45
6061 6081 0.3
6062 6063 0.52
6062 6064 1.5
6062 6082 0.5
6064 6065 1.0
6064 6083 1.01
6064 11988 1.0
6065 6066 1.0
6066 6067 0.5
6066 11922 0.5
6066 11989 1.0
6067 6086 1.0
6067 12420 0.5
6068 6069 0.51
6068 10199 1.0
6069 6107 0.5
6069 11874 0.92
6070 6236 0.56
6070 8790 0.37
6070 10340 0.49
6071 6109 1.0
6071 10199 1.0
6072 6111 1.02
6072 11902 1.38
6072 11904 1.0
6073 6085 0.13
6073 6089 0.13
6073 9022 0.64
6073 10340 0.63
6074 6075 0.92
6074 6076 1.42
6074 11904 0.79
6075 6078 0.95
6075 6113 0.5
6076 6077 0.26
6077 6078 0.5
6077 6079 0.51
6078 6088 0.49
6079 6080 0.6
6079 11923 0.49
6080 6081 0.17
6080 6082 0.5
6082 6083 1.0
6082 6093 0.36
6083 6084 1.52
6083 6095 0.49
6084 6097 0.5
6084 11989 0.5
6085 6246 1.05
6086 6087 0.25
6086 11989 0.5
6087 6098 1.08
6087 12002 1.26
6088 6090 0.43
6088 6119 1.0
6089 6247 1.05
6090 6091 0.07
6090 6099 0.52
6090 11923 0.26
6091 6092 0.5
6091 6099 0.7
6092 6093 0.13
6092 6138 2.49
6093 6094 0.38
6094 6095 0.62
6094 6100 1.19
6095 6096 0.23
6095 6100 0.85
6096 6097 1.26
6096 6101 0.98
6097 6098 1.5
6097 6102 1.0
6098 6287 0.64
6101 6102 1.25
6102 6126 1.0
6103 6104 0.17
6103 6106 0.17
6104 6992 7.23
6105 6106 0.15
6105 6991 7.23
6107 6108 0.98
6107 6114 0.49
6108 6110 1.26
6108 10199 0.98
6109 6110 0.19
6109 6111 1.0
6110 6130 1.75
6111 6131 2.08
6112 6113 1.66
6112 6121 1.07
6112 11904 1.15
6113 6117 0.5
6114 6115 0.51
6115 6116 0.99
6115 6127 1.0
6116 10200 1.06
6117 6118 0.5
6117 6123 0.5
6118 6119 1.0
6118 6124 0.5
6119 6120 0.19
6120 6136 1.62
6121 6122 0.83
6121 10201 0.19
6122 6123 0.87
6122 6134 0.86
6123 6124 0.5
6124 6135 1.0
6125 6140 1.12
6127 6128 0.23
6128 10200 1.02
6128 11875 1.77
6129 8526 0.08
6129 10833 0.49
6130 6131 1.0
6130 6145 0.88
6130 10200 1.04
6131 6146 0.5
6131 10201 1.23
6132 6137 0.5
6132 8647 0.19
6132 8648 0.07
6133 6134 0.25
6133 6152 1.0
6133 10201 0.81
6134 6135 1.26
6135 6136 0.06
6136 6153 1.26
6136 11990 1.08
6137 6141 0.5
6137 10568 0.51
6137 10574 0.24
6138 6139 0.51
6138 11990 0.83
6139 6140 1.26
6139 6143 0.51
6140 6158 1.01
6140 11991 1.25
6141 6144 0.35
6141 6162 0.52
6142 6143 1.0
6142 6171 1.49
6142 11990 1.02
6143 6157 0.51
6144 6265 0.65
6144 10574 0.51
6144 10575 0.56
6145 6148 0.98
6145 6165 1.31
6146 6147 0.45
6146 6148 0.5
6147 6149 0.51
6148 6149 0.52
6148 6150 0.2
6149 6151 0.21
6150 6151 0.53
6150 6166 1.03
6151 6154 1.4
6152 6153 1.0
6152 6154 0.5
6153 6155 0.85
6154 6155 0.66
6154 6156 0.5
6155 6156 0.66
6156 6167 0.49
6157 6158 1.25
6157 6172 0.98
6158 6159 0.23
6159 6160 1.0
6159 6175 1.0
6160 6161 1.49
6160 6177 1.0
6160 11991 1.0
6161 6178 1.01
6161 6305 0.3
6162 8401 0.51
6162 10569 0.5
6162 10575 0.5
6163 6164 0.5
6163 11876 1.47
6163 11905 0.75
6164 6165 0.5
6165 6166 1.0
6165 6920 0.75
6166 6921 0.75
6167 6168 0.5
6167 10202 0.75
6168 6169 1.0
6169 6170 0.72
6170 6171 0.25
6170 6924 1.0
6171 6172 1.0
6172 6173 0.5
6172 6925 1.26
6173 6174 0.5
6173 11992 1.25
6174 6175 0.5
6175 6176 0.5
6176 6177 0.5
6176 6927 1.25
6177 6178 1.5
6177 11993 0.73
6178 6929 0.52
6179 10178 1.08
6179 10179 0.75
6179 10181 0.7
6180 11907 1.7
6181 10218 1.37
6184 7056 0.38
6184 11927 0.08
6184 12387 0.04
6185 8397 0.44
6185 8398 0.38
6185 10575 0.12
6186 6193 1.0
6186 7056 2.09
6186 12004 0.7
6187 6188 0.5
6187 10392 0.5
6187 10638 0.5
6188 6189 0.5
6188 7677 0.5
6188 7680 0.5
6189 6274 0.5
6189 10386 0.5
6189 10632 0.5
6190 6191 0.52
6190 8401 0.5
6190 10570 0.52
6190 10576 0.52
6191 6194 0.48
6191 6195 0.5
6192 6461 0.62
6192 11140 0.39
6192 11141 0.32
6194 6196 0.5
6194 6284 0.5
6194 10576 0.5
6195 6196 0.5
6196 6332 0.5
6196 10577 0.25
6197 6200 0.52
6197 7468 0.23
6197 8796 0.26
6198 10218 0.66
6198 11927 0.66
6199 6313 0.26
6200 6207 0.25
6200 6346 0.5
6200 10577 0.25
6201 6202 1.11
6201 6206 0.66
6201 10223 0.19
6202 11998 0.75
6203 6204 0.53
6203 6210 0.66
6204 12005 0.64
6205 8795 0.24
6205 8796 0.06
6205 8797 0.13
6206 6215 0.64
6206 6216 0.81
6207 6367 0.5
6207 8796 0.5
6207 10578 0.25
6208 6209 0.75
6208 11998 1.38
6209 6210 0.91
6210 12005 0.29
6211 8025 0.17
6211 8357 0.15
6211 8744 0.2
6212 8744 0.19
6212 8747 0.19
6212 8800 0.43
6212 9628 0.39
6212 10338 0.49
6213 6224 0.25
6213 8799 0.06
6213 8800 0.05
6214 8750 0.05
6214 9628 0.31
6214 9629 0.27
6215 6216 0.15
6216 6217 0.09
6217 6218 0.49
6217 11999 0.77
6218 6219 0.26
6218 11998 0.75
6219 6220 0.75
6219 6225 0.68
6220 6221 0.25
6220 6228 0.49
6221 6230 0.38
6222 6223 0.5
6222 12006 0.49
6223 6233 1.0
6223 12005 1.0
6224 6231 0.3
6224 8989 0.25
6225 6226 0.28
6225 11999 0.57
6226 6227 0.38
6226 6245 0.15
6227 6228 0.43
6227 6242 0.43
6228 6229 0.25
6229 6230 0.11
6229 6242 0.25
6230 12006 0.66
6231 8992 0.38
6231 9630 0.08
6232 6233 0.49
6232 6242 0.49
6232 12006 0.51
6233 6243 0.72
6234 6235 0.26
6234 8989 0.25
6234 8995 0.25
6235 6236 0.4
6235 8996 0.24
6235 8997 0.31
6236 8998 0.2
6236 9008 0.12
6237 6246 0.14
6237 6247 0.18
6237 9009 0.1
6237 10340 0.43
6238 6239 0.28
6240 6241 0.45
6241 6244 1.0
6241 6251 2.05
6242 6243 1.32
6243 6244 0.25
6244 12007 1.54
6246 6523 0.94
6247 6542 0.94
6248 6249 0.45
6248 6250 1.02
6248 11928 0.51
6248 12000 1.58
6249 6253 1.07
6249 11928 0.53
6250 6251 0.36
6250 6253 0.99
6251 6252 0.45
6252 6258 0.25
6252 12007 0.77
6253 6263 0.4
6253 12008 1.06
6254 6255 0.5
6254 8526 0.98
6254 10573 0.57
6254 12462 0.42
6255 6256 0.27
6255 10579 0.54
6256 6257 0.55
6256 6671 0.25
6256 10845 0.42
6257 6261 0.5
6257 6674 0.25
6257 10579 0.27
6258 12008 0.64
6259 8648 0.94
6259 8651 0.07
6259 10573 0.5
6260 8651 0.5
6260 8686 0.03
6260 10580 0.43
6261 6264 0.51
6261 6697 0.26
6261 8686 0.28
6262 6265 0.5
6262 8651 0.4
6262 10574 0.77
6262 10580 0.5
6263 6268 0.23
6264 6269 0.5
6264 6701 0.25
6264 10580 0.25
6265 6266 0.5
6265 6271 0.52
6266 6269 0.27
6266 10580 0.52
6266 10581 0.47
6267 6268 1.0
6267 12001 1.16
6268 6272 1.26
6269 6273 0.51
6269 6703 0.27
6270 6397 0.76
6270 7065 0.82
6270 11959 0.81
6271 8385 0.5
6271 10575 0.5
6271 10581 0.5
6272 6278 0.5
6272 12001 1.0
6272 12009 1.0
6273 6706 0.27
6273 8382 0.5
6273 10581 0.25
6274 6275 0.5
6274 7501 0.05
6274 7634 0.48
6275 6276 0.5
6275 7500 0.06
6275 10626 0.5
6276 7447 0.5
6276 7499 0.05
6276 7591 0.49
6277 6278 1.0
6277 12001 0.49
6277 12002 1.49
6278 6279 0.57
6279 6280 1.0
6279 6282 0.99
6280 6283 1.0
6280 12009 1.0
6281 8397 0.59
6281 10576 0.45
6282 6283 1.0
6282 6288 1.03
6282 12002 1.0
6284 6285 0.25
6284 6302 0.25
6285 6286 0.23
6285 10583 0.3
6286 6297 0.27
6286 6304 0.25
6286 10582 0.51
6287 6288 1.52
6287 6291 1.03
6288 6289 0.77
6289 6290 1.0
6289 6292 0.28
6290 6295 0.7
6291 6292 1.49
6291 11929 2.04
6292 6294 0.48
6293 6294 0.49
6293 6299 1.0
6294 6296 1.0
6295 6296 0.08
6296 6300 1.0
6297 6311 0.25
6297 6717 0.26
6298 6299 0.49
6298 6303 0.49
6299 6300 1.49
6300 6997 2.51
6301 6305 0.5
6301 6307 0.81
6301 11929 0.24
6302 6332 0.25
6302 10583 0.4
6303 6308 0.51
6303 11929 0.5
6304 6311 0.25
6304 10583 0.06
6305 6306 0.47
6306 6307 0.21
6306 6999 1.47
6307 6308 0.04
6307 6310 0.66
6308 6309 0.49
6309 6310 0.38
6310 6997 1.64
6310 12003 1.09
6311 6340 0.25
6311 6720 0.25
6312 6313 0.38
6312 6315 0.3
6312 6316 0.25
6312 12309 0.04
6313 6314 0.23
6313 6320 0.6
6314 6317 0.66
6315 6318 0.66
6316 6318 0.34
6317 6320 0.17
6317 6322 0.64
6318 6322 0.63
6319 10122 0.83
6321 10121 0.04
6321 10122 0.2
6322 10121 0.21
6323 10122 0.67
6324 11206 0.12
6325 10034 0.8
6325 11151 1.25
6325 11783 0.81
6325 11784 0.63
6326 6327 0.48
6326 6328 0.4
6326 9792 0.73
6327 9790 0.63
6327 12346 0.46
6328 6329 0.34
6328 9796 0.55
6328 12346 0.75
6329 9793 0.19
6329 9796 0.65
6330 6331 0.32
6330 6334 0.98
6330 9796 0.5
6331 12346 0.49
6331 12373 0.49
6332 6335 0.5
6333 7624 0.24
6333 12347 0.41
6333 12374 1.41
6334 9795 0.38
6334 12347 0.78
6336 9683 0.64
6336 11206 1.65
6337 6338 1.05
6338 6339 1.79
6338 9246 0.75
6338 11151 1.39
6339 9788 0.46
6339 11154 0.94
6339 11784 1.33
6340 6721 0.25
6341 6345 0.87
6341 11208 1.0
6342 6348 0.65
6342 9246 0.76
6342 9782 0.51
6343 9780 0.57
6343 9783 0.5
6343 9789 0.5
6344 11156 1.54
6344 12372 0.51
6344 12374 0.67
6345 11209 0.79
6346 6353 0.51
6346 6367 0.25
6347 9247 0.2
6347 11213 1.49
6348 6356 1.6
6348 9247 0.58
6348 9781 0.41
6349 9781 0.6
6349 11154 0.58
6350 11215 1.04
6351 9680 0.34
6352 6354 0.58
6352 11213 0.51
6353 6365 0.26
6353 10584 0.23
6354 6355 0.25
6354 11213 0.16
6355 6357 0.57
6355 6370 1.14
6356 6357 0.33
6356 11157 1.02
6357 6358 0.19
6358 11160 0.98
6358 12410 0.79
6359 6360 0.32
6359 9774 0.49
6359 9777 0.4
6359 11157 0.99
6360 11162 0.26
6360 12413 0.73
6360 12416 1.03
6361 9779 0.52
6361 11158 0.51
6361 11159 1.0
6362 6366 0.13
6363 12374 0.98
6363 12421 1.03
6364 6377 0.9
6364 11214 1.0
6365 6366 0.05
6365 6368 0.22
6366 6724 0.19
6366 6728 0.27
6367 10584 0.52
6368 6728 0.18
6368 10584 0.26
6369 9667 0.4
6369 11013 0.5
6369 11014 0.7
6370 6372 0.98
6370 11160 0.88
6371 6387 0.29
6371 9077 0.03
6372 11166 0.57
6372 11172 0.63
6373 6374 0.5
6373 6375 0.5
6373 6376 0.7
6373 8356 0.51
6373 8827 0.69
6373 10341 0.5
6374 8355 0.51
6374 10344 0.25
6375 6376 0.45
6375 7137 0.37
6375 8751 0.06
6377 11214 1.01
6377 11218 0.78
6378 6385 0.35
6378 6758 0.25
6378 10344 0.51
6379 6384 0.57
6379 6388 0.5
6379 8752 0.06
6379 8993 0.55
6380 6381 0.39
6380 11218 0.62
6381 6394 0.67
6383 11219 0.05
6384 6437 0.55
6384 8753 0.06
6384 10345 0.5
6385 8040 0.17
6385 8042 0.09
6385 10345 0.32
6386 11172 0.36
6386 11178 0.19
6386 11179 1.05
6387 9078 0.08
6388 8810 0.19
6388 10342 0.2
6389 11175 0.42
6389 12470 0.23
6390 6401 0.25
6390 8810 0.06
6390 8817 0.05
6390 9003 0.49
6391 6393 0.82
6391 11170 0.25
6391 11175 0.7
6391 11176 0.26
6392 6393 0.47
6392 9806 1.02
6392 12472 0.31
6393 12473 0.29
6394 6395 0.66
6394 11221 0.75
6395 6396 1.0
6395 6398 0.95
6396 10033 1.22
6397 11959 0.51
6398 6399 0.48
6398 11221 0.62
6399 6400 0.58
6400 11222 0.5
6400 11798 0.84
6401 9631 0.16
6402 6403 0.12
6402 6404 1.0
6403 11222 0.27
6403 11800 0.62
6404 12523 0.83
6405 9806 0.98
6405 11185 1.19
6405 12529 0.53
6406 11595 0.86
6407 6409 0.75
6408 6409 0.28
6409 6411 1.27
6410 6421 1.44
6410 12617 1.52
6412 11597 0.65
6413 6414 0.24
6413 11595 0.98
6414 6415 1.59
6414 6422 0.67
6415 6416 0.4
6415 6423 0.8
6416 6417 1.29
6416 11598 0.9
6417 11596 0.23
6417 11598 0.82
6418 12619 0.86
6418 12621 0.37
6418 12627 0.25
6419 6420 0.45
6419 11598 0.11
6421 12620 1.25
6422 6423 1.6
6423 6424 0.45
6424 6427 0.9
6425 6426 1.0
6425 6428 1.66
6426 6427 0.28
6426 6429 1.65
6428 6429 1.0
6428 6442 1.33
6428 11599 1.49
6430 6431 0.37
6430 11600 1.27
6430 12642 1.52
6431 6444 1.28
6431 12709 0.9
6432 6434 0.42
6432 11543 0.36
6432 12717 0.34
6433 6762 0.99
6433 8817 0.19
6434 12721 0.39
6434 12761 0.62
6435 6436 0.39
6435 9171 0.67
6435 12825 0.9
6436 9165 1.13
6436 9754 0.13
6437 8817 0.45
6438 6439 0.87
6438 6453 0.84
6439 6440 0.93
6439 11601 0.79
6440 6441 0.36
6440 6443 0.98
6441 6442 0.46
6443 6448 1.36
6443 11601 1.14
6444 12731 0.38
6445 6446 0.25
6445 11546 0.5
6445 12803 1.0
6446 6447 0.16
6446 12804 0.5
6447 12780 0.63
6447 12784 0.49
6448 11601 0.77
6450 7614 0.55
6451 6452 1.11
6452 12805 1.75
6454 6460 1.76
6455 6460 0.99
6455 9613 1.51
6455 11465 1.05
6456 6457 1.39
6456 9613 2.02
6457 6458 0.63
6458 6459 1.0
6458 11481 2.0
6459 6899 1.4
6461 6473 0.41
6461 11134 0.5
6462 6467 0.2
6462 8803 0.25
6462 9000 0.12
6463 6464 0.4
6463 9661 1.0
6463 11449 0.48
6465 8627 2.59
6465 11401 0.25
6466 6798 0.25
6466 11401 0.89
6467 6478 0.3
6467 8803 0.04
6467 10343 0.19
6468 6469 0.28
6468 6470 0.29
6472 9840 0.5
6473 11141 0.48
6474 7287 0.5
6475 11753 1.4
6475 11832 1.37
6476 7388 0.19
6476 7425 0.11
6477 8803 0.13
6477 8804 0.04
6477 8805 0.19
6478 6623 0.52
6478 7505 0.19
6478 8805 0.06
6479 6480 1.0
6479 11136 0.52
6480 7294 0.5
6480 11131 0.5
6481 6511 0.06
6481 6625 0.5
6481 8806 0.06
6482 11461 1.0
6484 6485 0.98
6484 7915 0.99
6484 11412 0.53
6485 12173 0.64
6485 12203 0.25
6486 8210 0.86
6486 8211 0.57
6486 9315 1.33
6487 10006 1.05
6489 12631 0.55
6491 11690 0.3
6492 9823 0.53
6492 11230 0.5
6493 7248 0.4
6493 7249 0.23
6493 11268 1.48
6493 11274 0.42
6494 11226 0.55
6494 11574 0.5
6495 11801 1.14
6496 11223 1.16
6496 11562 1.03
6497 6511 0.13
6497 6523 0.16
6497 6542 0.16
6497 9010 0.1
6498 6530 0.99
6499 12195 1.16
6499 12196 0.16
6500 6501 0.44
6500 11663 0.25
6502 7125 0.25
6502 12583 0.4
6502 12595 0.06
6503 10117 0.04
6503 12603 0.07
6503 12605 1.08
6506 11961 0.1
6509 11584 0.27
6510 10159 0.43
6510 11585 0.56
6511 6628 0.5
6512 9391 0.5
6512 11840 2.56
6512 11959 0.09
6512 11972 1.4
6513 7612 4.36
6513 10068 1.29
6514 7613 4.36
6514 10069 1.29
6521 6531 0.75
6521 6616 0.28
6522 6533 0.7
6522 6616 0.72
6522 11762 0.5
6523 6657 0.67
6524 6525 1.91
6524 6577 0.25
6525 6526 0.99
6525 6547 1.01
6526 6527 1.01
6526 6548 1.0
6527 6528 1.02
6527 11739 0.93
6528 6529 0.1
6529 6530 0.88
6529 6550 0.5
6530 6551 0.5
6531 6532 0.08
6532 6533 0.9
6532 6616 0.77
6532 7069 0.28
6533 6534 0.49
6533 6552 0.31
6534 6535 0.27
6534 6553 0.28
6534 11762 0.72
6535 6536 0.08
6535 6553 0.4
6536 6537 0.22
6536 6538 0.28
6537 6540 0.39
6537 6554 0.25
6538 6539 0.08
6538 6540 0.04
6539 6540 0.05
6539 6541 0.95
6540 6567 1.0
6541 6544 2.0
6541 6568 1.0
6542 6655 0.67
6543 6544 0.04
6543 6560 1.13
6543 11763 0.08
6544 6570 0.98
6544 11763 0.06
6545 6577 1.03
6546 6547 0.76
6546 11738 0.52
6547 6548 1.01
6548 6556 0.13
6549 8217 0.39
6549 8221 0.43
6549 10611 0.8
6549 10616 0.15
6550 6551 0.88
6550 11739 0.71
6551 6576 1.49
6552 6553 0.5
6552 6558 0.48
6552 7069 0.9
6553 6554 0.08
6553 6558 0.69
6554 6559 0.69
6554 6565 0.94
6555 6562 0.19
6555 7580 0.57
6555 8216 0.17
6556 6557 1.58
6556 6572 0.88
6557 6574 0.8
6557 11739 0.86
6558 6559 0.05
6558 6578 1.44
6559 6564 0.47
6559 6579 1.48
6560 6570 0.7
6560 6587 0.58
6561 6639 0.99
6561 9392 0.5
6561 11840 0.68
6561 11960 1.03
6562 8213 0.17
6562 10621 0.36
6563 6641 1.0
6563 9396 1.86
6563 11951 1.48
6564 6565 0.5
6564 6581 1.0
6565 6567 0.51
6566 6617 0.41
6566 11141 0.5
6566 12841 0.51
6567 6568 0.99
6568 6569 1.0
6568 6584 1.0
6569 6570 1.0
6569 6585 1.0
6570 11765 1.02
6571 6572 1.26
6571 6590 1.58
6571 11738 0.72
6572 6573 0.5
6572 6590 0.7
6573 6574 1.3
6573 6591 0.99
6574 6575 0.25
6575 6576 1.0
6575 11741 1.0
6576 6594 1.01
6576 12018 2.0
6577 9810 1.16
6577 11738 1.7
6578 6579 0.04
6578 7069 1.54
6578 9570 1.5
6579 6580 0.5
6579 9571 1.5
6580 6581 1.01
6580 6595 1.0
6581 11764 0.63
6582 6586 0.13
6583 8661 0.8
6583 8662 0.72
6583 8665 0.62
6584 6585 1.0
6584 6596 1.0
6585 11765 0.99
6587 6598 1.84
6587 11740 1.14
6588 7018 0.5
6588 7621 0.39
6589 6611 1.75
6589 6612 3.35
6589 11740 1.09
6590 6591 0.57
6591 6592 0.59
6592 6600 1.44
6592 11741 1.25
6593 7506 0.05
6594 6601 1.51
6594 11741 1.0
6595 6602 1.01
6596 6597 2.0
6596 6605 1.01
6597 6606 1.0
6597 11765 1.0
6598 6599 1.07
6598 6607 1.01
6599 6608 0.51
6599 11740 1.3
6600 6601 1.07
6600 11741 1.2
6601 6615 0.5
6601 10240 2.15
6603 6642 0.51
6603 6665 2.54
6603 9401 2.0
6604 6664 1.0
6604 6665 0.49
6604 6669 0.42
6604 6704 0.5
6605 6606 1.98
6605 10224 2.09
6606 6607 1.0
6607 6609 1.0
6608 6609 0.5
6608 6610 1.0
6609 6610 1.5
6610 6611 0.27
6611 6612 2.63
6612 6613 0.55
6613 6614 0.25
6614 6615 0.5
6615 10231 3.97
6615 10242 5.55
6617 6631 0.24
6617 12633 0.39
6618 8857 0.12
6618 10323 0.39
6618 12228 0.13
6619 6620 0.23
6619 6621 0.17
6619 11720 0.51
6620 6622 0.19
6623 8841 0.06
6623 10346 0.16
6624 12572 0.22
6625 6628 0.06
6625 8835 0.06
6627 11452 1.45
6629 11028 0.43
6629 12600 0.3
6629 12976 0.46
6630 10114 1.42
6630 11028 0.59
6630 12600 0.24
6631 6632 0.34
6631 11145 1.58
6632 6633 0.62
6632 11141 0.4
6633 11140 0.39
6634 6635 0.57
6636 6637 0.55
6636 9150 0.95
6638 6639 2.99
6638 6700 1.0
6638 9382 0.5
6639 6640 1.02
6639 9451 1.0
6640 6641 2.84
6640 11960 1.0
6641 6642 0.99
6641 9526 1.0
6642 9527 0.5
6643 6644 0.08
6644 6645 0.17
6644 6647 0.3
6648 11957 0.69
6649 6650 0.06
6650 9394 1.05
6651 12562 1.13
6651 12564 0.87
6652 11947 1.37
6653 9398 0.25
6653 11947 1.76
6654 9398 1.0
6654 11948 1.0
6655 6659 0.31
6655 6670 0.34
6656 11948 1.01
6657 6659 0.35
6657 6663 0.34
6658 11949 1.96
6658 12019 1.0
6660 12019 0.99
6661 9403 0.5
6661 12019 1.0
6662 9402 0.9
6662 11952 1.0
6664 11952 0.49
6665 11952 1.0
6666 6667 0.2
6666 6669 0.2
6666 9531 0.4
6666 9535 0.2
6667 9535 0.4
6668 6669 0.2
6668 9534 0.4
6669 9534 0.2
6671 6672 0.39
6671 6674 0.55
6671 12463 0.44
6672 6764 0.4
6672 10585 0.57
6672 12464 0.48
6673 9366 2.42
6673 11967 0.47
6674 6697 0.53
6674 10585 0.37
6675 6676 0.21
6675 6677 0.2
6675 11815 0.3
6676 6678 0.25
6677 6681 8.1
6677 12973 4.06
6678 6682 8.1
6678 12972 4.12
6679 6680 0.19
6679 6681 0.2
6680 6682 0.17
6681 6751 5.12
6682 6750 5.12
6683 7928 0.7
6683 7933 0.3
6684 6685 0.19
6684 7379 0.38
6685 6686 0.25
6685 11712 0.13
6687 6688 0.51
6687 6689 0.3
6687 6690 0.3
6688 6689 0.28
6688 6690 0.28
6688 10730 0.32
6689 6693 1.55
6689 12972 1.47
6690 6694 1.56
6690 12973 1.88
6691 6692 0.44
6691 6693 0.3
6691 6694 0.28
6692 6693 0.3
6692 6694 0.31
6695 6696 0.5
6695 11132 0.2
6695 11137 0.73
6696 11138 0.26
6697 6698 0.43
6697 6701 0.5
6698 6785 0.43
6698 9023 0.23
6698 10586 0.5
6699 11116 0.45
6700 9405 5.0
6700 9407 1.2
6701 6703 0.52
6701 10586 0.47
6702 9544 1.0
6702 9545 3.9
6703 6705 0.47
6703 6706 0.51
6704 12015 1.0
6705 6834 0.37
6705 10586 0.51
6705 10587 0.5
6706 8381 0.52
6706 10587 0.53
6707 8326 0.37
6707 12489 0.21
6708 6711 0.32
6708 9577 6.4
6709 6710 0.3
6709 6711 0.12
6709 9567 0.8
6710 9576 6.4
6711 7069 0.04
6712 6733 0.34
6712 11504 0.88
6713 8655 0.54
6713 9263 2.0
6714 6715 0.31
6714 6716 0.39
6714 9262 2.0
6715 9273 1.5
6715 9859 1.76
6716 9274 1.5
6716 9857 1.76
6717 6720 0.25
6717 6883 0.67
6718 6719 1.0
6718 9268 1.5
6718 9277 2.5
6718 11932 2.0
6719 9267 1.5
6719 9278 1.82
6720 6721 0.25
6720 6887 0.75
6721 6723 0.4
6722 10419 0.51
6722 10425 0.39
6722 12791 0.13
6723 6891 0.34
6723 10589 0.25
6724 6725 0.39
6725 6731 0.25
6725 6895 0.37
6725 10589 0.25
6726 6727 0.5
6726 7720 0.38
6726 10398 0.25
6727 7724 0.37
6727 7726 0.26
6729 6730 0.78
6729 7730 0.38
6729 7738 0.24
6729 10399 0.5
6730 7750 0.3
6730 10400 0.13
6731 12187 0.22
6732 7760 0.11
6732 8197 0.25
6732 10401 0.5
6732 10402 0.49
6733 9749 0.15
6734 6735 0.51
6734 7767 0.5
6734 10402 0.49
6735 6736 0.52
6735 7772 0.5
6735 10403 0.12
6736 7432 0.33
6736 7774 0.13
6736 9154 0.48
6737 7655 0.25
6737 7656 0.31
6737 10390 0.49
6738 9082 0.41
6738 9083 0.1
6738 10952 0.6
6739 6740 0.07
6739 7659 0.37
6739 7667 0.28
6739 10390 0.51
6740 7666 0.26
6740 10391 0.12
6741 7584 0.12
6741 7586 0.37
6741 10625 0.37
6742 6749 0.35
6742 6758 0.5
6742 8351 0.52
6742 10344 0.25
6743 7692 0.07
6744 6745 0.12
6744 6747 0.26
6744 7689 0.23
6745 6746 0.17
6745 7644 0.19
6746 7647 0.13
6746 7690 0.2
6747 8184 0.25
6749 6760 0.5
6749 8350 0.5
6749 10348 0.4
6750 10229 0.23
6750 10239 0.36
6751 10227 0.31
6751 10236 5.12
6752 7299 0.34
6753 6756 0.65
6753 11130 0.52
6753 11136 0.5
6754 6755 0.64
6754 11145 0.95
6755 11146 0.98
6755 12646 0.36
6756 6757 0.33
6757 11125 0.5
6757 11131 0.5
6758 6760 0.38
6758 8755 0.62
6759 7012 1.23
6759 12631 0.87
6760 6916 0.4
6760 10349 0.43
6761 10227 1.21
6761 10241 6.55
6761 12018 5.0
6762 8755 0.03
6763 11942 2.6
6763 12017 3.0
6764 8527 0.12
6764 12519 0.5
6765 6766 1.0
6765 11943 0.78
6765 12017 4.0
6766 6767 1.5
6766 6774 0.5
6767 6768 1.5
6767 6774 2.2
6768 6769 1.5
6768 6777 1.5
6769 6806 0.5
6769 12016 2.0
6770 6771 3.1
6770 6775 5.0
6770 12017 1.0
6771 6775 2.08
6771 11943 1.2
6772 6778 0.25
6772 6782 0.57
6772 8527 0.1
6772 12098 0.49
6773 6774 0.22
6773 6776 0.76
6773 11943 1.0
6775 10249 2.72
6776 6777 3.2
6776 6781 4.0
6777 6781 5.19
6777 12016 1.1
6778 8608 0.12
6778 10591 0.55
6778 10857 0.54
6779 6781 1.6
6779 10249 2.72
6779 10250 0.28
6780 6782 0.12
6780 8527 0.57
6780 9051 0.25
6780 10585 0.48
6781 6804 6.72
6782 9256 0.25
6782 10591 0.25
6783 6784 2.0
6783 12026 5.08
6784 11935 7.32
6785 6787 0.12
6785 9051 0.25
6785 12140 0.25
6786 7060 6.2
6786 11935 2.0
6786 12025 6.32
6787 6801 0.25
6787 9256 0.26
6787 12139 0.25
6788 6790 5.6
6788 6825 5.0
6788 6828 5.0
6788 9881 1.08
6789 9298 2.76
6789 9879 4.0
6789 12024 0.24
6790 6791 1.51
6790 9866 1.0
6791 9360 1.5
6791 9867 1.0
6792 6795 1.52
6792 9296 1.0
6792 9297 0.82
6792 9298 2.1
6793 6794 0.12
6793 9297 1.5
6794 9299 0.5
6795 6796 0.5
6796 11934 0.46
6797 9289 1.92
6797 9291 1.88
6797 9292 0.74
6797 9301 1.5
6798 9289 1.2
6798 9292 0.96
6799 9252 0.5
6799 11931 0.5
6799 12023 1.5
6800 9853 1.24
6800 9877 3.0
6801 6953 0.75
6801 11950 0.25
6801 12133 0.25
6802 9613 1.0
6802 11935 1.5
6802 12026 7.5
6803 12018 3.0
6804 6986 4.09
6804 11879 2.26
6805 6830 0.11
6805 6834 0.53
6805 10586 0.42
6805 12140 0.26
6806 6952 0.5
6806 11878 1.54
6807 6808 0.04
6807 8875 0.06
6808 7636 0.06
6809 6810 0.04
6809 8234 0.08
6810 8874 0.08
6813 6814 0.04
6813 12929 0.13
6814 12952 0.13
6815 6816 0.35
6815 6817 0.14
6817 6818 0.04
6819 6820 0.13
6819 10210 0.42
6820 10211 0.34
6821 6822 0.17
6821 6825 3.76
6822 6823 0.32
6822 9284 0.8
6823 6824 0.17
6823 12024 0.72
6824 6828 3.76
6825 6826 0.17
6826 6827 0.32
6826 9360 0.88
6827 6828 0.17
6827 9879 2.2
6829 7068 3.1
6829 12010 3.4
6830 6837 0.52
6830 10592 0.28
6830 12139 0.25
6831 6832 1.05
6831 11936 2.06
6831 12010 2.96
6832 6899 4.4
6833 6854 4.02
6833 6897 4.19
6833 11936 4.3
6834 6837 0.16
6834 6864 0.49
6835 6836 3.0
6835 6897 2.26
6835 6898 4.31
6836 6839 4.15
6837 6846 0.27
6837 6865 0.51
6838 6839 3.2
6838 6840 0.3
6838 11937 1.94
6839 6851 2.92
6840 6901 2.0
6840 12011 4.3
6841 6842 0.04
6841 6845 2.55
6841 6901 0.39
6842 6843 0.15
6842 6844 0.16
6843 9161 0.04
6844 9162 0.04
6845 6847 2.72
6845 12011 2.75
6846 10592 0.53
6846 10593 0.49
6846 12177 0.15
6847 6848 1.35
6847 6853 0.6
6848 6849 1.46
6849 6850 1.75
6849 12011 0.61
6850 6852 1.7
6851 6852 0.08
6853 7025 2.17
6853 7027 3.06
6854 12010 0.91
6855 6856 0.07
6855 6859 0.1
6856 6857 0.13
6857 6858 0.26
6857 7530 0.6
6858 11718 0.11
6859 6862 0.17
6861 6862 0.18
6864 6865 0.13
6864 8379 0.52
6864 10587 0.35
6865 8377 0.51
6865 10593 0.27
6866 6867 0.04
6868 6869 0.04
6870 6876 0.04
6870 9083 0.64
6870 9085 0.06
6870 10957 0.5
6871 6872 0.1
6871 6873 0.12
6871 12384 0.49
6872 6873 0.06
6873 10213 0.22
6874 10217 0.25
6875 10222 0.8
6875 11983 1.78
6876 9085 0.03
6876 10961 0.51
6877 11983 0.51
6878 6879 0.47
6878 10165 0.2
6878 11860 0.23
6879 11861 0.55
6879 11880 0.5
6880 8266 0.4
6880 8271 0.99
6880 10959 0.15
6881 6882 0.09
6881 6884 0.51
6881 8379 0.5
6881 10588 0.28
6882 6885 0.51
6882 8377 0.51
6882 10594 0.28
6883 6884 0.27
6883 6887 0.24
6883 10588 0.5
6884 6885 0.08
6884 6888 0.25
6885 6886 0.25
6885 6889 0.25
6886 6890 0.25
6886 10594 0.5
6886 12181 0.31
6887 6888 0.22
6887 6891 0.22
6888 6889 0.08
6888 6892 0.26
6889 6890 0.25
6889 6893 0.26
6890 10595 0.25
6891 6892 0.29
6892 6893 0.05
6893 10595 0.26
6894 6902 0.25
6894 10595 0.25
6895 6896 0.1
6895 10590 0.26
6896 6903 0.26
6898 11936 3.27
6899 7068 1.01
6900 6902 0.25
6900 6904 0.26
6901 11937 0.79
6902 6905 0.25
6902 7894 0.25
6903 10590 0.08
6903 12219 0.25
6904 6905 0.25
6904 12368 0.26
6905 6906 0.26
6906 7665 0.17
6906 12368 0.26
6907 6908 0.52
6908 8310 0.51
6908 10603 0.51
6909 9114 0.8
6909 9115 0.04
6909 12040 0.66
6910 6982 0.25
6910 10970 0.66
6910 12087 0.16
6911 6914 0.38
6911 8335 0.13
6912 8343 0.49
6912 10348 0.13
6912 12382 0.37
6913 6914 0.18
6913 8341 0.52
6913 12755 0.38
6914 6915 0.37
6915 6926 0.12
6915 12755 0.18
6916 6918 0.12
6916 7511 0.12
6916 10348 0.49
6917 6919 0.12
6917 7511 0.12
6917 10349 0.43
6917 12838 0.35
6918 6919 0.2
6918 12382 0.13
6919 7511 0.13
6919 12911 0.34
6920 6921 1.0
6920 6933 3.0
6920 11905 1.0
6921 6922 0.25
6922 6934 2.75
6922 10202 1.5
6923 6926 0.06
6924 6941 2.53
6924 10202 2.57
6925 6942 2.25
6925 11992 0.5
6926 6928 0.52
6927 6946 1.25
6927 11992 1.5
6928 6932 0.26
6929 6993 1.02
6929 6999 0.71
6929 11993 1.0
6930 6931 1.47
6930 11876 2.23
6931 10203 1.5
6931 11905 1.5
6933 6934 1.0
6933 6956 2.0
6933 10203 1.0
6934 6935 0.26
6935 6936 1.25
6935 6957 2.0
6936 6937 0.43
6936 6940 0.3
6937 6938 0.15
6937 10202 2.22
6938 10204 0.25
6939 6943 0.5
6939 6949 0.54
6939 8607 0.57
6939 12522 0.76
6940 6941 1.26
6940 10204 0.26
6941 6942 1.94
6941 6960 0.87
6942 11994 0.08
6943 7034 0.5
6943 10597 0.52
6944 6945 1.0
6944 6968 2.74
6944 11924 1.5
6944 11994 0.43
6945 6946 1.5
6945 11992 1.25
6946 6947 1.0
6946 11924 1.0
6947 6948 1.0
6947 6950 1.0
6947 11993 2.0
6948 6951 1.01
6948 6993 1.02
6948 7032 2.5
6949 10591 0.75
6949 10597 0.51
6949 12084 0.25
6950 6951 1.0
6950 6990 0.08
6951 6994 2.03
6951 11930 2.5
6952 6955 2.08
6952 11877 1.53
6953 6954 0.5
6953 12084 0.25
6953 12085 0.25
6954 7039 0.51
6954 10597 0.48
6954 10598 0.52
6955 6956 1.0
6955 10203 2.0
6956 6957 1.25
6956 6964 0.62
6957 6958 0.34
6957 7073 0.13
6958 6959 1.51
6958 6961 1.42
6958 7073 0.36
6959 6960 1.11
6959 6961 0.6
6960 6962 1.14
6960 11994 2.36
6961 6962 1.0
6961 10206 1.0
6962 12431 0.5
6963 6966 0.48
6963 8670 0.34
6963 10598 0.5
6963 12085 0.25
6964 7073 1.32
6964 10205 1.36
6964 12429 0.32
6965 7073 0.88
6965 10206 1.83
6965 12354 1.9
6966 6967 0.51
6966 6972 0.5
6966 8672 0.31
6967 6977 0.5
6967 7042 0.5
6967 10598 0.48
6968 6969 0.26
6968 11995 1.53
6969 6970 1.5
6969 7070 2.0
6970 6971 2.0
6970 11996 1.5
6971 6994 1.02
6971 12020 0.33
6972 6977 0.5
6972 8375 0.49
6972 8691 0.38
6973 6996 2.48
6973 11996 2.0
6973 12020 1.0
6974 6975 1.25
6974 10205 1.82
6974 11879 2.13
6975 6984 2.4
6975 12352 0.19
6976 6983 1.72
6976 11925 2.81
6976 12360 0.19
6977 8374 0.51
6977 10599 0.51
6978 6979 0.26
6978 6980 1.06
6978 11925 0.38
6979 6980 0.98
6979 7070 1.25
6980 11997 0.98
6981 6996 0.94
6981 11997 3.01
6982 10975 0.54
6982 12087 0.12
6982 12236 0.89
6983 6988 0.5
6983 10207 1.0
6983 12359 1.0
6984 6986 0.34
6984 11906 0.17
6985 6995 0.5
6985 8375 0.53
6985 10600 0.5
6986 6987 0.06
6987 6988 0.96
6987 11906 0.3
6989 6990 0.28
6989 6991 0.27
6989 11924 0.62
6990 6992 0.14
6991 7000 0.5
6992 7000 0.5
6993 7030 3.0
6994 7037 1.13
6995 6998 0.48
6995 7001 0.25
6995 12181 0.37
6997 7030 1.02
6997 12003 1.54
6998 7004 0.5
6998 7047 0.53
6998 10600 0.51
6999 12003 0.76
7001 7003 0.25
7001 10601 0.34
7002 10788 0.14
7002 12096 0.24
7002 12097 0.51
7002 12099 0.09
7003 7005 0.25
7003 10601 0.24
7003 12183 0.5
7004 7054 0.31
7004 10601 0.25
7005 7006 0.25
7006 7007 0.24
7006 7010 0.25
7006 7894 0.51
7007 7008 0.28
7007 7011 0.2
7008 7009 0.06
7008 7013 0.19
7009 7013 0.2
7009 7059 0.41
7010 7011 0.3
7010 7015 0.25
7010 7016 0.3
7010 7898 0.51
7011 7013 0.25
7012 7053 0.62
7012 11204 0.6
7013 7014 0.29
7013 10602 0.37
7014 7071 0.29
7014 8871 0.35
7015 7016 0.06
7015 8333 0.5
7015 10596 0.53
7016 10602 0.25
7017 7863 0.39
7017 7900 0.51
7018 7446 0.25
7018 7645 0.5
7019 7020 0.39
7019 8327 0.17
7019 8333 0.12
7019 10356 0.62
7020 7021 0.5
7021 7022 0.51
7021 7023 0.49
7022 7029 0.34
7023 7024 0.2
7023 7028 0.25
7024 7028 0.3
7025 7026 0.52
7026 7027 1.07
7026 12012 1.85
7028 7029 0.31
7028 10365 0.24
7029 7469 0.12
7029 10365 0.19
7030 7033 1.02
7031 10365 0.51
7032 7033 0.51
7032 11930 1.04
7033 7052 1.03
7034 7035 0.5
7034 7036 0.53
7034 10863 1.01
7035 10118 0.16
7035 10869 1.02
7036 10119 0.13
7036 10120 0.08
7036 10597 0.51
7037 7038 1.25
7037 12020 1.89
7038 11930 3.26
7039 7040 0.51
7039 7041 0.51
7039 10120 0.4
7040 8310 0.5
7040 10603 0.51
7040 10604 0.5
7041 7042 0.51
7041 10598 0.51
7041 10604 0.5
7042 7043 0.52
7042 10599 0.51
7043 10604 0.51
7044 8370 0.51
7044 10606 0.5
7045 7046 0.26
7045 7047 0.52
7045 8371 0.5
7045 10600 0.5
7046 10606 0.24
7048 7049 0.82
7048 11201 0.6
7048 12599 1.28
7049 7050 0.52
7049 10017 0.65
7049 11201 0.54
7050 7053 0.04
7051 7058 0.52
7051 7455 0.5
7051 10606 0.48
7052 11930 0.5
7054 7055 0.2
7055 7058 0.47
7056 12308 0.04
7056 12428 0.35
7057 10124 0.16
7057 11926 0.2
7057 12307 0.33
7058 10607 0.26
7058 10613 0.51
7059 7066 0.49
7059 7071 0.3
7060 12025 2.7
7061 7062 0.21
7063 7064 1.05
7063 11971 1.0
7064 9383 0.11
7064 11839 0.96
7065 9383 1.2
7065 11972 0.65
7066 7456 0.51
7066 10607 0.25
7066 10608 0.5
7067 11146 1.31
7067 11147 1.25
7068 12026 1.0
7070 11996 2.0
7071 7072 0.19
7071 7519 0.3
7072 7111 0.31
7072 8871 0.55
7072 10364 0.5
7074 7076 0.62
7074 9882 0.7
7075 7076 0.5
7075 11823 1.36
7076 12736 0.89
7077 7555 0.09
7078 7296 1.46
7078 11107 0.12
7079 7080 0.45
7079 12908 0.26
7080 7081 1.15
7080 11101 0.21
7083 7084 0.75
7083 12545 0.42
7084 7085 0.36
7085 7086 0.07
7085 11522 0.11
7085 12545 0.79
7086 7087 0.33
7086 7126 0.65
7086 11522 0.25
7087 7088 0.2
7088 7089 0.25
7088 12540 0.07
7088 12543 0.41
7089 11518 0.26
7089 12528 0.4
7089 12530 0.39
7090 7134 0.53
7090 12545 0.25
7090 12584 0.27
7091 7092 0.05
7091 7134 0.08
7091 12573 0.17
7092 7093 0.16
7092 7136 0.12
7092 12576 0.15
7093 7094 0.09
7093 7098 0.07
7093 7133 0.18
7094 7095 0.33
7094 7100 0.08
7094 12565 0.28
7095 7096 0.52
7095 7102 0.07
7095 12566 0.5
7096 7097 0.19
7096 7104 0.08
7096 7115 0.63
7097 7117 0.67
7097 7135 0.06
7098 7099 0.08
7098 7100 0.27
7099 7101 0.09
7100 7101 0.24
7100 7102 0.33
7101 7103 0.31
7101 12531 0.04
7102 7103 0.07
7102 7104 0.52
7103 7105 0.52
7104 7105 0.17
7105 7135 0.19
7106 7107 0.19
7106 7108 0.6
7106 12083 0.5
7107 10158 2.15
7108 7109 0.19
7108 10968 0.45
7109 10155 2.15
7110 11519 0.15
7110 12581 0.35
7110 12590 0.31
7111 7519 0.21
7111 10608 0.24
7111 12485 0.31
7112 7113 0.22
7112 7133 0.08
7112 12565 0.13
7113 7114 0.42
7113 11519 0.25
7113 12566 0.37
7114 12572 0.42
7114 12590 0.25
7115 7116 0.11
7115 7117 0.25
7115 11514 0.12
7116 11514 0.15
7116 12564 0.27
7117 11510 0.4
7117 12564 0.21
7118 7665 0.51
7118 8050 0.39
7119 7120 1.61
7119 11547 1.4
7119 12843 0.3
7119 12845 0.91
7120 12842 0.1
7120 12846 0.9
7120 12938 0.5
7121 12534 0.13
7121 12536 0.27
7122 12643 1.04
7122 12657 0.07
7122 12688 0.33
7122 12690 0.47
7123 7124 0.2
7123 11523 0.12
7123 12584 0.75
7124 7125 0.05
7124 12595 0.27
7124 12603 0.2
7125 10115 0.04
7126 7127 0.08
7126 12539 0.05
7127 12542 0.03
7127 12545 0.53
7128 7129 1.5
7128 7146 0.25
7128 11572 0.07
7129 11578 0.92
7129 11583 0.77
7130 8022 0.12
7130 8060 0.31
7131 10364 0.5
7131 10368 0.26
7132 11517 0.14
7132 12525 0.53
7132 12528 0.4
7133 12576 0.08
7134 7136 0.1
7134 12542 0.08
7136 12541 0.1
7137 8750 0.06
7137 8993 0.06
7138 7139 0.55
7138 7142 0.79
7138 11515 0.66
7139 7140 0.2
7139 7143 0.4
7140 7141 0.44
7140 11520 0.5
7141 7142 0.14
7141 11511 0.98
7141 11516 1.07
7142 7144 0.22
7143 11516 0.71
7144 11516 0.76
7145 7146 0.08
7145 11572 0.25
7145 12902 0.08
7146 7147 0.59
7146 12895 0.08
7147 12892 0.39
7147 12895 0.46
7148 7149 0.25
7148 7150 0.5
7148 11235 0.22
7149 8696 0.3
7149 8706 0.49
7150 7151 0.29
7150 8706 0.26
7150 8707 0.2
7151 7152 0.26
7151 7156 0.26
7151 7441 0.2
7152 7161 0.29
7152 8706 0.3
7152 8711 0.2
7153 7154 0.5
7153 7161 0.25
7153 8698 0.3
7153 8699 0.27
7154 7155 0.35
7154 8525 0.3
7154 11239 0.28
7155 8495 0.25
7155 8522 0.99
7156 7157 0.29
7156 8709 0.21
7156 8711 0.3
7157 7158 0.16
7157 7162 0.25
7158 7160 0.24
7158 8712 0.26
7158 11236 0.21
7159 7160 0.21
7159 8715 1.1
7159 11236 0.23
7160 7163 0.27
7161 8704 0.28
7161 8705 0.3
7162 7164 0.29
7162 8711 0.12
7162 8712 0.14
7163 7167 0.52
7163 8712 0.25
7163 11237 0.93
7164 7165 0.21
7164 8703 0.3
7164 8704 0.26
7165 8700 0.08
7165 8703 0.16
7166 12567 0.75
7167 8700 0.25
7167 8701 0.8
7168 8488 0.95
7168 8490 0.81
7168 8701 1.15
7169 8509 0.33
7169 8516 0.97
7169 8519 1.0
7170 7171 0.8
7170 8498 0.32
7171 11245 0.73
7172 7173 0.5
7172 11245 0.5
7172 11249 0.55
7173 8500 0.55
7173 8509 0.5
7174 7177 0.25
7174 7178 0.25
7175 7178 0.24
7175 8364 0.2
7175 8378 0.39
7176 8378 0.27
7176 11248 0.13
7177 8500 1.05
7177 11244 1.0
7177 11248 0.11
7178 7179 0.12
7179 7180 1.25
7180 7181 0.5
7180 11244 0.55
7181 8373 1.05
7181 11316 0.51
7182 8779 0.77
7182 9243 0.03
7184 7185 0.88
7184 8419 0.13
7184 8422 0.46
7185 7186 0.24
7185 8408 0.45
7185 8412 0.13
7186 8399 0.03
7186 8400 0.38
7187 7191 0.33
7187 8393 0.08
7187 11263 0.5
7188 7189 0.38
7188 8994 0.14
7189 7282 0.13
7189 7459 0.25
7189 10369 0.5
7190 7191 0.11
7190 7193 0.62
7190 8392 0.13
7191 7192 0.5
7192 8083 0.27
7192 8085 0.18
7193 7211 0.5
7193 8085 0.41
7193 8391 0.14
7195 9186 0.03
7195 9313 0.1
7196 7197 0.6
7196 9185 0.51
7197 9184 0.41
7197 11427 1.5
7198 7199 0.5
7199 11433 0.51
7200 11432 0.63
7202 9175 0.24
7202 9177 0.72
7202 9607 0.97
7203 7204 0.44
7203 9607 0.31
7204 9181 0.3
7204 9607 0.35
7205 7206 0.5
7205 9606 0.29
7206 11457 3.22
7207 7208 0.73
7207 7210 1.01
7207 9612 0.6
7208 7209 0.25
7208 7210 0.25
7209 11484 0.24
7210 11484 0.24
7211 7280 0.11
7211 8387 0.09
7212 7213 0.37
7212 7280 0.25
7213 8103 0.34
7213 11261 0.34
7214 7215 0.63
7214 8383 0.41
7214 8402 0.3
7215 9152 0.17
7215 11255 0.34
7216 7217 0.15
7216 7220 0.4
7216 7222 0.39
7217 7451 0.25
7217 7452 0.88
7217 8358 0.25
7218 7451 0.25
7219 8345 0.85
7219 8358 0.38
7219 11322 0.98
7220 7221 0.39
7220 8364 0.62
7221 7222 0.2
7221 8361 0.16
7222 11252 0.95
7223 8273 0.62
7223 8298 0.81
7223 9686 0.37
7224 8260 0.06
7224 11356 0.09
7225 7947 1.36
7225 7965 0.33
7225 11393 1.04
7226 7227 0.59
7226 7965 0.27
7226 8201 1.08
7227 8198 0.76
7227 11394 0.35
7228 7288 0.33
7228 8143 0.36
7228 11364 0.48
7229 7288 0.51
7229 8021 0.62
7229 11367 0.25
7230 7231 0.27
7230 7234 0.37
7230 8143 0.04
7231 7232 0.5
7231 7235 0.31
7231 8020 0.1
7232 7236 0.52
7232 11329 0.59
7233 8006 0.46
7233 8008 0.42
7233 11329 0.5
7234 7235 0.14
7234 8142 0.28
7235 7236 0.42
7235 8141 0.34
7236 8141 0.71
7237 7238 1.52
7237 8156 0.22
7237 11326 0.79
7238 8132 0.19
7239 7240 0.23
7239 8116 1.2
7240 7241 0.27
7240 8130 0.36
7240 8132 0.29
7241 8130 0.15
7241 8134 0.22
7242 7243 0.32
7242 8133 0.1
7242 11326 0.69
7243 7244 0.66
7243 8138 0.75
7243 11327 0.43
7244 7245 0.65
7244 7246 0.6
7245 8024 1.29
7245 8138 0.33
7246 7247 0.5
7246 11327 0.58
7246 11330 2.05
7247 8129 0.73
7248 7249 0.28
7248 7289 0.03
7249 8065 0.5
7250 8038 0.58
7250 8961 0.53
7250 11285 0.75
7251 7252 0.2
7251 7253 0.26
7251 11436 0.3
7252 7254 0.36
7253 7254 0.23
7255 11286 0.85
7255 11287 0.03
7256 7257 0.15
7256 7258 0.22
7256 7731 0.15
7256 7735 0.09
7257 7732 0.2
7257 7734 0.1
7257 8669 0.05
7258 7731 0.3
7258 11296 0.34
7259 7260 0.52
7259 11307 0.28
7260 9024 0.39
7260 11306 1.08
7261 7264 0.26
7261 7780 0.15
7261 8990 0.53
7261 11299 0.54
7262 7263 0.25
7262 7799 0.25
7262 7801 0.25
7263 7264 0.57
7263 7782 0.3
7263 11299 0.25
7264 7265 0.21
7264 7266 0.24
7265 7779 0.25
7265 7780 0.26
7266 7779 0.28
7266 7782 0.5
7267 7268 0.49
7267 7785 0.5
7267 7798 0.25
7268 7269 0.53
7268 11305 0.28
7269 7784 0.54
7269 7785 0.45
7270 7271 1.02
7270 7872 0.36
7270 11374 1.02
7271 7272 0.51
7271 7899 1.03
7271 9707 0.72
7272 8774 1.06
7272 9708 0.62
7273 7274 0.2
7273 7902 0.24
7273 8864 0.31
7274 8775 0.22
7274 8776 0.2
7275 7276 0.5
7275 7918 0.49
7275 7924 0.25
7276 7890 0.7
7276 7910 1.32
7277 7909 0.91
7277 8776 0.59
7278 9319 0.32
7278 9320 1.01
7278 9690 0.79
7279 11473 1.36
7280 8386 0.07
7280 11261 0.47
7281 11446 1.22
7282 7295 0.41
7282 7494 0.5
7283 7284 0.12
7283 7336 0.18
7283 8052 0.31
7284 7336 0.25
7284 7459 0.25
7284 10370 0.2
7285 7287 0.61
7286 12381 2.57
7288 8016 0.45
7288 8020 0.32
7289 7443 0.86
7289 9674 0.46
7289 11275 0.3
7290 12646 0.65
7291 10822 0.32
7291 11066 1.0
7291 12385 0.25
7292 9808 1.44
7292 11171 0.25
7292 12424 0.16
7293 11091 0.25
7294 12611 0.6
7294 12635 0.34
7295 7423 0.31
7295 10370 0.19
7296 11102 0.51
7297 11123 0.6
7297 12560 0.11
7298 11123 0.1
7299 11121 0.43
7299 11122 0.06
7300 7301 0.9
7301 11627 1.9
7303 11684 0.5
7304 7305 1.0
7305 10735 1.0
7305 11655 0.29
7306 7307 0.5
7306 11647 0.85
7308 9848 1.1
7308 11675 0.56
7309 7310 0.5
7309 11674 0.37
7310 7311 0.37
7311 7313 0.4
7311 11674 0.45
7312 7313 0.46
7312 11674 0.4
7313 7314 0.64
7314 7315 0.23
7315 11676 1.68
7315 11677 0.4
7318 7319 0.5
7318 9840 0.5
7318 12883 1.2
7319 11664 0.7
7319 12884 0.65
7320 7329 0.63
7321 7322 0.61
7321 7329 0.52
7322 7323 0.69
7323 7324 0.4
7323 7325 0.43
7323 7328 0.12
7324 7325 0.12
7325 7332 1.05
7326 11698 0.71
7326 12927 0.33
7327 7328 0.34
7327 11699 0.18
7328 11699 0.23
7329 12928 0.97
7330 7331 0.25
7331 7332 0.5
7331 7334 0.5
7332 7333 0.49
7333 11702 0.5
7334 7335 0.3
7334 11702 1.0
7336 7337 0.19
7336 7350 0.15
7337 7350 0.1
7337 7517 0.1
7338 7339 0.63
7338 11707 0.18
7339 7340 0.62
7339 9834 0.36
7339 11713 0.42
7340 9835 0.64
7340 11708 0.9
7341 7342 0.5
7341 9835 0.2
7341 11714 0.35
7341 11720 0.5
7342 7346 0.5
7342 9834 0.2
7342 11713 0.26
7343 7344 0.52
7343 7348 0.33
7343 11707 0.23
7344 7345 0.56
7344 7348 0.65
7344 7349 0.53
7345 7346 0.25
7345 11713 0.52
7346 11712 0.5
7347 11719 0.36
7347 11720 0.88
7348 11706 0.32
7349 11706 0.43
7350 8413 0.04
7351 7352 0.5
7351 11701 0.46
7352 7353 0.5
7352 10032 0.5
7354 7355 0.39
7355 7356 0.5
7355 7431 0.41
7356 7358 0.51
7357 7358 0.53
7357 11704 0.51
7358 7360 0.44
7358 11704 0.75
7359 7367 0.46
7360 7394 0.37
7361 7362 0.35
7361 7363 0.3
7362 11705 0.15
7363 7364 0.21
7364 7365 0.13
7364 7367 0.44
7365 7366 0.15
7365 7368 0.47
7366 7369 0.45
7367 7368 0.13
7367 7389 0.28
7368 7369 0.15
7368 7390 0.3
7369 7388 0.35
7370 7385 0.5
7370 11709 0.24
7370 11710 0.25
7371 7372 0.15
7371 7424 0.31
7371 11710 0.1
7372 7373 0.3
7373 7375 0.2
7373 7424 0.12
7374 7376 0.13
7374 7378 0.5
7374 7425 0.23
7375 7376 0.25
7375 7425 0.17
7375 11716 0.48
7376 7377 0.5
7377 7378 0.15
7377 11717 0.15
7379 7380 0.28
7381 7382 0.5
7381 11722 0.2
7382 7383 0.27
7382 11721 0.18
7383 7384 0.22
7383 11722 0.5
7383 11753 2.58
7386 7387 0.5
7386 11715 0.41
7387 7395 0.52
7387 7396 0.46
7387 11709 0.32
7388 7424 0.1
7388 11710 0.31
7389 7390 0.15
7389 7392 0.5
7390 7391 0.49
7390 11710 0.51
7391 7392 0.12
7391 7395 0.4
7391 11709 0.5
7392 7393 0.14
7393 7398 0.68
7393 11703 0.33
7394 7400 0.5
7394 11703 0.5
7395 7397 0.32
7396 7397 0.5
7397 7398 0.22
7397 7405 0.42
7398 7410 0.29
7399 7400 0.5
7399 7410 0.14
7399 11703 0.5
7400 7412 0.54
7401 7403 0.5
7401 11715 0.34
7401 11831 1.26
7402 7403 0.11
7402 7405 0.5
7403 7404 0.11
7404 7406 0.5
7404 11751 0.57
7405 7406 0.19
7406 7407 0.5
7406 7408 0.56
7407 11751 0.5
7408 7409 0.13
7409 7410 0.46
7409 7412 0.5
7411 7412 0.73
7413 7535 0.75
7413 11695 0.36
7414 7416 0.69
7414 7535 0.37
7414 11695 1.0
7415 7416 0.73
7415 7417 0.22
7415 11695 0.4
7416 7417 0.5
7417 11824 0.48
7418 7419 1.88
7418 10081 0.33
7419 7420 1.01
7419 11821 0.5
7419 11822 0.67
7420 7421 1.38
7420 11691 0.86
7422 11203 0.78
7423 7435 0.25
7423 7512 0.5
7424 7425 0.21
7426 7427 0.94
7427 9836 0.16
7428 7434 0.07
7428 7518 0.19
7428 10103 0.27
7428 10367 0.25
7429 8289 0.67
7429 9148 1.1
7429 11005 1.25
7430 11756 0.5
7431 11705 0.06
7432 9154 0.62
7433 9798 0.79
7434 7436 0.08
7435 7438 0.17
7435 7514 0.51
7435 10102 0.11
7436 7437 0.09
7437 10104 0.17
7438 7524 0.53
7438 10371 0.31
7440 10106 0.36
7441 8707 0.21
7441 8709 0.25
7442 8050 0.38
7442 8200 0.37
7443 7444 0.41
7443 8076 0.3
7444 11272 0.25
7444 11275 0.73
7445 7721 0.25
7445 7722 0.48
7446 7581 0.41
7446 9080 0.48
7446 10951 0.51
7447 7498 0.06
7447 7556 0.5
7447 10620 0.5
7448 8132 0.11
7448 8133 0.31
7449 8310 0.38
7449 10162 0.13
7449 10609 0.55
7449 10610 0.55
7450 8694 0.19
7450 8695 0.17
7450 10610 0.38
7452 8353 0.41
7452 11322 0.7
7453 8199 0.54
7453 8201 0.4
7453 8204 0.87
7454 7455 0.48
7454 8370 0.51
7454 10606 0.5
7455 7904 0.87
7455 10613 0.52
7456 7457 0.5
7456 7901 0.5
7457 10608 0.5
7457 12489 0.32
7458 10104 0.16
7459 10370 0.21
7460 7461 0.11
7460 10372 0.13
7461 7462 0.7
7461 10372 0.12
7462 7471 0.23
7462 7473 0.5
7462 8318 0.12
7463 7464 0.14
7463 10789 0.3
7463 12253 0.24
7464 10795 0.06
7464 12252 0.04
7464 12253 0.21
7465 8439 0.4
7465 10526 0.46
7465 12114 0.06
7466 9137 0.51
7466 10504 0.75
7466 10508 0.49
7467 9094 0.4
7467 9095 0.15
7468 8795 0.06
7468 9013 0.22
7470 12485 0.47
7470 12489 0.19
7471 7492 0.43
7471 12571 0.34
7472 12489 0.19
7473 7565 0.51
7473 10372 0.49
7473 10373 0.5
7474 7475 0.42
7474 12118 0.11
7475 7476 0.08
7475 10527 0.06
7475 12266 0.29
7476 10527 0.11
7476 12267 0.35
7477 7478 0.5
7477 10814 0.51
7477 10815 0.55
7477 12216 0.43
7478 8891 0.49
7478 9927 0.5
7479 8540 0.17
7479 12455 0.1
7479 12457 0.12
7480 7481 0.14
7480 7526 0.56
7481 7547 1.03
7481 10881 0.42
7482 10898 1.75
7482 10903 0.21
7482 10904 0.1
7483 7484 0.2
7483 9229 0.1
7484 7486 0.09
7484 9230 0.09
7484 9919 0.22
7485 7487 0.2
7485 9230 0.03
7487 9919 0.17
7488 10915 0.85
7488 12747 0.53
7490 7491 0.55
7490 7616 0.06
7490 7619 0.06
7491 7609 0.06
7491 7610 0.05
7491 7615 0.09
7492 10373 0.5
7492 12597 0.12
7493 7494 0.17
7493 10369 0.44
7493 12612 0.06
7494 7507 0.49
7495 10421 0.63
7495 12724 0.65
7497 10414 0.63
7497 10415 0.52
7498 7499 0.5
7498 10377 0.9
7499 7500 0.5
7499 10376 0.4
7500 7501 0.55
7500 10381 0.43
7501 7637 0.43
7502 7666 0.15
7502 7667 0.08
7502 7701 0.4
7503 7566 0.51
7503 7595 0.5
7503 10377 0.5
7504 7575 0.55
7504 7579 0.25
7504 10380 0.25
7505 7506 0.5
7505 9631 0.08
7506 10346 0.06
7507 7567 0.5
7507 10374 0.25
7508 7629 1.29
7508 12202 1.4
7509 7628 1.29
7509 12201 1.4
7512 8072 0.21
7512 8081 0.17
7513 8082 0.18
7513 8087 0.12
7513 10374 0.5
7514 7520 0.5
7514 7524 0.17
7516 9338 0.07
7517 7518 0.14
7517 10367 0.17
7518 8413 0.04
7520 7525 0.17
7520 7569 0.5
7521 10973 1.47
7521 10974 0.37
7521 12236 0.18
7522 7523 0.5
7522 10699 1.0
7522 10705 0.47
7523 10711 0.52
7523 10935 1.01
7524 7525 0.48
7525 7571 0.5
7526 12586 0.42
7526 12589 0.6
7529 7530 0.13
7531 11700 0.32
7531 11704 0.72
7532 7533 0.27
7532 11711 0.14
7533 7534 0.19
7537 7538 0.2
7537 10371 0.5
7537 10375 0.5
7538 7539 0.16
7538 7540 0.16
7538 10371 0.69
7539 7576 1.15
7540 7577 1.15
7541 9831 0.66
7542 12596 0.12
7542 12598 0.28
7543 11172 1.19
7543 11179 0.7
7544 7575 0.7
7544 10375 0.35
7545 7546 0.18
7545 10609 0.57
7545 12589 0.28
7546 7547 0.25
7546 7553 0.52
7546 12589 0.34
7547 9202 0.25
7548 12606 0.41
7549 7550 0.75
7550 11112 0.45
7550 11118 0.45
7552 11115 0.84
7553 7554 0.5
7553 9218 0.5
7553 10609 0.41
7554 10162 0.5
7554 10164 0.49
7556 7562 0.28
7556 8321 0.22
7557 10980 1.08
7557 12236 0.09
7557 12240 0.92
7558 7561 0.5
7558 7903 0.44
7559 7560 0.14
7559 7588 0.68
7559 7589 0.42
7560 7563 0.48
7560 10620 0.4
7561 7562 0.24
7561 7563 0.2
7561 10614 0.51
7562 7563 0.31
7562 8321 0.33
7563 10620 0.31
7564 7565 0.57
7564 10372 0.56
7564 10376 1.0
7565 7566 0.5
7565 10377 0.5
7566 10373 0.5
7567 7568 0.5
7568 7596 0.5
7568 10378 0.25
7569 7570 0.5
7569 7571 0.15
7570 7572 0.15
7570 7598 0.49
7571 7572 0.5
7572 7600 0.5
7573 10375 0.5
7573 10379 0.5
7574 7575 0.19
7574 7579 0.44
7575 7576 0.13
7575 7577 0.12
7576 7610 1.19
7577 7615 1.19
7578 7579 0.12
7578 7604 0.52
7578 10379 0.52
7579 7606 0.51
7580 9202 0.4
7580 10615 0.52
7580 10881 0.95
7581 7648 0.51
7581 10952 0.8
7582 7587 0.27
7582 10980 0.3
7582 12239 0.3
7583 7587 0.18
7583 10981 0.03
7584 8365 0.5
7584 10618 0.53
7584 10624 0.48
7585 7586 0.4
7585 7588 0.48
7585 10618 0.51
7585 10619 0.51
7586 7588 0.62
7586 10625 0.1
7588 7589 0.5
7589 7590 0.5
7589 7591 0.5
7590 7632 0.5
7590 10626 0.5
7591 10620 0.5
7591 10626 0.5
7592 12247 0.2
7593 7594 0.52
7593 7595 0.49
7593 10376 0.5
7593 10377 0.49
7594 7638 0.51
7594 10381 0.5
7594 10382 0.5
7595 7596 0.51
7595 10382 0.51
7596 7597 0.51
7596 8415 0.7
7597 8414 0.69
7597 10382 0.5
7597 10383 0.49
7598 7599 0.51
7598 7600 0.17
7599 7601 0.19
7599 7643 0.5
7600 7601 0.5
7601 7646 0.53
7602 7604 0.5
7602 10379 0.5
7602 10384 0.52
7603 7650 0.31
7603 10384 0.25
7604 7605 0.5
7604 7606 0.12
7605 10384 0.5
7605 10385 0.13
7606 7607 0.38
7606 10385 0.52
7607 7608 0.5
7607 7609 0.25
7607 10380 0.3
7608 7616 0.44
7608 7657 0.49
7608 10385 0.37
7609 7616 0.54
7609 10380 0.43
7610 7661 1.26
7611 7612 0.35
7611 7614 0.17
7613 7614 0.42
7615 7662 1.26
7616 7659 0.5
7617 8262 0.22
7617 10947 0.26
7618 9027 0.11
7618 9028 0.17
7618 9030 0.16
7619 7660 0.49
7620 12470 0.39
7621 10950 0.57
7621 10954 0.15
7622 7642 0.31
7622 8118 0.19
7622 8126 0.13
7623 8139 0.22
7623 8144 0.15
7623 10388 0.31
7624 7625 0.24
7624 7626 0.19
7625 7629 0.1
7625 9931 1.46
7626 7627 0.25
7626 11055 0.13
7627 7628 0.1
7627 9932 1.46
7630 7631 0.51
7630 7632 1.0
7630 10624 0.5
7630 10625 0.49
7631 7672 0.49
7631 10630 0.5
7631 10631 0.5
7632 7633 0.5
7632 7634 0.51
7633 7675 0.5
7633 10631 0.5
7633 10632 0.5
7634 10626 0.53
7634 10632 0.49
7635 10749 0.45
7636 8234 0.17
7636 9896 0.28
7636 11189 0.42
7637 7638 0.5
7637 10381 0.5
7637 10386 0.5
7638 7639 0.5
7639 7681 0.52
7639 10386 0.5
7640 10382 0.49
7640 10383 0.5
7640 10387 0.5
7641 9641 0.35
7641 10383 0.5
7641 10387 0.5
7641 10388 0.37
7642 10383 0.37
7642 10388 0.5
7643 7644 0.5
7643 7646 0.19
7644 7647 0.17
7645 7711 0.1
7645 9080 0.44
7645 10954 0.17
7646 7647 0.5
7648 7712 0.5
7648 9080 0.4
7648 10956 0.6
7649 7650 0.08
7649 10384 0.48
7649 10389 0.5
7650 7651 0.12
7651 7653 0.43
7651 7654 0.12
7652 7653 0.12
7652 7693 0.39
7652 10389 0.11
7655 7657 0.5
7656 7658 0.5
7656 7695 0.47
7657 7659 0.47
7657 10390 0.24
7658 7667 0.5
7658 7698 0.45
7658 10390 0.31
7659 7660 0.18
7660 10391 0.18
7661 7663 0.24
7662 7664 0.24
7663 7706 0.77
7664 7707 0.77
7665 7895 0.51
7666 7667 0.1
7667 7700 0.47
7668 7670 0.23
7668 7833 1.0
7668 10409 0.5
7668 10414 0.48
7669 10621 1.0
7669 10893 0.68
7670 7836 0.25
7670 8239 0.64
7670 8245 0.52
7671 7672 0.5
7671 8363 0.52
7671 10630 0.51
7671 10636 0.51
7672 7673 0.5
7672 7674 0.5
7673 7715 0.51
7673 10636 0.5
7673 10637 0.51
7674 7675 0.52
7674 10631 0.5
7674 10637 0.5
7675 7676 0.5
7675 7677 0.5
7676 7716 0.5
7676 10637 0.49
7676 10638 0.5
7677 10632 0.5
7677 10638 0.5
7678 7679 0.03
7678 7689 0.31
7678 7714 0.05
7679 7691 0.18
7679 7713 0.07
7680 7681 0.5
7680 10386 0.5
7680 10392 0.5
7681 7682 0.5
7682 7724 0.49
7682 10392 0.5
7683 9643 0.25
7683 10387 0.5
7683 10393 0.5
7684 9641 0.15
7684 9642 0.11
7684 9643 0.25
7684 9644 0.3
7685 7730 0.48
7685 9644 0.2
7685 10393 0.5
7685 10394 0.37
7686 7687 0.3
7686 9642 0.26
7686 10388 0.5
7686 10394 0.5
7687 8146 0.19
7688 7742 0.5
7688 10394 0.38
7689 7690 0.19
7690 8184 0.06
7691 7692 0.22
7691 7694 0.5
7691 8160 0.15
7692 7751 0.25
7693 7694 0.51
7693 7695 0.5
7693 8184 0.25
7694 7754 0.49
7694 8188 0.37
7694 10395 0.13
7695 7696 0.38
7695 7698 0.5
7696 7697 0.12
7696 10395 0.5
7696 10396 0.52
7697 7699 0.5
7697 7758 0.49
7697 10395 0.37
7698 7700 0.51
7698 10396 0.38
7699 7704 0.5
7699 10396 0.11
7700 7701 0.12
7701 7703 0.38
7701 7705 0.25
7702 7703 0.06
7702 7704 0.12
7702 10396 0.5
7703 7704 0.19
7703 7708 0.28
7704 7767 0.49
7704 10397 0.5
7705 7708 0.29
7706 7709 0.46
7707 7709 0.46
7708 7709 0.24
7709 7710 0.47
7709 10397 0.14
7710 9154 0.55
7710 10397 0.5
7711 8266 1.32
7711 9081 0.54
7711 10954 0.21
7712 8258 0.15
7712 10955 0.21
7713 8157 0.12
7713 8183 0.87
7714 8155 0.12
7714 8185 0.87
7715 7716 1.0
7715 10643 0.95
7716 7717 0.5
7717 10638 0.5
7718 7840 0.5
7718 12223 0.5
7719 7795 0.62
7720 7724 0.5
7720 10392 0.5
7721 9035 0.73
7721 11303 1.38
7722 7723 0.29
7722 7725 0.54
7723 11302 0.92
7723 11309 0.46
7725 7728 0.71
7725 11303 0.46
7726 7805 0.38
7726 10398 0.5
7727 7730 0.5
7727 10393 0.5
7727 10399 0.37
7728 8669 0.29
7728 11303 0.79
7729 7738 0.5
7729 7809 0.37
7729 10399 0.23
7730 7739 0.38
7731 7732 0.13
7731 11302 0.36
7733 7734 0.05
7733 7740 0.19
7733 8669 0.1
7734 7735 0.2
7734 11297 0.19
7735 7736 0.16
7735 11296 0.52
7736 7737 0.13
7736 11297 0.15
7737 7741 0.26
7737 7759 1.15
7738 7818 0.38
7738 10400 0.62
7739 7742 0.38
7739 10394 0.5
7740 11292 0.64
7740 11297 0.17
7741 7744 0.62
7741 11297 0.29
7742 7743 0.05
7742 7750 0.24
7743 7750 0.26
7743 9040 0.12
7744 7745 0.24
7744 7746 0.15
7744 7752 0.49
7745 7746 0.04
7745 7748 0.11
7745 11292 0.72
7746 7747 0.25
7747 7749 0.2
7747 11291 0.29
7748 7749 0.29
7748 11292 0.97
7749 11287 0.91
7751 7754 0.5
7751 8163 0.15
7751 9040 0.09
7752 9734 0.21
7752 11291 0.38
7753 7757 0.51
7753 7768 0.08
7753 7825 0.38
7753 8169 0.1
7754 8190 0.25
7754 10401 0.5
7755 7756 0.75
7755 8977 0.29
7755 11290 0.47
7756 7766 0.62
7756 11295 0.54
7757 7760 0.49
7757 7830 0.39
7757 10401 0.12
7758 8188 0.37
7758 8190 0.25
7758 8194 0.35
7758 8197 0.25
7758 9645 0.5
7759 11290 0.84
7759 11295 0.42
7759 12204 0.67
7759 12205 0.67
7760 7761 0.7
7760 7832 0.37
7761 7836 0.52
7761 10402 0.19
7762 11296 0.32
7762 12204 0.1
7762 12205 0.16
7763 7764 0.31
7763 7771 0.15
7764 7765 0.19
7764 7769 0.13
7765 7766 0.17
7765 11295 0.51
7766 11300 0.45
7767 7772 0.5
7767 9645 0.5
7768 7781 0.38
7768 8171 0.11
7768 10400 0.3
7769 7770 0.45
7769 11300 0.19
7770 7771 0.35
7772 9154 0.5
7772 10397 0.51
7773 11300 0.62
7774 7845 0.37
7774 10403 0.5
7775 11309 1.17
7776 7777 0.13
7776 10640 1.0
7776 10641 0.13
7777 10641 0.21
7777 10646 1.34
7777 10647 0.89
7778 7779 0.21
7778 9735 0.49
7778 11305 0.85
7780 8990 0.5
7781 7783 0.5
7781 7821 0.43
7781 7825 0.07
7781 8425 0.13
7782 7799 0.34
7782 11305 0.3
7783 7822 0.52
7783 7826 0.07
7783 7840 0.5
7783 8176 0.14
7784 9672 0.55
7784 9735 0.71
7784 11306 0.65
7785 10046 0.3
7786 10643 0.5
7786 10649 0.43
7786 12222 0.43
7787 10648 0.97
7787 10654 1.25
7787 12221 0.05
7787 12222 0.04
7788 10643 0.98
7788 10644 0.04
7788 10649 0.72
7789 7790 0.04
7790 10057 0.61
7791 7792 0.04
7793 7796 1.0
7793 10644 0.51
7793 10650 0.51
7794 11298 0.04
7794 11304 1.01
7794 11340 0.73
7795 7796 0.5
7795 7802 0.5
7795 10644 1.01
7796 7800 0.5
7796 10404 0.5
7797 7799 0.25
7798 7799 0.25
7798 11305 0.4
7800 7803 0.5
7800 7906 0.49
7800 12689 0.5
7801 11294 0.5
7801 11299 0.25
7802 7805 0.49
7802 10398 0.37
7802 10404 0.5
7803 7808 0.51
7803 10404 0.5
7804 8975 1.0
7804 8990 0.15
7804 11294 0.6
7805 7806 0.51
7806 7808 0.5
7806 10404 0.5
7807 8975 0.3
7807 11293 0.88
7807 11294 0.5
7808 12691 0.51
7809 7818 0.5
7809 10405 0.49
7810 7811 0.14
7810 8346 0.2
7810 11322 0.34
7811 8347 0.5
7811 8349 0.3
7811 9687 2.24
7812 8656 0.07
7812 8657 0.29
7812 8659 0.05
7813 7820 0.4
7813 10405 0.51
7813 10411 0.5
7814 9264 0.31
7814 9266 0.32
7814 9267 1.0
7815 9260 2.0
7815 9273 0.29
7815 9275 0.32
7816 7817 0.2
7816 8781 0.2
7817 8984 0.52
7818 7819 0.49
7818 7821 0.5
7819 10405 0.5
7819 10406 0.31
7819 12224 0.42
7820 12223 0.06
7820 12705 0.5
7821 7822 0.37
7821 10400 0.45
7822 10406 0.25
7823 7824 1.26
7823 11293 1.16
7823 11337 0.76
7824 11298 0.89
7824 11340 0.44
7825 7826 0.5
7825 7830 0.5
7825 8424 0.13
7826 7827 0.5
7826 8175 0.14
7826 10407 0.5
7827 7831 0.51
7827 7840 0.12
7827 8179 0.15
7827 12707 0.51
7828 9019 1.04
7828 9241 0.36
7828 11340 1.27
7829 7843 1.15
7829 9241 0.6
7829 11336 1.4
7830 7832 0.5
7830 10407 0.48
7831 10407 0.53
7831 10408 0.5
7831 10413 1.0
7832 7833 0.51
7832 7836 1.01
7833 10407 0.5
7833 10408 0.49
7834 7835 0.03
7834 11336 0.14
7834 11337 1.4
7835 7837 0.32
7835 9718 0.7
7835 11336 0.11
7836 7841 0.55
7836 10409 0.72
7837 9717 0.7
7837 9718 0.66
7837 9725 0.54
7838 7844 0.31
7838 10409 0.19
7839 9244 0.5
7839 9725 0.3
7839 11333 0.51
7840 8180 0.15
7841 7845 0.51
7841 10403 0.37
7841 10409 0.5
7842 7843 0.38
7842 9239 0.5
7843 11339 0.79
7844 10414 0.51
7844 10415 0.63
7844 12563 0.25
7845 7846 0.5
7845 7854 0.67
7846 7849 0.5
7846 10292 0.68
7846 10409 0.47
7847 7848 0.75
7847 9238 0.6
7847 9728 0.28
7848 7850 0.54
7848 9238 0.53
7849 7855 0.76
7849 10409 0.73
7849 12647 0.06
7850 7851 0.28
7850 8986 0.59
7850 11338 0.92
7851 7852 0.11
7851 7853 0.11
7852 7853 0.11
7852 9731 0.25
7853 9730 0.41
7853 9732 0.4
7854 7856 0.25
7854 10292 0.5
7855 10292 0.52
7855 10293 0.31
7856 7859 0.52
7856 10291 0.62
7857 7860 1.0
7857 8986 0.24
7857 9731 0.19
7858 8860 2.06
7858 9732 0.45
7858 11373 1.22
7859 10292 0.24
7859 10293 0.58
7860 7862 1.01
7860 9240 1.27
7860 11335 0.63
7861 7999 0.69
7861 9723 0.79
7861 11335 0.19
7862 11370 1.13
7862 11373 0.47
7863 7864 0.09
7863 7866 0.38
7864 8334 0.12
7865 7870 0.31
7865 10356 0.1
7866 7875 0.37
7867 7868 0.4
7867 8772 1.08
7867 11375 0.5
7867 11376 1.73
7868 8773 0.55
7868 9707 0.25
7868 11375 0.29
7869 8049 0.51
7869 8200 0.13
7870 7877 0.12
7871 7872 0.85
7871 9712 0.16
7871 11375 0.89
7872 7873 0.3
7872 11375 0.91
7873 9714 0.37
7873 9715 0.54
7874 8860 0.7
7874 9710 0.39
7874 9712 0.15
7875 7876 0.13
7876 7878 0.51
7877 10357 0.5
7879 7881 0.58
7879 9703 0.65
7879 9713 0.56
7880 10357 0.25
7881 9705 0.43
7881 11371 0.16
7882 8049 0.24
7883 8285 0.49
7883 8411 0.52
7883 8692 0.15
7884 8288 0.49
7884 8410 0.52
7884 8691 0.12
7885 7988 0.63
7885 8746 0.39
7885 11371 1.11
7886 7888 0.79
7886 8411 0.53
7887 7889 0.79
7887 8410 0.53
7888 7892 0.48
7889 7893 0.48
7890 7891 0.28
7890 7896 0.37
7890 8746 0.55
7891 7896 0.2
7891 11371 0.74
7892 7895 0.5
7893 7897 0.5
7894 7898 0.24
7896 9715 0.79
7896 11374 0.8
7897 7900 0.51
7898 10596 0.25
7899 8774 0.5
7899 11374 1.0
7901 7903 0.06
7901 8231 0.14
7902 8776 0.2
7902 11400 0.39
7903 8232 0.12
7904 7964 0.15
7904 8229 0.29
7905 7907 0.76
7905 7924 1.0
7905 8863 0.53
7905 11400 0.99
7906 10650 0.51
7906 10656 0.5
7907 7908 0.24
7907 7922 1.01
7908 7909 0.72
7908 8862 0.25
7909 7912 1.25
7909 11400 1.07
7910 8863 0.73
7910 11374 0.66
7911 7913 0.83
7911 7914 0.75
7912 7913 0.5
7912 7919 0.96
7912 8862 0.81
7913 11399 0.75
7914 7915 0.23
7914 8777 0.75
7915 11399 0.49
7916 7919 0.54
7916 11399 0.55
7917 7928 0.3
7917 12212 0.85
7918 7926 0.13
7918 8746 0.98
7919 7921 0.76
7919 9323 1.17
7920 7930 0.3
7920 8515 0.14
7921 7932 1.68
7921 9323 1.24
7921 11397 1.29
7922 7924 0.76
7922 7929 0.59
7922 11397 0.61
7923 7928 0.15
7923 8616 0.12
7924 7925 0.55
7925 7926 0.25
7925 7929 0.63
7925 11398 0.53
7926 7927 0.75
7927 7935 0.36
7927 11398 0.62
7929 7932 1.57
7930 7937 0.7
7930 8616 0.15
7931 8616 0.12
7931 10549 0.3
7932 11395 0.19
7933 7941 0.65
7934 7935 0.5
7934 11395 1.45
7934 11396 1.25
7934 11398 0.66
7935 8858 0.12
7936 7939 1.0
7936 7946 0.7
7936 8858 1.16
7937 8619 0.16
7938 7940 0.2
7938 7943 0.65
7939 7944 0.28
7939 11396 0.28
7940 10550 0.18
7941 7945 0.26
7941 8630 0.15
7942 7944 1.07
7942 7956 1.66
7942 11395 1.78
7943 7951 0.26
7943 8629 0.13
7944 7947 0.39
7945 7952 0.74
7945 8635 0.04
7946 7948 1.12
7946 7985 0.67
7947 7953 0.66
7948 7950 0.19
7948 7953 0.98
7948 7983 0.79
7949 7958 0.9
7949 7974 1.3
7949 11394 0.71
7950 7975 1.81
7950 11394 0.91
7951 7954 0.74
7951 8633 0.15
7952 7967 0.86
7952 8646 0.12
7953 7965 0.66
7953 11394 0.69
7954 7966 0.86
7954 8645 0.12
7955 8719 0.04
7956 8206 1.75
7956 11393 1.67
7956 11409 1.43
7957 7961 0.57
7957 7966 0.27
7957 8719 0.09
7958 8192 0.3
7958 11392 0.93
7959 7962 0.77
7959 7967 0.27
7959 8721 0.12
7960 8721 0.57
7960 8767 0.43
7960 10552 0.31
7961 7963 0.71
7961 8716 0.1
7962 8713 0.18
7962 8714 0.16
7963 8710 0.17
7964 8225 0.29
7964 10619 0.43
7965 11394 0.8
7966 7969 0.13
7967 7968 0.13
7968 7970 0.35
7968 8725 0.12
7969 7971 0.35
7969 8722 0.14
7970 7978 0.45
7970 8726 0.13
7971 7973 0.45
7971 8727 0.11
7972 8727 0.26
7972 8728 0.35
7973 7981 0.24
7973 8728 0.12
7974 7975 0.25
7974 7976 0.61
7974 8192 1.11
7975 7976 0.55
7975 11365 0.46
7976 8848 0.65
7977 8187 0.1
7977 8847 1.84
7977 8848 0.36
7977 8849 0.3
7978 7979 0.24
7978 8729 0.1
7979 7982 0.31
7979 8731 0.11
7980 7996 0.77
7980 9699 1.19
7980 11366 0.28
7981 7987 0.31
7981 8730 0.12
7982 7991 0.26
7983 7984 0.18
7983 7986 0.33
7984 7986 0.24
7984 7990 1.92
7984 9700 1.59
7985 7986 0.1
7985 7988 1.52
7987 7989 0.08
7987 7994 0.26
7988 8858 0.96
7988 11368 1.61
7990 7992 0.81
7990 11368 0.3
7991 7995 0.54
7992 9702 0.4
7992 11369 0.05
7993 11369 0.47
7993 11372 1.48
7993 11373 2.58
7994 7997 0.54
7994 8769 0.1
7995 7998 0.29
7995 8734 0.15
7996 8854 0.48
7996 9695 0.74
7996 9701 0.99
7997 8001 0.29
7997 8732 0.13
7998 8002 0.33
7998 8736 0.15
7999 8853 1.47
7999 11370 0.26
8000 8004 0.26
8000 8005 0.48
8000 9723 1.16
8000 9724 0.93
8001 8007 0.33
8001 8735 0.15
8002 8010 0.33
8002 8738 0.14
8003 8004 0.82
8003 8024 1.12
8003 9719 0.63
8003 11332 0.9
8004 8005 0.44
8004 8008 0.89
8005 8006 0.14
8006 8011 1.0
8006 8853 0.56
8007 8014 0.33
8007 8737 0.12
8008 11329 0.31
8009 8011 0.97
8009 11329 0.15
8010 8018 0.07
8010 8740 0.12
8011 8012 0.25
8012 8015 1.21
8012 9695 0.99
8012 11367 0.75
8013 8740 0.3
8014 8019 0.07
8014 8739 0.13
8015 8016 0.77
8015 8148 0.68
8015 8850 0.53
8016 11364 0.37
8016 11367 0.4
8017 8739 0.04
8017 8742 0.05
8017 10572 0.25
8018 8023 0.92
8018 8743 0.16
8019 8025 0.92
8019 8742 0.14
8020 8021 0.4
8020 8143 0.28
8022 8051 0.25
8023 8026 0.36
8023 8744 0.12
8024 11329 1.15
8025 8027 0.36
8026 8030 0.45
8026 8747 0.1
8027 8031 0.11
8027 8745 0.11
8028 8029 1.24
8028 11334 1.0
8029 9688 1.5
8029 11330 0.97
8029 11331 1.01
8030 8033 0.47
8030 8749 0.1
8031 8036 0.47
8031 8748 0.11
8032 8035 0.5
8032 8337 0.07
8032 8338 0.2
8032 8339 0.52
8033 8039 0.67
8033 8752 0.1
8034 8041 1.27
8034 8856 1.75
8035 8338 0.57
8035 8339 0.2
8035 8340 0.2
8036 8037 0.67
8036 8751 0.09
8037 8042 0.34
8037 8754 0.1
8038 8856 0.24
8038 8959 0.78
8038 11284 0.05
8039 8040 0.34
8039 8753 0.09
8040 8043 0.22
8041 11276 0.51
8041 11277 0.5
8041 11280 0.5
8042 8046 0.22
8043 8757 0.09
8044 8045 0.5
8044 9691 1.15
8044 9739 0.48
8044 11276 0.47
8045 11277 0.07
8045 11281 0.7
8046 8756 0.12
8047 8048 0.41
8047 11281 1.15
8047 11285 0.27
8047 11286 0.47
8048 11290 1.01
8051 8060 0.14
8052 10366 0.18
8053 8054 0.16
8053 9737 0.46
8053 11281 0.92
8053 11286 1.0
8054 9736 0.46
8054 11282 0.19
8055 8058 0.42
8055 11282 0.27
8055 11283 0.53
8056 8061 0.14
8057 8994 0.22
8058 8059 0.24
8058 11283 0.21
8059 8062 0.36
8059 11278 0.55
8060 8067 0.85
8061 8063 0.85
8061 8994 0.17
8062 8068 0.43
8062 11278 0.34
8062 11279 0.32
8063 8066 0.05
8063 8071 0.05
8063 8072 0.78
8064 9736 1.23
8064 11278 0.44
8065 9737 0.85
8065 9739 0.49
8066 8067 0.05
8066 8247 1.9
8067 8071 0.05
8067 8078 0.78
8068 8069 0.32
8068 9674 0.42
8068 11275 0.55
8069 8070 0.76
8069 11279 0.45
8070 11275 0.44
8071 8249 1.9
8072 8073 0.18
8073 8074 0.09
8073 8081 0.2
8075 9201 0.5
8075 11271 0.55
8075 11272 0.4
8076 11271 0.39
8076 11272 0.37
8077 8079 0.05
8078 8079 0.18
8079 8080 0.2
8080 8084 0.17
8081 8082 0.17
8082 8087 0.28
8083 11262 0.6
8083 11263 0.23
8084 8086 0.28
8085 11262 0.32
8086 8090 0.18
8087 8088 0.18
8088 8092 0.36
8088 8421 0.2
8089 11262 0.5
8089 11265 0.33
8089 11266 0.54
8090 8091 0.36
8091 8095 0.17
8092 8093 0.17
8092 8421 0.17
8093 8097 0.33
8093 8420 0.17
8094 9691 1.15
8094 11264 2.05
8094 11268 0.86
8094 11270 0.38
8095 8096 0.33
8096 8099 0.1
8097 8098 0.1
8097 8420 0.17
8098 8104 0.05
8098 8415 0.23
8099 8102 0.05
8100 8104 0.09
8100 8111 0.87
8101 8102 0.1
8101 8109 0.87
8102 8108 0.4
8103 8105 0.77
8103 8352 2.09
8103 11264 0.77
8104 8106 0.4
8105 8110 0.73
8105 8353 2.0
8106 8111 0.18
8106 8112 0.1
8107 9687 0.52
8107 11322 2.21
8107 11325 0.33
8108 8109 0.14
8108 8113 0.1
8109 8131 1.0
8110 11264 0.82
8110 11267 1.33
8111 8128 1.0
8112 8117 0.28
8112 8414 0.16
8113 8115 0.28
8114 8164 1.21
8114 11325 0.39
8114 11328 1.06
8115 8119 0.19
8116 8123 0.56
8116 11328 0.19
8117 8118 0.19
8117 8414 0.13
8118 8126 0.3
8119 8120 0.3
8120 8135 0.15
8121 9689 1.26
8121 11270 1.39
8122 8124 0.21
8122 8667 0.34
8122 8668 0.39
8123 8125 0.5
8123 8127 0.18
8123 8130 1.09
8124 8666 0.32
8124 11310 0.45
8125 8127 0.52
8126 8139 0.15
8127 8129 1.15
8127 9688 1.08
8128 8137 0.19
8128 8158 0.5
8129 8130 0.34
8129 11327 0.29
8131 8136 0.16
8131 8159 0.5
8132 8134 0.27
8133 8134 0.39
8134 11327 0.35
8135 8136 0.3
8136 8145 0.05
8137 8139 0.3
8137 8144 0.05
8138 11326 0.31
8140 8141 0.11
8140 8142 0.1
8140 11326 0.92
8141 8142 0.04
8143 8154 1.66
8144 8146 0.04
8145 8151 0.04
8146 8157 0.46
8147 8148 0.48
8147 8150 0.66
8147 11364 0.62
8148 8149 0.16
8148 8150 0.14
8149 8150 0.2
8149 8187 1.61
8150 8152 1.52
8150 8845 1.69
8151 8155 0.46
8152 8153 0.75
8152 8177 0.46
8153 8154 0.77
8153 9692 0.46
8153 11364 1.65
8154 8156 1.07
8154 8173 0.58
8155 8159 0.11
8156 8161 1.42
8156 8170 0.74
8157 8158 0.08
8158 8162 0.82
8159 8160 0.82
8160 8163 0.26
8161 11324 0.84
8162 8166 0.26
8164 8165 0.51
8164 11324 0.79
8165 8167 0.74
8165 9687 1.0
8166 9040 0.15
8167 8168 0.5
8168 8347 1.42
8169 8424 0.2
8170 8172 0.6
8170 11324 1.25
8171 8425 0.2
8172 8173 0.63
8172 8174 0.75
8173 8174 0.59
8173 11361 0.5
8174 8178 0.65
8174 8842 0.41
8175 8179 1.0
8175 8424 0.49
8176 8180 1.0
8176 8425 0.49
8177 8307 1.87
8177 9692 0.54
8177 11360 1.22
8178 8307 1.15
8178 8308 1.25
8178 8842 0.49
8178 11361 1.0
8179 12136 0.68
8180 12135 0.68
8181 8182 0.4
8181 9694 0.12
8181 11360 1.23
8182 8845 0.34
8182 11363 0.23
8183 8189 0.08
8185 8186 0.08
8186 8193 0.52
8187 11363 1.71
8189 8195 0.52
8191 8192 0.28
8191 8196 1.8
8191 11362 0.94
8193 8194 0.16
8193 8239 1.51
8194 10402 0.37
8195 8197 0.15
8195 8245 1.51
8196 8223 0.44
8196 11392 1.5
8198 8199 0.53
8198 11392 0.7
8199 8201 0.26
8199 11392 0.73
8201 8205 1.39
8202 9099 0.08
8202 10764 0.4
8203 8237 0.26
8203 8239 0.99
8203 12647 0.2
8204 8210 1.01
8204 8218 2.12
8205 8209 0.75
8205 11393 0.68
8206 11391 0.25
8206 11408 0.86
8207 8241 0.26
8207 8245 0.99
8207 12563 0.13
8208 8209 0.72
8208 9316 0.88
8208 11391 0.91
8209 8210 0.95
8210 8211 0.8
8211 8212 0.2
8212 8215 1.15
8213 8221 2.19
8214 8230 0.63
8214 11406 0.99
8215 8230 0.3
8215 11389 0.58
8216 8217 2.19
8218 8219 0.13
8218 11389 0.25
8218 11390 1.52
8219 8220 0.47
8219 11389 0.25
8220 8227 0.56
8220 8228 0.56
8222 9118 0.75
8222 10776 0.1
8223 11362 1.9
8224 8888 0.32
8224 10776 0.17
8225 8231 1.06
8226 8227 1.28
8226 8252 1.1
8226 11359 0.49
8227 8228 0.34
8227 11390 1.02
8228 8250 1.46
8228 8252 1.25
8229 8232 1.06
8231 8251 0.53
8232 8256 0.53
8233 12043 0.25
8233 12107 0.05
8233 12108 1.01
8234 9897 0.28
8234 10756 0.45
8235 8236 0.79
8235 8593 0.65
8235 8595 0.23
8235 11386 1.13
8236 11383 1.75
8236 11385 0.5
8237 8238 0.04
8240 8244 1.42
8240 11385 0.19
8240 11388 1.7
8241 8242 0.04
8243 8269 1.12
8243 8826 1.25
8243 11386 0.31
8244 8248 1.26
8244 8264 1.48
8244 11386 0.87
8246 12103 0.29
8247 8251 1.1
8247 8318 0.71
8248 8252 1.67
8248 8257 1.49
8248 11388 0.24
8249 8256 1.1
8249 8318 0.68
8250 11388 0.24
8252 8253 0.64
8253 8254 0.52
8253 8257 1.03
8253 8839 0.47
8254 8255 0.28
8254 8838 0.65
8255 8733 0.52
8255 11356 0.75
8257 9197 0.5
8257 11356 0.78
8258 8263 0.44
8258 10955 0.15
8259 12249 0.27
8259 12250 0.24
8260 9198 0.41
8260 9199 0.2
8261 8282 0.61
8261 9199 0.24
8261 11353 0.36
8262 8897 0.1
8263 8265 0.66
8264 9195 0.17
8264 9197 0.44
8264 9198 0.74
8265 9111 0.29
8265 10959 0.72
8266 9110 0.84
8267 8826 0.49
8267 9191 0.57
8267 9195 0.26
8268 8271 0.6
8268 10963 0.62
8269 8584 1.41
8269 8825 0.55
8269 8826 0.25
8270 8272 0.52
8270 8273 0.19
8270 8582 1.33
8270 9192 0.5
8271 9110 0.42
8271 11770 0.68
8272 8278 0.11
8272 8298 0.14
8272 9191 0.65
8273 8298 0.37
8274 8280 1.57
8274 8608 0.22
8275 8281 1.57
8275 8607 0.19
8276 8821 1.61
8276 8823 0.81
8276 9685 0.26
8277 11770 0.38
8277 12036 0.4
8277 12380 1.39
8278 8283 0.18
8278 11353 0.38
8279 8514 0.14
8279 11043 0.62
8279 12302 0.26
8280 8285 0.51
8280 8670 0.19
8281 8288 0.51
8281 8626 0.21
8282 8284 0.59
8282 8286 0.58
8283 8298 0.04
8283 11353 0.84
8283 11354 1.29
8284 8296 1.24
8284 8824 1.02
8284 11357 0.84
8285 8679 0.23
8286 8287 0.63
8287 8733 1.0
8287 11357 0.06
8288 8672 0.19
8289 8429 0.99
8290 8302 0.54
8290 11357 0.8
8290 11360 2.41
8291 8362 0.81
8291 9666 0.69
8292 8293 0.5
8292 8916 0.18
8293 8362 0.51
8293 12138 0.82
8294 8619 0.31
8294 8621 0.1
8294 10550 0.5
8295 8296 0.68
8295 8822 0.39
8295 8823 0.51
8295 11355 0.62
8296 8300 0.87
8297 8829 0.38
8297 11355 0.1
8300 8301 0.23
8300 8302 0.41
8301 8303 0.43
8301 11358 0.37
8302 8303 0.3
8303 8305 0.37
8304 9065 0.22
8304 9066 0.2
8304 9068 0.49
8305 8306 0.12
8305 8307 0.29
8305 11358 0.58
8306 8307 0.25
8306 8836 0.26
8308 8311 0.48
8308 8836 0.51
8309 10531 0.19
8309 10797 0.05
8309 12257 0.05
8309 12258 0.53
8311 8312 0.75
8311 12975 0.37
8312 8313 0.26
8312 11320 0.06
8313 8315 0.29
8313 8831 0.12
8314 9099 0.05
8314 9100 0.16
8314 9101 0.14
8315 8316 0.32
8315 8329 0.66
8316 8328 0.58
8316 11320 0.24
8317 9128 0.48
8317 9130 0.13
8317 9133 0.27
8318 12567 0.21
8319 8832 0.21
8319 11320 0.91
8320 8328 0.79
8320 8832 0.37
8320 11317 0.26
8321 8323 0.3
8322 8829 0.62
8322 11317 0.7
8323 10614 0.52
8324 8325 0.53
8324 8564 0.26
8324 8821 1.56
8325 11317 1.12
8326 10364 0.5
8326 10368 0.56
8326 12485 0.4
8327 8333 0.12
8327 12955 0.35
8328 8329 0.41
8329 8331 0.87
8330 8331 0.83
8330 8741 0.96
8330 8831 0.57
8331 8332 0.73
8331 11321 1.26
8332 8336 1.48
8332 11317 2.03
8332 11318 0.5
8333 8334 0.5
8334 10596 0.5
8335 8341 0.18
8336 8337 0.51
8336 8554 0.62
8336 8563 1.14
8337 11318 1.3
8338 8342 1.73
8338 8764 3.58
8339 8344 1.73
8339 8763 3.58
8340 8369 0.88
8340 11315 1.01
8341 12368 0.5
8342 8346 1.04
8343 8348 0.12
8343 12219 0.51
8344 8349 1.04
8345 11318 1.23
8347 8741 0.6
8348 8350 0.4
8348 10348 0.5
8348 12190 0.51
8350 8351 0.37
8351 8354 0.25
8352 8353 0.24
8352 8361 0.4
8352 11255 0.94
8353 8361 0.47
8354 8355 0.25
8354 10344 0.5
8355 8356 0.49
8356 8827 0.43
8357 8359 0.25
8359 10572 0.53
8360 9222 0.04
8360 10641 1.06
8360 10642 0.75
8362 8429 1.08
8363 10634 1.0
8364 8373 0.69
8365 10617 0.61
8365 10622 1.02
8365 10623 0.4
8366 8367 0.24
8366 11319 0.38
8367 8368 0.06
8368 8372 0.64
8369 8547 1.13
8370 10612 1.0
8371 8374 0.51
8371 10599 0.5
8372 8373 0.49
8372 8547 0.91
8373 8820 0.45
8374 8375 0.5
8374 10600 0.49
8376 8377 0.26
8376 10593 0.5
8376 10594 0.51
8376 12179 0.15
8377 8379 0.08
8378 8453 0.8
8378 11252 0.86
8379 8380 0.34
8380 8381 0.57
8380 9633 0.39
8380 10587 0.51
8381 8382 0.25
8381 9632 0.27
8382 8384 0.27
8383 11255 0.55
8383 11258 0.52
8384 8385 0.49
8384 10581 0.51
8384 10582 0.51
8385 8397 0.3
8386 8387 0.31
8386 11258 0.51
8387 8388 0.52
8387 8391 0.49
8388 8389 0.5
8388 8402 0.6
8388 11258 0.3
8389 8390 0.25
8389 8396 0.56
8389 11259 0.24
8390 8391 0.24
8390 8395 0.55
8391 8392 0.55
8392 8393 0.25
8392 8395 0.25
8393 8394 0.25
8394 8395 0.32
8394 11260 0.26
8395 8396 0.25
8396 8400 0.25
8396 11260 0.32
8397 8398 0.2
8398 8401 0.5
8398 10576 0.5
8399 8412 0.28
8399 11260 0.28
8400 8408 0.26
8400 11259 0.55
8401 8405 0.5
8402 8403 0.18
8402 8404 0.33
8403 8404 0.26
8403 8408 0.55
8403 11259 0.26
8404 11256 0.4
8404 11257 0.69
8405 8406 0.51
8405 10569 0.5
8405 10570 0.49
8406 8407 0.5
8407 10563 0.49
8407 10564 0.59
8408 11257 0.62
8409 8452 0.27
8409 12116 0.24
8409 12117 0.24
8412 8416 0.95
8416 8417 0.1
8416 8438 0.31
8417 8418 0.03
8417 8437 0.3
8418 8419 0.06
8418 8436 0.3
8419 8435 0.33
8420 10378 0.5
8422 8423 0.31
8422 8432 0.33
8422 11257 0.08
8423 8432 0.5
8423 11256 0.26
8426 8428 0.56
8426 8453 0.75
8426 9152 0.64
8426 11252 0.5
8427 8802 0.5
8427 12054 0.15
8427 12056 0.34
8427 12131 0.29
8428 8458 0.75
8428 11253 0.39
8428 11256 0.59
8429 11004 0.45
8430 8432 0.22
8430 8433 0.36
8430 8446 0.55
8430 11253 0.17
8431 9108 0.21
8431 9132 0.14
8431 9133 0.12
8431 10504 0.22
8432 8433 0.42
8433 8434 0.13
8434 8435 0.07
8434 8445 0.27
8435 8436 0.07
8435 11254 0.28
8436 8437 0.06
8436 8444 0.28
8437 8438 0.09
8437 8443 0.28
8438 8442 0.3
8439 12112 0.07
8440 8931 0.4
8440 10532 0.03
8440 12262 0.55
8440 12263 0.24
8441 10531 0.41
8441 12257 0.4
8441 12321 0.11
8442 8443 0.04
8442 8465 0.75
8442 9243 0.03
8443 8444 0.07
8444 11254 0.08
8445 8446 0.47
8445 8461 0.74
8445 11254 0.07
8446 8448 0.35
8446 8460 0.49
8447 8449 0.13
8447 9106 0.78
8447 10503 0.25
8448 8458 0.39
8448 8459 0.26
8448 11253 0.7
8449 10506 0.52
8450 8451 0.03
8450 10506 0.35
8451 9145 0.55
8451 9146 0.06
8452 12115 0.03
8452 12116 0.2
8452 12117 0.23
8453 8458 0.51
8453 8500 0.51
8454 8798 0.2
8454 8801 0.12
8454 9145 0.31
8454 12028 0.1
8455 8792 0.4
8456 12060 0.19
8456 12061 0.04
8457 8458 0.29
8457 8459 0.38
8457 11249 0.2
8459 8460 0.34
8459 8469 0.25
8460 8461 0.33
8460 8468 0.26
8461 8465 0.3
8461 8467 0.38
8462 10321 0.37
8462 12070 0.09
8462 12071 0.24
8463 12069 0.5
8463 12076 0.05
8463 12077 0.49
8463 12126 0.31
8464 8846 0.03
8464 12074 0.27
8464 12077 0.54
8464 12078 0.03
8465 11250 0.25
8466 8846 0.08
8466 8851 0.29
8466 12132 0.12
8467 8468 0.3
8467 8473 0.22
8467 11250 0.25
8468 8469 0.32
8468 8472 0.22
8469 11249 0.38
8470 8471 0.03
8470 9189 0.15
8470 12119 0.15
8470 12266 0.54
8471 12119 0.09
8471 12271 0.51
8472 8473 0.33
8472 8503 0.28
8473 11246 0.27
8474 8475 0.06
8474 8884 0.57
8474 8925 0.19
8474 12274 0.04
8475 12274 0.04
8475 12329 0.46
8475 12330 0.61
8476 10534 0.51
8476 12330 0.07
8477 8480 0.25
8477 12326 0.51
8477 12327 0.24
8477 12328 0.24
8478 8779 0.65
8478 9242 0.19
8478 11247 0.6
8479 8484 1.04
8479 9242 0.2
8479 11246 0.18
8479 11250 0.51
8480 12327 0.24
8480 12328 0.24
8480 12329 0.05
8481 8482 0.05
8481 10803 0.03
8481 12320 0.96
8482 10543 1.25
8482 10803 0.03
8483 10543 0.75
8484 8498 0.35
8484 11243 0.78
8485 8486 0.04
8485 10538 0.73
8485 10545 0.12
8487 8488 0.57
8487 8489 0.14
8487 11243 0.6
8489 8490 0.64
8489 8496 0.5
8490 8491 0.38
8490 8495 0.24
8491 8700 0.5
8492 11030 0.37
8492 12081 0.9
8492 12137 0.7
8493 9677 0.59
8493 11032 0.35
8493 12156 0.5
8494 11171 1.67
8494 11176 0.43
8494 12476 0.19
8496 11238 1.0
8496 11242 0.76
8497 11181 0.5
8497 12469 0.25
8497 12472 0.25
8498 11242 0.74
8499 11180 0.5
8499 12468 0.17
8499 12469 0.54
8500 11249 0.5
8501 8503 0.23
8501 11246 0.08
8502 9991 0.36
8502 11109 1.01
8502 11198 0.04
8504 9677 0.42
8504 11033 0.5
8504 11781 1.02
8505 11013 0.44
8505 11014 0.55
8505 12300 0.63
8506 8507 0.75
8506 9648 0.8
8506 11015 0.43
8506 11779 1.0
8507 8913 0.8
8507 11012 1.55
8507 12301 0.5
8508 11080 0.03
8508 11081 0.79
8508 11086 1.02
8509 11244 0.96
8509 11245 0.49
8510 8511 0.3
8510 10807 0.38
8510 12209 0.35
8511 10813 1.08
8512 8513 0.15
8512 12317 0.1
8512 12318 0.75
8513 12212 0.48
8514 9770 0.42
8515 8616 0.29
8516 8543 0.66
8516 11240 0.79
8516 11244 0.51
8518 8524 1.01
8518 8542 0.88
8518 11240 0.24
8519 11238 0.8
8519 11240 0.69
8519 11241 0.5
8520 8521 0.42
8520 10821 0.51
8521 8523 0.08
8522 8524 1.11
8522 8528 0.49
8522 11238 0.51
8524 8529 0.49
8524 8531 1.4
8525 8528 0.5
8525 8698 0.5
8526 12408 0.51
8528 8529 1.09
8528 8697 0.49
8529 9741 0.25
8530 10839 0.5
8530 12462 0.05
8531 8532 0.53
8531 8541 1.01
8531 9740 0.75
8532 8671 2.01
8532 11313 0.5
8533 12098 0.03
8533 12519 0.25
8533 12520 0.14
8534 8535 0.4
8534 8538 0.7
8534 8811 1.0
8534 11313 0.7
8535 8537 0.74
8535 8812 1.06
8535 11312 1.36
8536 12212 0.13
8536 12318 0.08
8536 12319 0.18
8537 8538 0.4
8537 10098 0.3
8538 10099 0.25
8539 8541 1.0
8539 11313 1.0
8540 12455 0.1
8540 12510 0.4
8541 8542 0.5
8541 11316 0.98
8542 8543 0.93
8542 11240 0.91
8543 11316 0.5
8544 8545 0.17
8544 10818 0.4
8545 10817 0.1
8546 9031 1.68
8547 8548 0.26
8548 8552 1.01
8548 11315 0.87
8549 12152 1.68
8550 8551 0.33
8550 10846 0.8
8551 11090 0.48
8552 8553 0.4
8552 10099 0.5
8553 10098 0.5
8553 11315 1.01
8554 8556 2.05
8554 11314 1.32
8554 11315 1.01
8555 8563 0.47
8555 8564 0.44
8556 8819 1.02
8556 11312 0.5
8557 10852 0.25
8558 8562 0.08
8558 9150 0.15
8559 8815 1.32
8559 11349 1.09
8560 8561 0.52
8560 8564 1.5
8560 8568 1.02
8561 11314 0.67
8562 10853 0.75
8563 11314 0.92
8564 11352 2.04
8565 8566 0.25
8565 10854 0.36
8566 8962 0.42
8567 8575 1.35
8567 11351 2.31
8567 11352 0.29
8568 9742 1.77
8568 11352 0.31
8569 8574 0.25
8569 11102 0.4
8570 8571 0.65
8570 8573 1.28
8570 9742 0.4
8571 8572 0.92
8571 8816 0.79
8572 8573 0.58
8572 8618 1.48
8572 11345 1.68
8573 8575 1.3
8574 10865 0.82
8575 11348 0.79
8576 12143 0.38
8576 12538 0.07
8577 8582 1.38
8577 9685 0.84
8577 11351 0.15
8578 12538 0.13
8579 8618 1.22
8579 11347 1.03
8579 11348 1.23
8580 8620 0.28
8580 9027 0.65
8580 10750 0.25
8581 11106 0.75
8581 12537 0.3
8582 8584 1.04
8582 11350 1.19
8583 8586 0.33
8583 12574 0.64
8584 8585 1.02
8584 11384 1.01
8585 8588 0.87
8585 11347 1.0
8585 11350 0.75
8586 10870 0.04
8587 8588 1.04
8587 8617 1.32
8587 11347 0.56
8588 11384 1.07
8589 8590 0.21
8589 10855 0.41
8589 12499 0.15
8589 12504 0.15
8590 8969 0.35
8590 12499 0.14
8590 12504 0.16
8591 8594 0.14
8591 12503 0.13
8591 12506 0.48
8592 8593 0.83
8592 11384 0.76
8592 11386 0.88
8593 8597 0.48
8594 12502 0.49
8594 12507 0.12
8595 8597 0.5
8595 8598 1.11
8596 8599 0.15
8596 10856 0.44
8596 12508 0.16
8597 8598 0.72
8598 11383 0.21
8599 12509 0.5
8599 12512 0.14
8600 8601 0.13
8600 12515 0.48
8600 12516 0.13
8601 12513 0.11
8601 12517 0.5
8602 8606 0.11
8602 8607 0.6
8602 12522 0.56
8603 8604 1.06
8603 11383 1.5
8604 8605 0.55
8605 11379 1.19
8606 10857 0.16
8607 8608 0.15
8609 8610 0.14
8609 11104 0.09
8610 9889 0.12
8611 8612 0.24
8611 12557 0.5
8612 12556 0.06
8613 8614 0.49
8613 11102 0.25
8615 12213 0.21
8615 12214 0.13
8615 12318 0.12
8616 8619 0.31
8617 8618 1.07
8617 9744 0.8
8617 11380 1.0
8618 9745 0.89
8620 8878 0.42
8620 10750 0.08
8620 10753 0.63
8621 8625 0.12
8621 10549 0.43
8622 8623 0.74
8622 8636 0.46
8622 8637 0.28
8622 11344 0.39
8623 8624 0.27
8623 8636 0.5
8623 9744 1.15
8624 8627 2.67
8624 8631 0.77
8626 8670 0.12
8626 10592 0.31
8627 11378 1.18
8628 8880 0.7
8628 9061 0.11
8628 9062 0.63
8628 10753 0.45
8629 8630 0.12
8631 8632 0.68
8632 9356 0.53
8632 9743 0.31
8632 11341 0.56
8633 8635 0.12
8634 8637 0.82
8634 8642 1.45
8634 9743 0.58
8634 11341 0.31
8635 8639 0.14
8636 11341 0.2
8637 8638 0.4
8638 11344 0.65
8638 11345 0.95
8639 8640 0.03
8640 8641 0.62
8640 10551 0.82
8642 8643 0.7
8642 11345 1.0
8643 8644 1.87
8643 9363 1.24
8643 11342 0.85
8644 8653 1.75
8644 9279 1.0
8644 11343 1.09
8645 8646 0.12
8647 8648 0.19
8648 10574 0.53
8649 8650 0.62
8649 8815 0.26
8649 11346 1.47
8650 8816 0.75
8650 11349 1.21
8652 8654 1.0
8652 8667 1.01
8652 8807 1.0
8653 8654 1.0
8653 8807 1.02
8654 8655 1.0
8654 9267 2.0
8655 8656 0.52
8657 8662 0.96
8657 9359 0.5
8658 8659 0.26
8658 8661 0.96
8658 9358 0.5
8659 8660 0.73
8660 8677 1.41
8661 8666 1.64
8662 8663 0.44
8663 8668 1.64
8664 11310 0.65
8665 8675 1.7
8665 8811 1.63
8665 11310 0.31
8666 8761 2.43
8667 8809 1.0
8667 8813 1.5
8668 8762 2.43
8671 8673 0.51
8671 8675 0.5
8672 8679 0.12
8673 8674 0.49
8673 8683 1.22
8673 9740 1.26
8674 8675 0.51
8674 8682 1.12
8674 11311 1.0
8675 8676 1.0
8676 8677 0.75
8676 11311 0.5
8677 8678 0.49
8677 9357 0.25
8678 8680 0.99
8678 11311 0.79
8679 12177 0.19
8680 8681 1.02
8680 8689 1.23
8680 9257 0.5
8681 8682 1.01
8681 8688 1.09
8681 11311 0.95
8682 8683 0.5
8682 8687 0.75
8683 8684 1.0
8683 8685 0.52
8684 8685 1.0
8685 8687 0.53
8685 11235 0.78
8686 10579 0.53
8687 8688 1.0
8687 8693 0.59
8688 8689 1.0
8688 11232 0.48
8689 8690 0.5
8690 8724 1.57
8690 9254 2.1
8690 11232 1.0
8691 8692 0.06
8692 12178 0.19
8693 8707 0.77
8693 11232 1.0
8693 11235 0.49
8694 8695 0.05
8694 10605 0.57
8696 8697 0.24
8696 8705 0.63
8697 8698 0.63
8698 8705 0.25
8699 8700 0.42
8699 8704 0.24
8699 11239 0.5
8703 8712 0.28
8704 8711 0.24
8705 8706 0.29
8707 11235 0.58
8708 8709 0.13
8708 8717 0.42
8709 11236 0.4
8713 8714 0.06
8715 8718 2.05
8715 11237 0.53
8716 10552 0.43
8717 8718 0.24
8717 11236 0.27
8718 11233 1.0
8719 8721 0.08
8720 8724 0.73
8720 11233 0.25
8720 11234 1.2
8722 8725 0.1
8723 9248 1.72
8724 9248 1.0
8725 10558 0.19
8726 8727 0.07
8726 10558 0.19
8728 8729 0.12
8730 8731 0.12
8732 8734 0.11
8733 8837 0.89
8737 8738 0.05
8739 8740 0.12
8741 8843 1.81
8741 11321 0.63
8742 8743 0.12
8745 8747 0.03
8745 9628 0.27
8745 10341 0.25
8748 8749 0.03
8748 10341 0.25
8749 8750 0.07
8750 8993 0.1
8751 8752 0.03
8753 8754 0.15
8755 10345 0.06
8756 8757 0.16
8756 10349 0.19
8756 12756 0.2
8758 8759 0.05
8760 8981 0.27
8760 10331 0.5
8761 8764 0.04
8762 8763 0.04
8765 8766 0.1
8765 8982 0.28
8765 10333 0.03
8766 8778 0.5
8766 10333 0.04
8767 8768 0.14
8767 10558 0.42
8770 8771 0.07
8770 10559 0.5
8771 10565 0.35
8772 8773 1.25
8772 9346 0.49
8772 9884 0.5
8773 9708 0.33
8773 10987 1.14
8774 8775 1.36
8774 10986 0.5
8775 8864 0.56
8775 8926 0.68
8776 11018 0.53
8777 12167 1.0
8777 12173 0.36
8779 11251 0.31
8780 8781 0.52
8780 9021 0.19
8781 10334 0.15
8782 8984 0.07
8784 8785 0.34
8784 9138 0.36
8784 9140 0.7
8784 10505 0.53
8785 8788 0.44
8785 9141 0.22
8786 8787 0.07
8787 10566 0.4
8788 9141 0.26
8788 10510 0.26
8789 8790 0.19
8791 8801 0.15
8791 9144 0.1
8791 9145 0.2
8792 8793 0.5
8792 8801 0.2
8792 12028 0.13
8793 8794 0.25
8794 10512 0.59
8794 12029 0.21
8796 8797 0.12
8798 10507 0.25
8798 12028 0.2
8799 8800 0.1
8799 9629 0.16
8799 9630 0.28
8800 10338 0.7
8801 9144 0.15
8802 8830 0.55
8802 10515 0.33
8802 12057 0.32
8804 8806 0.19
8804 9010 0.13
8805 8806 0.06
8805 8841 0.5
8806 8835 0.5
8807 8809 1.01
8807 11343 1.34
8808 8816 1.35
8808 11345 1.27
8808 11346 1.04
8809 8814 1.52
8809 11346 1.3
8810 8817 0.08
8810 10342 0.25
8811 8812 0.73
8812 8813 1.0
8812 11310 1.52
8813 8814 1.0
8813 11312 1.0
8814 8815 0.88
8814 8819 1.5
8818 8827 0.06
8818 10578 0.43
8820 11319 0.13
8821 8822 1.18
8822 8823 0.39
8823 8824 0.8
8824 11354 0.49
8825 8826 0.31
8825 9192 0.3
8828 11385 0.97
8828 11387 1.63
8829 8833 0.62
8830 10521 0.3
8830 12120 0.27
8831 11323 1.4
8833 8834 0.34
8834 8836 0.49
8834 11358 0.47
8835 8841 0.06
8837 8838 0.75
8838 8839 0.48
8838 8840 1.24
8839 11359 0.9
8840 9694 0.93
8840 11359 0.99
8842 11323 1.33
8842 12975 0.89
8843 11323 0.93
8843 11324 1.08
8844 10523 0.13
8844 12063 0.5
8844 12124 0.5
8845 11363 0.3
8846 12078 0.05
8847 11362 0.64
8847 11363 1.58
8848 8849 0.51
8849 8850 1.37
8849 9698 0.23
8850 9696 0.56
8851 8855 0.52
8851 12132 0.1
8851 12229 0.26
8852 8857 0.25
8852 12130 0.38
8852 12228 0.2
8853 8854 2.05
8854 11370 2.28
8855 12228 0.06
8855 12231 0.28
8856 11280 0.51
8857 12288 0.41
8859 8860 1.11
8859 11372 0.74
8859 11373 1.29
8861 8866 0.96
8861 8886 0.18
8861 12043 0.57
8862 11397 1.1
8863 8864 0.88
8864 11400 0.3
8865 9733 0.72
8865 11376 0.25
8866 8872 0.07
8866 10785 0.24
8866 12048 0.43
8867 9014 0.05
8867 9225 0.15
8867 10937 0.18
8868 11673 0.34
8868 11676 0.85
8869 10988 1.25
8870 10689 0.84
8870 12831 1.04
8871 10602 0.1
8872 10785 0.22
8872 12049 0.4
8872 12051 0.33
8873 8881 0.5
8873 12128 0.2
8873 12129 0.22
8874 9897 0.53
8875 9896 0.53
8876 10850 0.5
8876 12459 0.4
8876 12519 0.6
8877 9030 0.63
8877 9033 0.35
8877 9068 1.69
8877 10751 0.62
8878 9062 0.61
8878 10754 0.74
8879 9062 0.37
8879 10754 0.48
8879 10759 0.6
8880 10748 0.92
8880 10749 0.3
8881 8883 0.2
8881 12282 0.25
8882 12060 0.16
8882 12061 0.2
8883 8893 0.5
8883 10529 0.25
8884 10533 0.44
8884 12264 0.73
8885 8931 0.35
8885 10531 0.62
8885 12261 0.55
8885 12323 0.45
8886 8887 0.75
8886 12047 0.65
8886 12048 0.71
8887 9121 0.78
8887 9122 0.4
8888 10783 0.75
8888 12046 1.05
8889 9621 0.75
8889 10795 0.95
8889 10801 0.32
8889 12250 0.2
8890 10801 0.73
8890 10808 0.74
8890 12311 0.33
8890 12315 0.95
8891 10813 0.75
8891 10814 0.49
8891 10820 1.12
8892 10804 1.62
8892 12356 0.27
8893 12279 0.35
8893 12284 0.45
8894 8901 0.12
8894 12270 0.27
8894 12271 0.25
8895 8896 0.51
8895 10949 0.5
8895 11767 0.5
8896 9084 0.49
8896 10948 0.51
8896 10953 0.5
8897 10952 0.78
8897 10953 0.98
8898 9052 0.75
8898 10941 0.21
8898 10947 0.99
8899 8901 0.09
8899 12266 0.27
8899 12267 0.14
8900 9075 1.25
8900 9109 0.18
8901 8911 0.2
8903 9011 0.76
8903 10987 0.78
8903 10991 1.15
8904 10990 1.11
8904 11771 0.65
8905 8906 0.21
8905 9045 0.44
8905 9046 0.33
8905 10992 0.51
8906 8908 0.3
8906 10991 0.5
8907 8908 0.23
8907 9044 0.49
8908 9046 0.26
8909 10999 0.81
8909 11772 0.53
8910 9646 0.7
8910 10921 0.05
8910 11006 0.51
8911 8925 0.37
8911 12268 0.14
8911 12270 0.26
8912 11153 0.95
8912 12301 0.54
8913 10157 0.17
8913 12302 0.49
8914 9667 0.8
8914 11014 0.44
8914 12345 1.21
8915 8916 0.77
8915 11010 0.95
8916 11008 1.1
8917 11008 1.17
8917 11009 0.2
8917 12033 0.16
8918 8919 1.17
8918 11024 0.57
8919 8920 1.5
8919 8923 1.0
8920 8921 0.7
8920 10998 1.27
8921 9898 0.4
8921 9900 0.28
8921 10999 0.85
8922 8927 0.85
8922 11023 0.5
8923 9076 0.65
8923 11024 1.0
8924 9041 0.52
8924 9050 1.66
8924 10998 1.32
8925 10533 0.36
8926 9005 1.44
8926 10986 0.96
8926 11018 0.86
8927 9649 0.67
8928 11017 1.8
8929 12116 1.24
8929 12328 1.25
8930 12117 1.24
8930 12327 1.25
8931 8932 0.3
8932 10532 0.52
8932 12323 0.27
8933 8934 0.56
8933 10535 0.58
8933 12285 0.25
8934 12332 0.43
8934 12337 0.37
8935 8936 0.28
8935 10324 0.25
8935 12341 0.46
8935 12343 0.27
8936 8937 0.4
8936 8938 0.12
8937 8939 0.5
8937 12343 0.23
8937 12344 0.35
8938 10324 0.17
8938 10325 0.12
8939 10327 0.49
8939 12342 0.12
8940 10803 0.56
8940 12313 0.69
8941 8942 0.63
8941 10815 0.18
8942 12364 0.25
8943 8944 0.08
8943 8945 0.4
8943 10817 0.93
8944 8946 0.4
8944 10824 0.09
8945 8946 0.28
8945 8953 0.42
8946 8947 0.12
8946 8952 0.45
8947 8949 0.15
8947 10824 0.4
8947 12393 0.45
8948 8961 0.85
8948 11277 0.54
8948 11280 0.78
8948 11281 0.25
8949 8950 0.45
8949 12391 0.38
8949 12393 0.42
8950 8951 0.61
8950 10830 0.42
8950 12390 0.34
8951 12389 0.34
8951 12396 0.65
8952 8953 0.4
8952 12393 0.1
8953 8954 0.25
8955 10819 0.5
8955 10825 0.75
8956 8957 0.24
8956 10852 0.88
8956 12496 0.23
8957 8960 0.63
8957 10847 0.37
8957 12496 0.12
8958 8959 0.36
8958 11284 0.75
8958 11288 0.79
8959 8963 1.0
8959 11289 0.83
8960 10847 0.62
8960 12450 0.51
8961 11285 0.29
8962 8968 0.41
8962 12496 0.31
8963 11285 0.51
8964 8965 0.5
8964 8966 0.2
8964 10859 0.2
8965 8967 0.13
8965 10854 0.21
8966 8967 0.51
8966 10111 0.5
8967 8968 0.97
8968 8969 0.63
8969 12500 0.1
8970 10856 0.26
8970 12511 1.0
8970 12515 0.26
8971 8972 0.59
8971 10866 0.5
8971 12579 0.66
8972 8973 0.53
8973 8974 0.4
8973 9210 0.5
8973 12548 0.5
8974 9208 0.58
8974 9209 0.45
8974 10873 0.5
8975 11288 0.53
8976 10330 0.5
8977 11289 0.78
8978 10560 0.63
8979 8980 0.5
8979 10332 0.25
8980 8981 0.15
8981 8982 0.5
8982 8983 0.12
8983 10333 0.25
8985 8987 0.25
8985 10336 0.31
8986 9239 1.02
8987 8988 0.5
8987 10336 0.06
8988 10339 0.5
8989 8991 0.43
8989 10339 0.5
8990 11289 1.5
8991 8992 0.19
8991 9004 0.25
8992 8993 0.43
8992 10342 0.38
8995 8996 0.25
8995 9004 0.26
8996 8997 0.25
8996 9003 0.19
8997 8998 0.27
8997 9002 0.25
8998 8999 0.1
8999 9000 0.12
8999 9008 0.31
9000 9002 0.21
9001 9026 0.62
9001 12204 1.59
9002 9003 0.37
9002 9631 0.47
9002 10343 0.14
9003 9004 0.25
9004 10342 0.43
9005 9007 0.22
9005 10986 0.8
9006 9007 0.25
9007 9042 1.14
9007 10987 1.62
9008 9009 0.13
9009 9010 1.0
9009 10340 0.37
9011 9012 0.61
9011 9047 1.48
9011 9346 0.67
9012 9346 0.87
9012 10988 0.38
9014 9226 0.18
9014 10938 1.13
9015 9020 0.25
9016 9017 0.27
9016 9056 1.04
9016 10938 0.36
9016 10942 0.53
9017 10938 0.43
9017 10943 1.12
9018 9227 0.81
9018 10939 0.41
9018 10940 0.53
9018 10944 1.23
9019 9227 0.2
9020 9021 0.19
9021 9022 0.3
9022 10337 0.19
9023 9051 0.5
9023 10585 0.27
9024 11307 0.54
9024 11308 0.34
9025 9901 0.22
9025 12492 0.89
9027 10755 0.25
9027 11308 1.14
9028 9067 1.62
9028 12495 0.35
9029 9030 0.16
9029 9065 1.62
9029 12492 0.35
9031 9032 0.28
9032 10841 0.9
9032 12145 0.11
9032 12151 0.1
9033 9036 0.44
9034 9035 0.54
9034 10751 0.55
9034 11309 0.59
9036 10497 0.17
9036 10498 0.35
9037 10498 0.28
9037 11187 0.52
9038 9039 0.35
9038 9071 1.25
9038 10498 0.4
9038 11187 0.3
9039 10499 1.0
9041 9665 1.1
9041 10989 0.5
9041 10990 0.85
9042 9043 0.58
9043 10987 0.85
9043 10991 0.78
9045 9047 0.55
9045 10991 0.26
9046 9048 0.51
9047 10992 0.28
9048 9049 0.5
9048 10992 0.33
9048 10996 0.22
9049 10997 0.55
9050 9076 0.33
9050 9664 1.05
9051 9256 0.11
9052 10946 0.82
9052 11195 0.41
9053 9054 0.2
9053 10945 0.77
9053 10946 0.18
9053 10951 0.51
9054 10946 0.29
9054 10947 0.53
9055 9056 0.5
9055 9057 1.0
9055 10941 0.74
9055 10942 1.0
9056 10943 0.51
9056 10948 1.0
9057 10947 1.0
9057 10948 0.47
9057 10953 0.5
9058 10939 1.26
9058 10943 0.99
9058 10944 0.54
9058 11769 1.01
9059 9090 0.38
9059 10756 0.71
9059 10944 1.14
9059 11769 0.92
9060 10758 0.76
9060 10761 0.99
9060 10762 0.52
9061 10752 1.02
9061 10758 0.74
9062 10753 0.45
9063 10760 1.1
9063 10763 0.47
9063 10769 0.75
9064 10755 0.78
9064 10760 0.19
9065 9100 1.14
9066 9067 0.3
9066 9099 1.04
9066 10755 1.46
9067 9101 1.14
9068 9103 1.29
9068 10499 0.28
9069 9070 0.5
9069 9071 0.46
9069 10499 0.5
9070 9072 0.66
9070 9104 0.51
9071 10500 0.03
9072 9073 0.12
9072 10502 0.53
9073 9075 0.4
9073 9107 0.63
9073 10500 0.59
9074 9075 0.6
9074 10500 0.42
9074 11187 1.27
9076 10998 1.57
9077 12086 0.49
9078 9079 1.13
9079 10950 0.41
9079 10954 0.64
9079 11001 0.37
9080 9081 0.37
9081 10955 0.18
9081 10959 1.16
9082 9084 0.49
9082 10952 0.43
9082 10953 0.5
9083 10956 0.8
9083 10957 0.43
9084 10949 0.48
9084 10957 0.52
9085 9669 0.46
9086 9087 0.52
9086 10949 0.97
9086 11768 0.88
9086 11769 1.02
9087 9089 0.84
9087 10962 0.48
9088 9089 0.5
9088 9117 1.0
9088 10962 0.77
9089 10765 1.11
9089 11768 0.5
9090 9091 0.36
9090 11768 0.72
9091 9092 0.44
9091 9093 0.92
9092 9093 0.62
9092 10756 0.69
9093 10765 0.28
9094 10765 0.6
9094 11189 1.25
9095 9096 0.51
9095 10761 1.28
9096 10766 0.28
9097 9903 0.5
9097 10763 0.75
9097 10769 0.39
9098 9102 0.75
9098 9126 1.0
9098 10764 0.5
9098 10769 0.5
9099 9102 0.56
9100 9129 1.25
9101 9128 1.25
9102 10504 1.25
9103 9104 0.27
9103 10501 0.25
9104 9105 0.49
9104 10502 0.62
9105 9106 0.5
9105 9131 0.63
9106 9139 0.5
9107 10502 0.51
9107 10503 0.1
9108 9128 0.36
9108 10504 0.19
9108 12134 1.2
9109 9146 0.58
9109 9147 0.4
9110 10958 0.05
9111 9112 0.9
9111 10966 0.5
9112 9113 0.42
9112 9114 0.32
9113 9114 0.18
9113 10967 0.47
9113 12040 0.88
9114 10961 0.49
9115 9116 0.68
9115 10774 0.65
9116 9117 0.81
9116 10276 0.7
9116 10774 0.4
9117 9617 0.75
9117 12045 0.82
9118 9617 0.39
9118 10777 0.4
9119 9120 0.62
9119 10765 1.25
9119 10770 0.83
9119 10777 0.58
9120 9121 0.48
9120 10777 0.7
9120 10778 0.76
9121 10770 0.5
9121 10778 0.62
9122 9123 0.56
9122 10771 0.53
9122 10779 0.42
9123 10772 0.5
9124 10768 0.5
9124 10772 0.37
9124 10773 0.99
9125 9126 0.5
9125 10768 0.4
9125 10769 1.0
9126 9127 0.5
9126 10773 0.75
9127 10504 0.49
9127 10508 0.75
9129 9130 0.07
9129 9132 0.36
9130 9131 0.29
9131 9134 0.4
9131 10505 0.5
9132 10504 0.16
9132 12054 1.2
9133 9134 0.13
9133 9135 0.26
9134 9135 0.22
9134 9138 0.51
9135 9136 0.32
9135 9137 0.53
9136 10509 0.37
9136 12055 0.25
9137 12055 0.26
9138 10505 0.42
9138 10509 0.5
9139 10505 0.1
9139 10506 0.96
9140 9145 0.59
9140 10506 0.51
9140 10510 0.47
9141 10509 0.5
9141 12055 0.81
9142 9143 0.38
9142 10510 0.25
9142 12066 0.61
9143 9144 0.2
9143 12067 0.71
9146 10507 0.7
9147 10507 0.25
9147 12027 0.35
9148 11004 0.16
9149 10003 0.71
9149 11787 0.31
9151 11809 0.33
9151 12594 0.3
9152 11256 0.44
9153 11433 0.5
9155 11587 0.3
9156 9157 0.04
9156 12868 0.21
9157 12862 0.21
9158 9159 0.04
9158 12862 0.3
9159 12873 0.3
9160 12014 2.0
9163 9164 1.66
9163 11577 0.17
9163 12892 0.57
9164 11582 0.1
9164 11583 0.37
9165 9166 0.12
9165 12676 0.15
9166 9167 0.2
9166 9171 0.34
9166 12671 0.1
9167 9168 0.18
9167 9170 0.1
9167 9171 0.4
9168 9169 0.3
9168 11540 0.13
9168 12660 0.28
9169 12653 0.21
9169 12661 0.12
9170 11540 0.16
9170 12671 0.2
9172 11484 0.67
9173 9174 0.49
9174 9175 0.25
9175 9176 0.71
9176 9177 0.24
9177 11450 0.46
9178 9179 0.12
9178 11452 0.07
9179 9180 0.07
9180 9181 0.46
9181 9606 0.2
9182 9183 1.0
9182 9620 0.34
9182 10790 0.24
9183 12105 0.28
9183 12107 0.44
9184 9185 0.22
9184 11424 0.11
9185 9314 0.1
9186 9314 0.64
9187 9188 1.29
9187 11424 0.7
9189 9190 0.38
9189 12118 0.32
9190 12118 0.48
9190 12120 0.15
9191 9192 0.48
9191 9196 0.4
9193 9194 0.5
9193 10324 0.22
9193 12293 0.22
9194 12291 0.25
9194 12295 0.16
9195 9196 0.64
9197 9198 0.61
9198 9199 0.33
9200 9201 0.5
9200 11271 0.5
9202 9218 0.53
9203 9204 0.75
9203 10889 0.5
9203 10894 0.73
9204 10889 0.2
9204 12638 0.22
9205 9206 0.37
9206 9207 0.43
9206 10879 0.42
9206 12582 0.42
9208 9209 0.83
9208 10874 0.25
9209 9210 0.39
9210 10879 0.24
9211 9213 0.4
9211 10835 0.49
9211 10840 0.52
9212 9213 0.58
9212 10835 0.25
9212 12389 0.75
9213 9214 0.63
9213 9215 0.46
9214 10836 0.5
9214 12389 0.49
9215 10836 0.62
9215 10840 0.38
9216 9217 1.18
9216 10442 0.62
9216 12900 0.63
9218 10615 0.37
9219 9220 0.25
9219 10633 0.19
9220 9221 0.82
9220 10073 0.85
9221 10639 0.19
9221 10640 0.78
9222 10073 2.0
9222 10635 0.76
9223 9224 1.23
9223 9926 1.62
9223 11194 0.5
9223 11338 0.48
9224 9225 0.14
9224 10937 0.2
9225 9226 0.22
9225 9728 0.47
9226 9727 0.47
9227 10939 0.83
9228 9229 0.27
9228 9331 0.18
9229 9916 0.09
9231 9232 0.07
9232 9233 0.09
9232 9235 0.24
9233 9234 0.09
9234 9236 0.21
9236 9237 0.24
9238 9239 0.75
9238 11339 0.8
9239 9240 0.95
9240 9244 0.55
9241 11339 1.4
9242 9243 1.5
9244 11335 1.46
9245 11217 1.85
9245 11221 0.15
9246 9247 0.75
9246 11210 1.0
9248 12022 4.0
9249 9253 0.6
9249 12021 0.74
9249 12022 1.5
9250 9251 0.32
9250 9253 1.0
9250 12021 0.68
9251 9852 2.0
9251 9854 1.64
9251 12023 1.0
9252 9253 1.5
9252 9255 3.1
9252 12022 0.5
9253 12023 0.4
9254 9255 0.08
9254 9257 2.2
9255 11931 2.6
9256 11950 0.26
9257 9259 4.5
9258 9259 1.5
9258 9262 1.68
9258 9854 1.0
9258 12023 1.92
9259 9260 1.28
9259 11931 1.68
9260 9261 0.5
9260 9262 1.5
9261 9263 4.0
9261 9271 2.0
9262 9855 1.0
9263 9357 0.5
9264 9265 0.31
9265 9270 1.4
9265 9358 2.0
9266 9272 1.4
9266 9359 2.0
9267 9268 1.0
9268 9269 1.0
9269 9271 0.3
9269 9272 0.31
9270 9271 0.3
9270 9273 1.6
9272 9274 1.6
9274 9275 0.3
9275 11932 2.5
9276 9277 2.0
9276 9862 4.5
9276 9863 3.53
9276 11932 2.2
9277 9278 1.9
9277 9281 1.5
9278 9279 0.5
9279 9363 1.64
9280 9281 1.22
9280 9362 1.0
9280 9363 1.0
9281 9282 1.0
9282 9283 0.5
9282 9285 1.14
9282 9356 1.8
9283 9286 2.26
9283 9863 2.98
9284 9296 2.0
9284 9361 0.7
9285 9287 0.5
9285 9290 2.74
9286 11933 2.0
9287 9288 1.2
9288 9355 0.5
9289 9293 0.08
9290 9293 0.2
9290 9354 1.04
9291 9295 2.0
9291 9299 1.62
9292 9330 0.08
9293 9294 1.96
9294 9295 0.04
9294 11933 0.5
9295 9865 2.84
9297 9867 1.0
9298 9360 0.08
9299 11934 1.02
9300 9301 1.1
9300 9353 0.5
9301 11934 2.0
9302 9303 0.5
9302 9330 1.0
9302 11401 0.76
9304 9353 1.02
9304 11414 0.5
9305 9361 0.56
9305 11413 0.25
9306 9307 0.5
9306 11416 0.5
9307 11402 0.37
9307 11403 1.01
9308 11418 0.38
9310 9311 0.7
9310 11385 2.5
9310 11405 1.36
9311 11387 1.1
9313 9314 0.32
9313 11425 0.05
9314 11424 0.18
9315 9316 0.6
9316 11408 0.19
9319 10285 1.09
9319 11411 1.26
9319 11437 1.05
9321 9322 0.99
9322 11409 0.55
9323 11411 0.46
9325 9326 0.08
9325 10363 0.1
9326 9327 0.07
9327 9328 0.03
9331 9332 0.12
9331 10352 0.09
9332 9333 0.07
9333 9334 0.08
9334 9335 0.08
9335 9336 0.07
9336 9337 0.09
9336 10351 0.06
9337 9338 0.16
9340 9341 0.09
9340 12937 0.41
9341 12911 0.4
9342 9343 0.09
9343 12950 0.4
9344 10362 0.33
9345 11404 1.14
9345 11419 1.2
9346 9884 0.33
9347 9348 1.12
9347 11195 0.63
9347 11766 0.25
9348 10937 0.89
9348 10942 0.64
9349 9350 0.04
9350 10064 1.54
9351 9352 0.04
9351 10063 1.54
9354 11377 0.3
9355 11378 0.23
9362 11342 0.54
9365 9367 1.0
9366 9367 1.75
9367 9368 0.23
9368 11965 1.0
9370 9371 2.87
9370 11966 1.3
9371 11965 0.3
9371 11968 1.77
9372 9387 1.25
9372 11966 0.61
9373 9374 1.7
9373 11836 1.9
9374 9375 1.5
9374 9377 1.5
9375 9376 1.5
9375 11836 0.5
9376 9377 1.5
9377 9378 1.5
9378 9390 2.5
9379 11971 2.1
9380 9381 0.5
9380 9383 1.0
9380 11971 1.25
9380 11972 1.25
9381 9382 2.75
9382 9391 0.5
9384 11834 0.9
9385 9386 1.2
9386 11834 0.13
9386 11978 0.08
9388 9389 2.5
9388 11956 1.02
9389 11945 1.0
9389 11947 1.02
9391 9392 2.5
9392 11840 0.5
9393 9394 0.2
9393 11958 0.19
9394 9395 1.3
9394 11958 0.15
9395 9396 2.5
9396 11960 1.0
9398 11838 3.0
9399 11949 1.1
9400 9401 1.0
9400 11841 0.25
9401 9402 1.6
9401 11951 1.0
9402 9403 1.08
9403 11841 1.25
9404 9405 1.0
9405 9406 1.0
9406 9407 5.65
9406 9408 3.0
9406 9413 6.39
9407 9413 1.2
9407 9454 2.35
9408 9409 1.0
9408 9418 1.4
9409 9410 1.0
9410 9411 2.0
9410 9419 0.4
9410 9424 3.7
9411 9412 2.0
9411 9426 2.15
9411 11842 2.8
9412 9462 2.6
9412 11845 1.65
9413 9455 1.75
9413 9461 2.3
9414 9416 3.8
9414 9469 3.15
9415 9417 3.8
9415 9470 3.15
9416 9418 0.2
9416 9420 0.4
9417 9419 0.2
9417 9421 0.4
9418 9419 0.2
9418 9420 0.2
9419 9421 0.2
9420 9422 1.8
9421 9423 1.8
9425 9426 4.7
9426 11845 2.2
9427 11846 3.3
9428 9429 0.9
9428 9433 4.5
9428 9479 6.7
9428 11846 2.0
9429 9483 2.6
9430 9432 3.5
9431 9432 1.0
9432 9437 2.0
9432 11851 1.5
9433 9434 2.0
9433 9435 1.0
9433 11851 2.5
9434 9494 1.0
9434 9498 2.0
9435 9438 1.55
9435 9439 1.0
9436 9437 1.0
9437 9438 3.5
9437 9440 2.05
9438 9439 0.5
9439 9441 2.0
9440 9442 1.0
9440 9443 1.0
9440 9445 2.0
9441 9443 3.1
9441 9447 2.0
9441 9506 3.0
9443 9446 1.8
9444 9445 1.0
9445 9446 1.2
9445 9448 3.0
9446 11855 0.2
9447 9450 3.0
9447 11855 3.15
9447 11856 4.0
9449 11855 3.0
9451 9452 1.0
9451 9454 1.0
9452 9453 2.0
9452 9457 3.05
9453 9456 1.5
9453 9525 0.75
9454 9455 1.0
9455 11843 1.0
9456 9460 0.5
9457 9471 0.4
9457 11843 1.0
9458 9467 3.6
9458 9534 5.8
9459 9468 3.6
9459 9535 5.8
9460 9471 2.6
9460 9473 1.7
9460 11844 2.0
9461 9462 1.15
9462 9463 0.45
9463 9464 0.7
9463 9475 0.9
9464 9465 0.2
9464 9471 1.4
9465 9466 0.3
9465 9468 0.2
9465 9470 0.2
9466 9467 0.2
9466 9469 0.2
9466 11843 0.7
9467 9469 0.4
9468 9470 0.4
9471 9472 1.9
9472 9473 3.5
9472 9474 0.45
9473 9545 1.9
9474 9475 0.9
9474 9545 4.9
9475 11847 0.15
9476 9477 1.05
9476 9479 1.0
9476 11847 1.1
9476 11848 0.5
9477 9478 1.2
9477 9480 0.5
9478 9546 3.1
9479 9483 2.0
9479 11848 0.5
9480 9481 1.75
9480 11848 1.0
9481 9482 0.8
9482 9485 0.5
9482 9550 2.4
9483 9484 0.5
9483 9486 1.5
9484 9485 2.0
9484 9487 1.5
9484 11848 2.0
9485 9488 1.5
9486 9487 0.5
9486 9489 1.5
9487 9488 2.0
9487 9490 1.0
9488 9491 1.0
9488 9557 2.0
9489 9490 1.0
9489 9494 2.0
9490 9491 2.0
9490 9492 1.0
9491 9493 1.0
9491 9562 2.2
9492 9493 2.0
9492 11852 1.0
9493 9565 2.0
9494 9496 0.45
9494 11852 1.0
9495 9499 1.0
9495 9500 2.5
9495 11852 1.0
9496 9497 1.1
9496 9498 0.55
9497 9502 1.85
9497 11852 0.15
9498 9501 1.0
9499 9500 1.5
9499 9504 1.5
9500 11853 1.5
9501 9502 1.0
9501 9506 2.0
9502 9503 0.5
9503 9504 1.0
9503 9507 1.5
9504 9505 3.0
9505 9572 1.5
9505 9578 1.0
9505 11853 1.5
9506 9507 1.0
9507 9508 2.0
9507 11856 2.0
9508 9509 2.0
9508 9580 2.05
9509 9510 3.0
9509 11857 2.1
9510 9511 1.4
9510 11856 1.0
9511 9512 0.4
9511 9519 0.2
9511 9521 0.2
9512 9513 0.2
9512 9520 0.2
9512 9522 0.2
9513 9515 0.85
9514 9515 0.5
9515 9516 3.2
9516 9585 3.3
9517 9519 3.55
9517 9588 2.9
9518 9520 3.55
9518 9589 2.9
9519 9521 0.4
9520 9522 0.4
9521 9523 1.9
9522 9524 1.9
9525 9526 0.25
9525 9536 1.1
9526 9527 1.5
9527 9528 0.8
9528 9529 0.25
9528 9537 2.9
9529 9530 0.95
9529 9538 2.9
9530 9531 1.0
9530 9541 1.0
9531 9532 0.5
9531 12015 0.5
9532 9533 0.5
9532 9542 0.5
9533 12015 0.5
9536 9537 0.4
9537 9538 1.3
9538 9539 0.25
9539 9540 0.9
9539 11844 0.25
9540 9543 1.5
9540 11844 0.5
9541 9542 1.0
9541 9543 1.5
9542 9544 1.5
9543 9544 1.0
9546 9548 1.8
9546 11849 1.2
9547 9556 4.5
9547 11849 1.8
9548 9549 2.0
9548 9551 0.75
9549 11849 1.6
9549 11850 1.2
9550 9551 1.1
9550 9553 1.0
9551 9552 1.0
9551 9554 1.0
9552 9555 1.0
9552 11850 0.5
9553 9554 1.0
9553 9557 0.5
9554 9555 1.0
9554 9558 0.5
9555 9556 1.0
9555 9559 0.5
9556 9560 0.5
9556 11850 1.5
9557 9558 1.0
9557 9562 1.0
9558 9559 1.0
9559 9560 1.0
9559 9563 2.0
9560 9561 1.0
9560 9563 1.0
9561 9564 1.0
9562 9565 1.0
9563 9564 1.0
9563 9566 1.0
9564 9567 1.0
9565 11853 2.05
9566 9567 1.0
9566 11854 2.0
9567 9569 2.2
9568 9573 1.5
9568 11853 2.0
9568 11854 1.0
9569 9570 0.7
9569 11854 0.85
9570 9571 0.15
9570 9574 2.8
9571 9575 2.9
9572 9573 0.5
9572 9579 1.3
9573 9574 0.8
9574 9575 0.3
9574 9583 1.2
9575 9584 0.4
9576 9588 0.4
9576 9603 0.2
9577 9582 0.2
9577 9589 0.4
9578 9579 1.05
9578 9580 0.5
9579 9581 0.6
9580 9581 0.8
9580 11857 2.0
9581 9603 0.1
9582 9583 0.1
9582 9589 0.2
9582 9603 0.2
9583 9584 0.8
9583 9585 0.2
9584 9587 0.3
9585 9586 0.45
9586 9587 0.5
9586 9590 0.8
9587 9591 0.7
9588 9603 0.2
9590 9591 0.5
9590 9593 1.0
9591 9594 1.0
9591 11858 1.7
9592 9599 2.0
9592 11858 1.3
9593 9594 0.5
9593 9595 1.0
9593 11857 1.5
9594 9596 1.0
9595 9596 0.5
9595 9600 2.0
9595 11857 2.5
9596 9597 1.5
9597 9598 0.25
9597 9601 2.0
9598 9599 1.25
9598 11858 2.1
9599 9602 2.0
9600 9601 2.0
9601 9602 1.5
9602 10226 1.54
9604 10286 0.63
9604 11492 0.47
9608 11448 1.92
9608 11450 1.08
9610 11446 0.92
9611 11444 0.1
9613 11482 1.03
9614 11445 2.2
9615 9616 0.1
9615 12080 0.1
9615 12232 0.65
9616 12079 0.22
9616 12080 0.06
9617 9618 1.0
9618 10776 0.79
9618 12045 0.17
9619 12099 0.62
9619 12100 0.2
9619 12251 0.8
9620 10791 0.78
9620 12313 1.0
9621 10802 0.23
9622 9623 0.18
9622 10622 0.55
9622 10627 0.55
9623 9624 1.0
9623 10627 0.5
9623 10628 0.51
9624 9625 0.2
9624 10634 0.51
9627 10329 0.11
9628 9629 0.23
9629 9630 0.21
9632 9633 0.65
9633 10588 0.12
9634 9635 0.5
9634 10312 0.12
9635 10311 0.1
9635 10313 0.3
9636 9637 0.83
9636 10478 0.92
9637 9639 0.49
9637 10478 0.64
9638 9639 0.5
9639 10471 0.5
9640 10456 0.86
9640 12905 0.25
9641 9642 0.23
9641 9643 0.32
9642 9644 0.32
9645 10402 0.5
9646 10920 0.6
9646 12035 0.5
9646 12083 0.27
9647 9648 1.0
9647 11011 0.74
9647 11777 1.0
9647 11779 0.74
9648 10922 0.88
9649 11023 1.02
9649 12162 0.65
9650 9651 1.4
9651 9652 0.38
9651 10713 0.38
9651 10714 0.8
9652 10713 0.27
9652 10719 1.0
9653 9654 0.5
9653 10700 1.01
9653 12945 0.5
9654 9655 0.5
9655 12943 0.51
9655 12948 1.01
9656 10723 0.87
9657 9658 1.14
9658 10733 0.49
9659 10657 0.5
9659 11192 0.5
9662 9921 0.69
9663 9665 0.53
9663 10989 0.93
9664 9665 0.33
9664 11021 0.99
9666 11008 0.6
9666 12032 0.2
9667 11777 1.0
9667 11779 1.13
9668 11030 0.5
9668 12138 1.05
9668 12158 0.77
9669 10962 1.01
9670 9671 1.02
9670 10916 0.3
9670 11304 0.71
9671 9672 0.81
9671 10923 0.76
9672 10748 0.55
9673 12490 1.8
9675 10932 1.02
9677 9678 0.5
9678 9679 0.24
9678 9684 1.05
9678 12153 0.59
9681 9682 0.32
9681 11209 0.89
9682 9683 0.52
9684 11207 0.41
9685 9686 0.45
9688 9689 1.0
9689 11331 1.5
9690 11410 0.57
9691 11273 0.45
9692 11361 0.26
9693 9694 1.59
9693 11359 0.73
9693 11362 0.84
9695 9696 1.19
9696 11366 1.16
9697 9698 1.43
9697 9699 0.16
9697 11365 0.67
9698 11366 0.91
9699 9700 0.38
9700 9702 1.76
9700 11365 0.68
9701 9702 0.33
9701 11369 0.53
9703 9704 1.27
9703 9713 0.33
9703 11369 0.75
9704 9705 0.48
9704 9709 1.0
9704 11372 0.76
9705 9706 0.7
9706 9714 0.25
9706 11371 0.87
9707 9708 0.51
9709 9710 0.83
9709 9711 0.27
9710 11372 0.62
9711 9712 1.09
9711 9714 0.4
9713 11368 0.37
9714 9715 0.42
9716 9717 1.48
9716 9718 0.32
9716 11330 1.68
9717 11333 0.26
9719 9720 1.48
9719 11330 1.07
9720 9721 0.23
9720 11333 0.85
9721 9722 0.64
9721 11332 0.48
9722 9723 0.75
9722 9724 0.64
9724 11332 0.14
9725 9726 0.58
9726 11336 0.9
9727 9728 0.44
9727 11339 0.77
9729 9730 1.0
9729 11338 0.8
9730 9733 0.37
9731 9732 0.45
9732 9733 0.43
9734 11287 1.28
9734 11290 0.39
9735 11306 0.44
9736 9737 0.18
9737 9738 0.91
9738 9739 0.64
9740 9741 1.4
9742 11349 0.43
9743 11342 0.59
9744 9745 0.78
9745 11344 0.4
9746 9747 0.3
9746 12477 0.69
9746 12481 0.49
9748 12484 0.47
9748 12487 0.15
9749 11509 0.29
9749 12521 1.62
9750 9751 1.3
9750 11507 0.9
9750 11511 0.35
9751 11508 0.4
9751 12525 0.34
9752 12657 0.42
9752 12661 0.89
9752 12690 0.4
9753 9754 0.82
9753 12673 0.61
9753 12818 0.89
9754 11544 0.78
9755 12694 0.52
9755 12737 1.34
9755 12796 0.77
9756 9757 0.76
9756 12688 0.54
9756 12694 0.5
9757 12690 0.46
9757 12704 0.53
9758 10070 0.41
9758 11557 0.44
9758 11558 1.34
9761 11622 1.53
9762 9763 1.0
9762 11074 0.6
9763 11069 0.4
9763 11075 0.61
9764 9765 0.5
9764 11065 0.71
9766 9767 0.58
9766 11057 0.58
9766 11063 1.05
9767 11064 0.52
9767 12351 0.81
9768 9769 0.63
9768 11046 0.42
9768 11047 0.58
9769 12304 0.49
9769 12305 0.56
9770 9771 0.96
9770 9772 1.05
9770 12303 0.94
9771 11044 0.43
9771 12194 0.54
9772 11044 0.07
9772 12303 0.54
9773 9775 0.38
9773 11157 0.36
9774 9775 0.62
9775 9776 0.49
9777 9779 0.55
9777 11158 0.61
9778 9779 0.54
9778 10279 0.56
9780 10279 0.5
9781 9782 0.64
9782 11154 0.53
9783 9784 1.56
9783 12371 0.58
9784 9788 1.0
9784 11155 0.58
9785 9786 1.0
9785 11155 0.57
9785 12371 0.6
9786 9787 0.96
9786 12372 0.44
9787 11155 1.0
9787 12373 0.14
9788 9789 0.98
9788 9790 1.11
9789 11154 0.46
9790 9791 0.86
9791 9794 0.21
9791 11784 0.32
9792 9793 0.95
9792 9794 0.75
9792 11785 0.84
9793 11152 0.53
9794 11785 0.79
9795 9796 0.98
9795 12348 0.42
9797 9799 0.8
9797 11761 0.12
9798 9799 0.68
9798 9800 1.54
9799 9800 1.98
9801 9802 0.52
9801 11183 0.87
9801 11186 0.63
9802 9803 0.19
9802 12529 0.75
9803 9806 0.8
9803 11182 0.61
9804 9805 0.56
9804 9902 0.1
9804 12526 0.9
9805 9806 0.25
9805 12472 1.0
9807 9808 0.69
9807 11091 1.36
9807 11177 0.29
9808 11176 0.46
9809 11756 0.7
9810 11738 0.98
9811 9812 1.3
9811 11750 0.5
9811 11829 0.5
9813 9814 0.37
9813 10007 0.41
9814 9815 0.42
9815 9816 0.19
9816 9817 0.77
9817 11200 1.02
9818 9819 1.0
9818 9824 1.0
9819 9820 1.0
9819 11746 0.5
9821 9822 0.46
9825 9830 1.0
9825 11826 0.5
9826 9827 0.98
9827 11742 0.31
9828 9829 1.04
9831 9832 0.74
9832 9833 0.35
9832 11229 0.67
9833 11802 1.23
9834 9835 0.49
9834 11713 0.24
9836 11821 0.88
9837 9838 1.0
9837 11635 1.0
9838 9839 1.0
9841 9844 0.42
9841 11677 0.51
9842 9844 0.82
9843 11678 0.85
9843 11681 1.0
9844 9845 0.5
9846 9847 1.42
9847 9848 1.67
9847 11675 0.59
9848 11678 0.5
9850 11661 0.52
9852 9853 2.4
9852 9874 0.5
9853 12021 0.62
9854 9855 1.92
9854 9875 2.5
9855 9856 2.1
9855 9873 2.5
9856 9858 0.08
9856 9859 0.32
9857 9858 0.3
9857 9861 2.0
9858 9862 5.0
9859 9860 2.0
9860 9868 0.3
9860 9871 2.0
9861 9870 2.0
9861 9883 0.29
9863 9864 0.1
9864 9865 4.74
9864 11933 3.02
9865 9866 4.48
9866 9867 1.84
9868 9873 2.0
9868 9883 0.08
9869 9870 0.28
9869 9872 0.08
9871 9872 0.31
9872 9878 2.0
9873 9875 2.0
9873 9878 2.0
9874 9875 1.5
9875 9876 2.2
9876 9877 3.0
9876 9878 2.6
9879 9880 4.0
9880 9881 0.5
9880 12025 2.12
9882 11040 0.79
9882 12736 0.75
9884 9885 0.5
9884 11376 1.07
9885 9926 0.13
9885 10290 0.13
9886 11159 0.5
9886 12372 1.25
9887 9888 0.12
9887 9993 0.93
9888 9889 0.04
9890 9891 0.12
9890 11103 0.24
9890 11104 0.53
9891 9892 0.04
9892 9893 0.12
9893 9989 0.93
9896 10043 3.0
9897 10050 3.0
9898 9899 0.28
9898 10278 0.33
9902 11181 0.48
9902 12469 0.9
9903 9904 0.75
9903 10768 0.5
9904 10762 1.38
9904 10772 1.03
9905 9907 0.04
9906 9907 0.13
9907 9908 0.09
9907 9909 0.05
9909 9910 0.05
9910 9911 0.05
9910 9912 0.13
9910 9920 0.13
9911 9919 0.13
9912 10352 0.18
9913 9915 0.09
9914 9915 0.1
9914 10355 0.09
9915 9916 0.1
9915 9917 0.09
9916 9918 0.09
9917 9918 0.1
9917 10355 0.1
9919 9920 0.05
9921 9923 0.2
9922 9924 0.2
9923 9924 0.11
9923 10936 0.5
9925 9926 0.12
9927 10808 0.5
9927 12216 0.5
9928 10915 1.0
9928 12750 1.1
9928 12824 0.04
9929 9930 0.17
9929 9931 0.16
9929 12374 0.1
9930 9932 0.16
9930 11067 0.25
9931 9933 0.93
9932 9934 0.93
9933 9935 0.04
9934 9936 0.04
9935 9937 0.93
9936 9938 0.93
9937 9939 3.1
9937 9969 0.16
9937 9971 0.06
9938 9940 3.1
9938 9972 0.06
9938 9974 0.16
9939 9941 1.95
9939 9975 0.16
9939 9977 0.06
9940 9942 1.95
9940 9978 0.06
9940 9980 0.16
9941 9943 0.91
9941 9981 0.16
9941 9983 0.06
9942 9944 0.91
9942 9984 0.06
9942 9986 0.16
9943 9945 1.83
9943 9989 0.25
9943 9993 0.25
9944 9946 1.9
9944 9989 0.25
9944 9993 0.25
9945 9947 0.29
9945 9995 0.32
9946 9948 0.16
9946 9950 0.5
9947 9998 0.09
9947 10005 0.09
9948 10000 0.05
9948 10008 0.08
9949 9951 0.91
9949 9995 0.32
9949 10005 0.27
9950 9952 0.91
9950 9996 0.6
9950 10008 0.26
9951 9953 1.15
9951 10009 0.06
9951 10011 0.16
9952 9954 1.15
9952 10012 0.16
9952 10014 0.06
9953 9955 1.5
9953 10015 0.06
9953 10017 0.16
9954 9956 1.5
9954 10018 0.16
9954 10020 0.06
9955 9957 0.1
9955 10021 0.06
9956 9958 0.1
9956 10026 0.06
9957 9959 1.5
9957 10023 0.16
9958 9960 1.5
9958 10024 0.16
9959 9961 0.04
9960 9962 0.04
9961 9963 0.5
9962 9964 0.5
9963 9965 1.52
9963 10027 0.21
9964 9966 1.52
9964 12646 0.16
9965 9967 0.16
9965 9968 0.16
9966 9968 0.16
9967 12734 0.4
9968 12735 0.4
9969 9970 0.06
9969 9974 0.2
9969 12421 0.22
9970 9971 0.04
9972 9973 0.04
9973 9974 0.06
9974 12422 0.12
9975 9976 0.06
9975 9980 0.2
9975 11177 0.5
9976 9977 0.04
9978 9979 0.04
9979 9980 0.06
9980 11097 0.63
9981 9982 0.06
9981 9986 0.07
9982 9983 0.04
9984 9985 0.04
9985 9986 0.06
9986 11103 0.3
9987 9991 0.16
9987 11198 0.38
9988 9990 0.73
9988 9996 0.1
9988 9999 0.11
9989 9990 1.36
9991 10001 0.7
9992 9994 0.4
9992 9995 0.65
9992 9997 0.47
9993 9994 1.36
9994 9996 0.65
9997 9998 0.04
9999 10000 0.04
10001 10002 0.34
10001 11791 0.86
10002 10005 0.17
10002 12555 0.8
10003 11196 0.28
10005 10008 0.12
10006 11203 0.46
10009 10010 0.04
10010 10011 0.06
10011 10012 0.2
10011 12599 0.82
10012 10013 0.06
10013 10014 0.04
10015 10016 0.04
10016 10017 0.06
10017 12601 0.1
10018 10019 0.06
10018 12601 0.25
10019 10020 0.04
10021 10022 0.04
10022 10023 0.06
10023 10024 0.2
10023 11204 0.15
10024 10025 0.06
10025 10026 0.04
10027 10028 0.1
10028 12646 0.07
10031 12246 1.36
10032 11700 1.2
10032 11701 0.6
10033 11178 1.0
10034 11784 0.65
10034 11785 0.5
10035 10036 0.06
10036 10037 0.04
10038 10039 0.04
10039 10040 0.06
10043 10044 0.06
10043 10058 0.6
10044 10045 0.04
10045 10046 0.06
10046 10047 0.23
10047 10048 0.06
10047 11304 0.3
10048 10049 0.04
10049 10050 0.06
10051 10052 0.04
10052 10053 0.06
10054 10055 0.06
10055 10056 0.04
10059 12394 0.2
10060 12397 0.2
10062 10063 0.16
10062 11503 0.2
10062 12518 0.2
10064 10065 0.16
10065 11503 0.22
10065 12445 1.4
10066 10067 0.75
10066 11551 0.16
10066 11552 1.23
10067 10068 0.16
10067 10070 0.25
10068 12873 2.4
10069 10070 0.16
10069 12868 2.4
10071 10072 0.95
10071 11563 0.59
10071 12887 0.85
10072 11569 0.85
10072 11575 0.5
10072 11606 0.9
10073 10640 0.75
10074 10075 1.34
10076 10077 1.75
10076 11796 0.3
10076 11797 0.45
10077 10078 0.6
10077 11799 0.6
10077 11800 0.74
10078 10079 1.1
10078 11786 0.6
10079 11787 0.32
10080 10081 0.5
10080 11820 0.5
10082 10084 0.25
10082 12732 3.86
10082 12881 2.0
10083 10084 0.15
10083 10085 0.23
10083 11692 0.05
10085 12733 3.86
10085 12882 2.0
10086 10087 0.25
10086 10088 0.39
10086 10090 1.47
10087 10088 0.43
10087 10089 0.35
10088 10089 0.27
10088 10709 0.58
10089 10093 1.47
10090 10091 0.19
10090 10092 0.42
10090 10094 2.29
10091 10092 0.5
10091 10093 0.42
10091 10703 0.16
10092 10093 0.25
10092 10704 0.55
10093 10097 2.29
10094 10095 0.4
10094 10096 0.35
10095 10096 0.57
10095 10097 0.45
10095 10698 0.7
10096 10097 0.19
10096 12956 0.13
10102 10103 0.12
10105 10106 0.5
10107 10108 0.4
10107 10663 0.43
10107 10664 0.51
10108 10658 0.59
10108 12752 0.71
10109 10110 0.5
10109 10677 0.5
10109 10678 0.5
10110 12840 0.51
10111 10860 0.45
10111 12546 0.3
10112 11538 0.46
10112 12667 0.5
10112 12680 1.6
10114 10115 0.18
10115 10117 0.04
10116 10117 0.18
10116 12976 0.76
10118 10119 0.5
10118 10603 0.31
10119 10120 0.15
10119 10603 0.35
10124 12307 0.17
10125 10127 2.1
10125 10133 0.2
10125 10152 0.6
10126 10128 2.1
10126 10153 0.6
10126 10154 0.2
10127 10129 1.25
10127 10145 0.2
10128 10130 1.25
10128 10134 0.2
10129 10131 1.45
10130 10132 1.45
10130 10147 0.2
10133 10154 0.2
10134 10145 0.15
10134 10146 0.5
10135 10136 0.3
10136 10137 0.11
10136 10140 0.18
10136 10143 0.24
10136 10265 0.09
10137 10138 0.04
10138 10142 0.08
10139 10141 0.13
10139 10265 0.04
10140 10142 0.5
10141 10143 0.5
10144 10145 0.7
10144 10171 0.7
10144 11881 1.03
10146 10168 0.4
10146 11882 0.86
10147 10169 0.11
10148 10150 0.2
10149 10151 0.2
10150 10151 0.1
10150 11908 0.19
10154 10167 0.35
10155 10156 0.2
10155 12175 1.2
10156 10157 0.22
10156 10977 1.04
10157 10158 0.2
10158 12176 1.2
10162 10163 0.5
10163 10164 0.5
10163 10610 0.4
10164 10611 0.49
10165 10166 1.0
10165 11860 0.28
10165 11880 0.55
10166 10168 1.8
10166 11880 0.55
10167 11861 0.65
10167 11881 1.33
10168 11881 0.5
10170 10171 1.0
10170 12255 0.46
10170 12924 0.48
10171 10172 1.02
10171 12256 0.46
10172 10174 0.73
10172 11882 1.0
10173 10178 0.94
10173 11883 1.0
10173 12255 0.27
10174 10175 1.51
10174 11883 1.0
10174 11884 0.5
10175 10176 0.7
10176 11885 0.5
10177 10208 1.34
10179 11883 0.59
10179 11884 1.0
10180 11885 0.5
10182 10187 0.53
10182 11888 1.5
10184 10185 0.98
10184 10190 0.5
10184 11867 0.49
10184 11886 0.52
10185 10186 1.0
10185 10191 0.5
10186 11887 0.52
10188 10189 0.5
10188 11888 0.51
10188 11891 1.03
10189 10194 1.03
10189 10214 0.5
10190 10191 0.98
10190 11889 1.5
10190 12269 0.49
10192 12377 0.23
10192 12378 0.23
10193 11891 1.5
10193 12378 0.57
10194 10219 0.5
10194 11891 0.5
10195 11889 1.53
10195 12407 0.19
10196 10197 0.26
10196 11890 1.28
10197 12411 0.29
10203 11877 2.38
10205 11878 2.04
10206 12360 3.06
10206 12361 1.2
10207 11906 0.24
10207 12355 1.0
10209 11909 0.71
10209 12384 0.22
10212 12286 0.19
10212 12383 0.37
10215 12299 0.25
10216 11911 0.54
10219 12272 1.76
10221 11982 1.01
10223 11915 0.69
10224 10225 3.95
10224 10235 7.28
10225 10226 1.54
10225 10233 4.55
10226 10228 4.2
10227 10229 0.3
10227 10236 0.14
10228 10232 6.05
10229 10239 0.22
10229 11942 0.79
10230 10247 2.72
10230 10252 4.2
10230 10254 3.79
10230 10256 4.25
10230 10257 4.19
10231 10235 2.28
10231 10237 1.98
10232 10233 4.14
10232 10238 4.85
10233 10234 2.41
10234 10235 1.99
10234 10237 2.44
10236 11944 9.99
10237 10238 4.04
10237 10243 4.0
10238 10244 4.98
10239 10260 5.44
10240 10241 5.9
10240 12018 3.29
10241 10246 2.48
10242 10243 2.47
10242 10246 3.5
10243 10244 4.01
10243 10246 2.46
10245 10257 4.18
10245 10275 4.73
10246 10252 0.65
10247 10254 2.62
10247 10268 1.41
10248 10249 9.84
10248 10258 1.41
10248 11942 4.17
10250 10253 0.55
10250 10254 5.75
10251 10263 0.16
10251 10266 3.39
10251 11944 0.3
10252 10263 3.36
10252 10267 1.52
10252 10272 2.68
10253 10264 2.05
10254 10255 1.61
10255 10256 2.85
10255 10264 2.81
10256 10261 1.48
10257 10259 3.05
10258 10260 0.17
10258 10263 0.35
10258 10284 0.24
10259 10261 2.54
10260 10284 0.32
10261 10262 5.39
10262 10264 5.03
10263 11944 0.24
10266 10267 0.11
10266 10270 2.49
10267 10268 0.26
10268 10269 0.11
10269 10271 2.45
10269 10284 3.6
10270 10274 1.83
10271 10273 1.59
10272 10274 0.35
10272 10275 0.51
10273 10275 0.25
10276 10962 0.3
10277 10278 1.0
10277 11005 0.51
10278 12034 0.5
10279 10280 0.81
10280 12371 0.87
10281 10282 0.46
10281 10283 1.98
10282 10806 0.49
10282 12356 0.39
10283 10817 0.46
10283 12358 0.27
10285 11437 0.48
10285 12283 1.46
10286 10287 0.85
10288 10289 1.15
10288 12369 0.63
10288 12434 0.72
10289 12388 0.34
10289 12435 0.33
10294 12719 0.09
10294 12720 0.41
10295 10297 0.72
10295 12720 0.51
10295 12722 0.47
10295 12730 0.62
10296 12723 0.67
10296 12724 0.45
10296 12730 0.75
10297 10299 0.72
10297 12730 0.06
10298 10300 0.82
10298 10301 0.8
10298 12729 0.75
10299 11859 0.61
10299 12729 0.28
10300 10303 1.12
10301 11859 0.8
10302 10304 0.65
10302 10439 1.04
10302 12918 0.51
10305 10306 0.56
10305 12921 0.79
10306 10307 1.08
10306 12926 1.18
10307 11864 0.41
10312 10313 0.53
10313 10315 1.24
10314 10315 0.5
10318 10319 1.99
10320 10496 1.09
10321 12072 0.19
10322 12229 0.4
10322 12231 0.22
10323 12288 0.16
10323 12291 0.52
10323 12296 0.39
10324 12295 0.56
10325 12298 0.71
10325 12344 0.47
10326 12339 0.51
10326 12341 0.5
10326 12342 0.38
10327 12344 0.5
10333 10334 0.27
10349 12756 0.07
10350 12756 0.5
10369 12571 0.2
10376 10381 0.5
10406 12224 0.37
10408 10414 0.98
10410 10662 0.52
10410 12686 0.5
10410 12689 0.51
10410 12692 0.68
10411 12691 0.5
10411 12701 0.52
10411 12705 0.27
10412 12223 0.51
10412 12703 0.48
10413 12710 0.5
10413 12713 1.01
10415 10421 0.4
10416 12686 0.68
10416 12692 0.5
10416 12695 0.52
10417 12699 0.1
10417 12701 0.42
10417 12702 0.43
10418 12698 0.37
10419 12712 0.17
10419 12713 0.32
10420 12710 0.08
10420 12714 1.02
10421 12718 0.76
10422 10423 0.65
10422 12695 0.54
10422 12767 0.54
10422 12775 0.52
10423 12227 0.54
10423 12696 0.54
10423 12779 0.35
10424 12698 0.5
10424 12779 0.5
10424 12782 0.49
10425 10426 0.28
10425 12713 0.51
10425 12789 0.5
10426 12714 0.51
10426 12790 0.55
10427 10433 1.16
10427 12728 0.4
10428 12771 0.3
10428 12776 0.41
10428 12864 0.56
10429 12781 0.5
10429 12783 0.54
10429 12785 0.5
10430 12785 0.78
10430 12786 0.25
10431 12787 0.1
10431 12790 0.51
10432 10438 0.11
10434 12860 0.56
10434 12863 0.45
10434 12864 0.5
10435 12866 0.5
10435 12869 1.0
10435 12870 0.5
10436 12869 0.5
10436 12871 0.75
10437 10443 0.96
10437 10444 0.54
10438 10439 0.45
10440 12858 0.84
10441 12854 1.09
10441 12858 0.45
10441 12861 0.28
10441 12872 1.04
10442 12901 0.08
10442 12903 0.16
10442 12904 0.51
10443 12901 0.92
10445 10451 1.02
10445 12918 0.5
10446 12898 0.35
10447 12900 0.5
10448 12904 0.25
10449 10450 0.39
10449 12906 0.13
10449 12907 0.18
10449 12913 0.51
10450 12910 0.53
10450 12913 0.35
10451 12926 1.05
10452 12898 1.08
10452 12956 0.71
10453 12961 0.25
10453 12963 0.06
10454 12964 1.0
10458 12958 0.53
10459 12967 0.3
10460 12971 0.44
10464 12959 1.0
10465 10471 0.5
10465 12968 1.0
10466 12971 0.57
10473 10479 0.25
10474 10475 0.53
10475 10481 0.54
10477 10478 0.52
10482 10486 0.32
10486 10487 0.69
10488 10734 1.0
10489 10805 0.44
10491 10811 1.01
10492 10734 1.01
10497 10751 0.55
10507 12027 0.25
10508 10773 0.5
10508 12093 0.2
10511 12068 0.4
10512 12030 0.18
10513 12050 0.25
10514 10515 0.36
10514 12052 0.5
10514 12053 0.53
10515 10521 0.5
10516 12059 0.57
10516 12060 0.12
10517 12063 0.25
10517 12066 0.4
10519 10520 0.97
10519 12051 0.32
10519 12112 0.69
10520 12052 0.49
10521 12052 0.38
10522 12123 0.52
10522 12124 0.25
10523 12076 0.4
10523 12126 0.18
10523 12128 0.6
10524 12077 0.25
10524 12126 0.61
10524 12130 0.5
10524 12132 0.54
10525 12109 0.71
10525 12113 0.44
10525 12260 0.31
10526 12265 0.78
10527 12265 0.15
10528 12271 0.5
10528 12273 0.51
10529 12128 0.57
10529 12280 0.2
10530 12130 0.49
10530 12282 0.61
10530 12287 0.51
10530 12288 0.48
10531 12260 0.51
10532 12325 0.49
10533 12268 0.12
10534 12273 0.51
10534 12274 0.5
10535 12276 0.1
10535 12279 0.5
10535 12332 0.52
10536 12094 0.48
10536 12287 0.5
10536 12292 0.48
10536 12338 0.5
10537 12321 0.27
10537 12322 0.4
10538 12324 0.82
10539 12218 0.7
10539 12326 0.51
10540 12218 0.78
10541 12334 0.15
10541 12335 0.19
10542 12104 0.5
10542 12338 0.5
10542 12339 0.49
10546 10547 0.75
10573 10579 0.49
10590 12187 0.22
10590 12190 0.24
10591 11950 0.25
10592 12133 0.25
10593 12178 0.15
10594 12180 0.15
10595 12183 0.24
10599 10605 0.66
10602 12955 0.18
10608 12485 0.04
10616 10617 1.01
10616 10622 0.79
10617 10618 0.5
10621 10627 1.0
10621 10887 0.42
10622 10628 0.21
10623 10624 0.5
10623 10628 1.01
10624 10630 0.51
10628 10634 1.03
10633 10639 0.97
10633 10899 0.99
10635 10636 0.5
10639 10645 1.04
10639 10905 0.99
10640 10646 1.0
10641 10642 0.8
10642 10643 1.01
10645 10646 1.0
10645 10651 1.01
10645 10911 1.01
10646 10647 1.0
10646 12668 1.02
10647 10648 1.0
10647 10653 0.75
10648 10654 0.74
10649 12222 0.61
10650 12221 1.01
10650 12681 0.53
10651 10657 1.04
10651 12668 0.96
10652 10653 0.5
10652 10658 0.88
10652 12668 0.59
10652 12670 0.42
10653 10654 0.99
10653 12670 0.23
10655 12677 0.5
10655 12682 0.51
10656 10662 0.5
10656 12681 0.5
10656 12689 0.5
10657 12752 0.42
10658 10664 0.84
10658 12668 0.62
10659 10665 0.4
10659 12670 0.66
10660 10665 1.02
10660 10666 1.01
10660 12678 1.0
10661 12679 0.53
10661 12684 0.53
10661 12765 0.5
10662 12682 0.5
10663 12751 0.51
10663 12752 0.08
10664 12753 0.5
10665 12754 1.02
10666 10672 0.5
10666 12754 1.01
10666 12758 1.02
10667 12679 0.51
10667 12757 0.5
10667 12762 0.5
10667 12765 0.52
10668 12684 0.51
10668 12767 0.51
10668 12768 0.5
10669 10670 0.96
10669 10675 0.5
10669 12751 0.5
10670 10671 1.01
10670 10676 0.76
10670 12753 0.52
10671 10672 1.02
10671 12754 0.5
10672 12759 1.0
10673 12760 0.51
10673 12835 0.51
10673 12847 0.49
10674 12760 0.51
10674 12763 0.52
10674 12770 1.03
10674 12847 0.51
10675 10676 1.02
10675 12824 0.99
10675 12827 1.06
10676 10682 0.76
10678 12835 0.5
10678 12840 0.51
10678 12848 1.02
10679 10686 0.8
10679 12840 0.82
10679 12851 0.19
10680 12850 0.5
10680 12851 1.0
10680 12854 0.51
10680 12860 0.12
10681 12827 0.5
10681 12830 0.51
10682 12827 1.0
10682 12831 1.0
10684 10690 0.54
10684 12844 0.56
10685 12840 0.47
10685 12844 0.5
10685 12853 1.0
10686 12853 0.48
10686 12854 0.57
10687 10688 0.55
10687 10693 0.53
10687 12893 0.45
10688 10689 1.05
10688 10694 0.51
10688 12831 1.01
10689 12947 0.66
10690 10696 1.0
10690 12896 0.52
10691 12160 0.1
10691 12161 0.15
10691 12896 0.94
10692 12154 0.21
10692 12160 0.4
10693 10694 0.43
10693 12945 0.51
10694 12947 1.0
10695 10701 1.0
10695 12947 0.52
10696 10702 1.48
10696 12951 0.5
10697 12951 0.4
10698 10704 1.85
10698 12154 1.03
10698 12951 1.0
10699 12942 1.01
10699 12943 0.46
10700 12947 0.51
10702 10708 0.28
10703 10708 1.02
10703 10709 1.28
10703 12951 1.53
10704 10710 1.01
10705 10706 1.42
10705 10711 0.5
10705 12943 1.0
10706 10712 1.1
10709 10710 1.01
10709 10715 1.04
10714 10715 1.01
10714 10720 1.0
10715 10721 1.0
10718 10719 1.01
10718 10723 1.12
10719 10720 0.99
10720 10721 1.02
10720 10724 1.0
10721 10725 1.0
10724 10725 1.0
10727 10728 0.61
10727 10731 0.55
10729 10736 1.52
10730 10738 1.52
10734 10740 1.0
10735 10736 1.0
10736 10737 1.0
10737 10738 1.0
10739 10746 0.99
10742 10743 1.05
10742 11639 0.95
10747 10916 0.76
10747 10917 1.08
10747 11188 0.69
10748 10752 0.77
10748 10923 0.48
10749 10750 0.84
10749 10753 0.5
10752 10757 0.76
10752 10917 0.5
10754 10760 0.9
10756 11188 0.57
10757 10758 0.99
10757 10761 0.75
10757 11190 0.5
10758 10759 1.15
10759 10763 0.88
10761 11189 0.49
10762 10763 1.05
10767 10768 1.17
10767 10771 0.31
10770 10771 1.05
10771 10772 0.72
10774 10775 0.78
10774 12044 0.47
10775 12044 0.61
10775 12045 0.52
10775 12097 0.79
10776 12101 0.81
10778 12046 0.18
10778 12047 0.19
10779 12048 0.42
10780 12041 0.44
10780 12044 0.25
10780 12092 0.89
10781 12096 0.07
10781 12097 0.3
10782 12097 0.5
10782 12101 0.3
10782 12103 0.47
10783 10784 1.01
10783 12101 0.58
10784 12046 0.76
10784 12105 0.25
10784 12106 0.55
10785 12108 0.41
10785 12109 0.4
10786 10787 0.75
10786 12090 0.61
10786 12092 0.52
10786 12244 0.5
10787 12100 0.7
10787 12245 0.5
10788 12095 0.44
10788 12100 0.42
10790 10796 0.5
10790 12105 1.01
10790 12253 0.56
10791 10797 0.55
10791 12107 1.2
10791 12258 0.4
10792 10798 0.45
10792 12242 0.62
10792 12244 0.99
10792 12247 0.75
10793 12245 0.1
10793 12247 0.91
10793 12248 1.07
10794 12100 0.55
10794 12245 0.9
10794 12249 1.05
10794 12251 0.62
10795 12252 0.1
10796 12253 0.75
10796 12313 0.76
10797 12257 0.05
10799 10800 0.57
10800 10806 0.05
10800 12248 0.8
10800 12310 0.59
10801 12250 0.38
10801 12314 1.1
10802 12312 0.12
10802 12314 0.86
10804 12357 1.3
10807 10808 0.74
10807 12310 0.77
10807 12311 0.35
10808 12317 0.53
10809 12316 0.52
10809 12318 0.62
10812 10813 0.61
10812 10818 0.75
10812 12358 0.16
10813 10819 0.99
10814 10820 0.5
10814 12364 0.5
10815 12214 0.52
10815 12364 0.55
10816 10817 1.4
10816 12353 1.55
10818 10819 0.78
10819 12362 1.06
10820 10821 1.01
10820 12362 0.52
10821 12365 0.5
10822 10828 0.7
10823 10824 1.1
10823 10829 0.98
10823 12385 0.86
10824 12391 0.3
10825 12398 0.08
10825 12399 0.59
10826 12362 0.53
10826 12405 0.29
10827 12367 0.06
10827 12406 0.5
10828 10829 0.83
10828 10834 1.75
10829 10835 0.64
10829 12390 1.02
10830 12393 0.5
10830 12395 0.25
10831 12393 0.29
10831 12395 0.38
10832 10833 1.12
10832 12399 0.52
10832 12404 0.63
10832 12774 0.23
10833 12406 0.87
10833 12408 0.17
10834 10840 0.87
10834 12144 0.14
10834 12145 0.15
10836 10842 0.71
10836 12448 1.0
10837 12448 0.62
10837 12452 0.64
10838 12400 0.44
10838 12453 0.52
10839 12402 1.27
10839 12453 0.57
10840 10841 0.36
10841 10842 1.07
10841 12144 1.01
10842 10843 1.05
10842 10847 0.59
10843 12448 0.9
10843 12450 0.46
10843 12451 0.57
10844 12452 1.02
10844 12455 0.27
10844 12458 0.22
10845 12463 0.25
10846 10847 1.03
10848 12450 0.43
10848 12496 1.01
10848 12500 0.18
10850 12457 0.47
10850 12510 0.25
10850 12517 0.25
10851 12459 0.58
10851 12464 0.06
10851 12519 0.34
10853 10854 1.01
10853 10858 0.5
10854 10859 0.5
10855 12506 0.5
10856 12506 0.5
10857 12098 0.26
10857 12520 0.26
10858 10859 1.0
10858 10865 0.52
10859 12546 0.51
10861 10867 0.48
10861 12506 1.0
10862 10863 0.5
10862 12515 1.02
10863 10869 0.47
10863 12522 1.07
10864 10865 1.0
10864 10872 1.0
10864 11108 1.39
10864 12574 0.9
10865 12546 1.04
10866 10872 0.36
10866 12546 1.05
10867 12548 0.53
10870 11120 0.42
10871 12574 0.47
10871 12578 0.51
10871 12977 1.04
10872 12578 1.13
10873 12548 0.4
10873 12549 0.77
10874 10875 0.42
10874 12549 0.5
10874 12585 0.91
10876 10888 1.01
10876 11126 0.51
10876 12575 1.0
10877 10883 1.0
10877 12575 0.5
10877 12580 0.5
10877 12977 1.04
10878 10884 0.82
10878 12580 0.52
10880 12585 0.09
10880 12587 0.61
10882 10883 0.49
10882 10888 1.0
10882 10889 0.74
10882 12575 1.01
10883 12622 0.4
10883 12624 0.5
10884 10885 0.6
10884 12625 0.35
10884 12772 0.2
10886 12588 0.25
10886 12592 0.5
10887 10893 1.08
10888 12614 0.5
10889 12622 0.57
10890 10891 0.58
10890 10896 0.7
10890 12626 0.57
10890 12772 0.81
10891 10892 1.04
10891 10897 0.94
10892 12592 0.7
10893 10898 0.68
10894 11138 0.46
10895 10901 0.95
10895 12622 0.97
10895 12626 0.58
10895 12638 0.57
10896 10897 0.5
10898 10899 0.38
10899 10905 1.02
10900 10906 0.5
10900 11144 1.0
10901 10902 0.86
10903 10904 0.2
10904 10905 1.0
10905 10911 1.02
10906 11150 1.0
10906 12656 1.0
10907 12658 0.69
10908 12640 0.78
10908 12658 0.75
10909 10913 1.01
10909 12640 0.84
10910 10911 1.01
10910 11191 1.01
10911 11193 1.01
10912 12658 1.58
10912 12659 1.3
10912 12738 2.38
10913 12659 1.24
10913 12743 1.57
10914 11192 1.01
10914 12747 0.51
10915 12748 0.52
10915 12750 0.39
10916 10923 1.19
10916 10940 0.88
10917 10923 0.75
10917 11190 0.75
10918 12811 1.05
10919 12743 0.5
10919 12747 0.55
10920 11775 0.5
10921 10922 0.77
10921 12033 1.07
10921 12083 0.74
10922 11011 1.01
10922 11012 0.75
10924 12811 1.01
10924 12813 1.0
10924 12815 1.0
10925 12814 1.0
10925 12817 0.98
10925 12819 0.5
10925 12821 0.75
10926 12823 0.66
10926 12824 0.51
10926 12827 1.26
10927 12813 1.5
10927 12888 1.0
10927 12936 1.0
10928 12890 0.12
10929 12822 1.0
10929 12893 1.28
10929 12941 1.0
10930 12935 0.99
10932 12942 0.5
10943 11767 1.0
10948 11767 0.53
10958 11001 0.55
10958 11003 0.65
10959 10964 0.57
10960 10961 1.0
10963 11770 0.86
10964 10965 0.61
10964 12037 0.48
10965 10966 0.5
10966 10967 1.07
10966 12038 0.75
10967 12039 0.79
10968 10973 1.67
10969 10970 0.48
10969 12036 0.76
10969 12037 0.52
10969 12392 0.2
10971 12038 0.63
10971 12039 0.35
10972 12039 0.5
10972 12041 0.55
10973 12233 0.44
10973 12401 0.62
10974 10979 0.75
10974 12233 1.0
10975 12089 0.55
10976 12089 0.5
10976 12090 0.52
10977 10978 1.34
10977 10982 0.75
10977 12303 0.76
10978 12233 0.33
10979 12235 0.55
10979 12237 0.53
10980 12239 0.26
10981 12240 0.15
10982 10983 0.55
10983 12235 0.63
10983 12304 0.95
10984 10985 0.48
10985 11048 0.6
10985 12239 0.5
10996 10997 0.6
10998 10999 0.85
10999 11771 0.37
11000 12086 0.12
11001 11003 0.95
11002 11772 0.56
11002 11774 0.65
11002 11776 0.65
11006 12034 1.01
11006 12035 0.77
11008 11010 1.04
11009 11011 0.9
11010 11777 0.6
11012 12083 0.71
11013 12300 0.45
11014 11785 0.8
11015 11778 1.0
11015 12301 0.76
11016 12172 1.25
11016 12203 1.06
11017 12166 2.0
11017 12171 1.06
11019 12170 0.95
11019 12198 0.88
11019 12200 0.99
11020 12165 0.12
11020 12166 0.32
11022 12168 1.55
11022 12193 1.44
11022 12196 0.64
11023 11027 0.75
11025 12192 0.56
11025 12564 1.62
11026 11027 0.75
11026 12193 1.57
11027 12159 1.02
11028 12583 1.12
11029 12157 1.12
11029 12174 1.18
11030 12157 0.73
11031 12605 1.1
11032 12153 0.37
11033 12156 0.44
11034 11035 1.41
11034 12801 1.2
11034 12884 0.82
11035 12885 1.06
11036 12740 1.35
11036 12806 1.5
11036 12809 0.99
11036 12811 1.0
11037 12736 0.27
11037 12801 0.9
11038 12802 1.5
11039 12738 1.0
11039 12740 0.43
11039 12742 2.87
11041 12654 0.74
11042 11150 0.98
11042 12655 0.52
11042 12656 0.99
11043 11049 0.7
11043 11153 1.0
11043 12191 0.25
11044 12350 1.15
11045 11046 0.16
11045 12304 0.6
11047 11054 1.08
11047 12305 0.71
11048 11054 1.15
11048 12305 1.0
11049 12348 1.05
11049 12350 0.96
11050 12350 0.22
11051 11057 0.68
11051 12351 0.59
11052 11053 0.52
11052 11058 0.31
11055 11061 0.62
11055 11067 1.3
11056 11057 0.7
11056 11062 1.15
11058 12351 0.51
11059 12353 0.5
11060 11066 0.59
11060 12353 0.41
11060 12385 1.08
11061 11062 1.11
11063 11069 0.8
11063 11070 0.55
11064 11070 1.11
11065 11066 0.7
11065 11071 1.0
11068 11069 1.0
11071 11072 0.74
11071 11077 0.82
11072 12226 0.97
11073 12427 0.39
11074 11075 1.02
11074 11080 1.04
11074 12427 0.5
11075 12430 0.5
11075 12432 1.07
11076 11082 1.17
11076 12430 0.5
11076 12436 0.2
11079 11085 0.75
11080 12425 0.52
11081 11087 1.02
11081 12432 0.26
11082 12433 0.51
11082 12437 0.37
11083 11089 0.49
11083 12437 0.14
11084 11090 0.51
11085 12423 0.33
11085 12424 0.05
11086 11087 0.76
11087 11088 0.76
11088 12433 1.03
11092 11099 0.89
11092 12480 0.03
11093 11099 0.77
11093 12483 0.25
11094 12483 0.26
11095 11096 0.9
11097 12479 0.5
11098 11104 0.7
11098 12480 1.02
11100 12483 0.64
11100 12537 0.39
11101 12908 0.6
11102 11108 1.01
11103 11109 1.04
11104 11105 1.25
11105 12533 0.82
11105 12535 0.42
11106 11112 0.5
11106 12533 1.0
11107 11108 0.87
11107 11113 0.62
11108 11114 0.99
11109 11198 1.05
11111 11112 0.97
11111 12533 0.5
11113 11114 0.73
11113 12570 0.87
11114 11120 0.22
11115 11116 0.49
11118 11124 0.54
11119 11124 1.06
11120 12570 0.63
11122 12560 0.03
11126 12569 0.51
11126 12614 0.86
11127 11128 0.5
11128 12604 0.25
11129 11130 0.92
11131 12611 0.42
11132 12611 0.55
11133 12606 0.5
11137 11138 0.65
11137 12635 0.55
11139 11140 0.34
11139 11145 1.04
11142 11143 0.75
11142 12633 0.39
11142 12841 0.3
11143 12635 0.53
11144 11150 0.52
11145 11146 0.49
11147 11149 1.39
11147 12633 0.87
11148 11149 0.32
11152 11785 1.52
11152 12345 0.1
11153 12348 0.31
11155 12346 0.24
11156 12347 0.05
11156 12373 0.5
11157 12410 0.34
11158 12416 0.59
11158 12418 0.97
11159 12418 0.52
11160 11161 0.75
11160 11166 0.74
11161 11167 0.62
11161 12410 0.81
11161 12413 0.83
11162 12410 0.73
11162 12413 0.72
11163 12414 0.5
11163 12416 0.32
11164 11165 0.77
11164 12416 0.98
11164 12418 0.94
11164 12476 0.88
11165 12421 1.05
11165 12423 0.82
11166 11167 0.79
11168 11169 1.0
11168 12413 0.66
11169 12414 0.6
11170 11175 1.0
11170 12476 0.14
11172 11219 1.0
11173 12466 0.09
11174 12467 0.11
11175 12472 0.71
11176 12473 0.89
11177 11183 0.51
11177 12473 0.45
11179 12465 0.6
11179 12524 1.03
11180 12526 1.26
11182 11183 0.47
11182 12473 0.51
11184 12523 1.13
11184 12524 1.16
11184 12527 1.06
11185 12527 0.26
11185 12553 1.49
11186 12529 0.75
11186 12557 1.39
11188 11190 0.99
11189 11190 0.75
11191 11193 1.01
11192 12748 0.5
11194 11766 0.49
11195 11766 0.7
11196 12651 0.49
11197 11789 0.62
11197 12834 1.16
11199 12675 0.5
11200 12599 1.0
11205 11208 1.82
11205 12663 1.56
11206 11207 1.21
11207 12153 1.0
11208 11538 1.5
11211 12683 0.06
11214 12829 2.56
11220 11794 0.63
11220 12846 1.63
11222 11798 0.96
11223 11803 0.75
11224 11796 0.88
11224 11804 1.03
11225 11799 1.0
11226 11802 0.45
11227 11805 1.03
11228 11805 0.63
11228 11807 0.34
11232 11233 1.54
11238 11241 0.76
11241 11242 1.05
11241 11245 1.25
11242 11243 0.5
11252 11255 0.7
11263 11266 0.84
11264 11265 0.75
11265 11268 2.09
11267 11270 0.87
11267 11328 1.94
11268 11271 0.51
11270 11273 1.25
11273 11276 1.15
11279 11283 0.74
11282 11287 1.07
11284 11334 1.65
11288 11289 0.43
11293 11298 1.47
11301 11307 1.06
11331 11334 1.38
11334 11337 1.48
11343 11346 1.02
11348 11350 0.97
11348 11351 1.27
11377 11378 1.5
11380 11382 0.7
11391 11393 0.91
11395 11396 1.69
11402 11416 0.58
11406 11407 1.0
11412 11443 1.48
11419 11422 1.56
11420 11423 1.0
11423 11454 2.33
11425 11428 1.5
11438 11441 1.05
11438 12243 0.73
11438 12349 1.01
11439 12246 0.13
11439 12283 0.85
11439 12415 1.1
11440 11442 2.08
11440 12454 0.56
11441 12349 0.24
11441 12369 0.77
11442 12388 0.2
11442 12449 0.11
11443 12449 1.75
11443 12454 0.49
11443 12471 1.01
11465 11482 1.5
11497 12438 1.61
11497 12441 1.01
11498 11501 1.46
11498 12435 2.15
11498 12440 0.78
11499 12478 0.5
11499 12481 0.78
11499 12482 1.53
11500 11588 2.01
11500 12441 0.5
11500 12443 0.66
11500 12445 1.0
11501 12444 1.25
11501 12447 0.78
11501 12487 0.36
11502 12195 0.76
11502 12481 1.14
11502 12493 0.33
11503 12514 1.07
11504 12447 1.03
11504 12501 1.5
11505 11510 1.55
11505 12562 0.8
11506 11511 2.02
11507 11508 1.17
11507 12505 1.07
11507 12518 0.64
11508 11509 1.08
11508 12521 0.92
11509 11513 0.97
11511 11517 1.63
11512 12525 0.42
11512 12528 0.5
11512 12530 0.44
11513 12530 0.17
11513 12531 0.27
11514 12566 0.5
11516 12534 0.7
11517 12532 0.39
11517 12534 0.32
11518 12530 0.41
11518 12531 0.06
11518 12543 0.33
11519 12573 0.26
11519 12577 0.3
11520 11525 1.04
11521 12544 0.5
11522 12544 0.27
11523 11531 1.87
11523 12603 0.2
11524 12547 1.01
11524 12551 0.66
11524 12558 1.5
11525 11526 1.08
11525 12550 1.23
11525 12558 0.79
11526 11530 0.75
11527 12561 0.97
11528 12603 1.27
11528 12607 0.46
11528 12608 0.45
11529 11530 0.76
11529 12554 1.22
11529 12558 0.2
11530 12561 0.99
11530 12616 1.5
11531 12607 0.6
11531 12615 0.37
11532 12607 0.45
11532 12608 0.45
11533 12617 0.2
11533 12618 0.5
11533 12620 1.05
11534 12616 0.62
11534 12619 0.91
11534 12628 1.29
11535 12609 0.9
11535 12662 0.45
11535 12663 0.38
11536 12621 0.2
11536 12627 0.38
11536 12630 1.61
11537 12662 2.41
11537 12664 1.22
11537 12666 1.04
11538 12664 0.68
11538 12665 0.63
11539 12636 0.46
11539 12645 0.29
11539 12648 0.52
11540 12632 1.6
11540 12653 0.08
11541 12669 0.43
11541 12672 0.43
11541 12676 0.78
11542 12687 1.0
11542 12694 1.06
11542 12737 0.78
11543 12706 0.04
11543 12721 0.43
11544 12818 0.64
11544 12825 0.61
11545 12739 0.4
11545 12746 0.57
11545 12777 0.71
11546 12804 0.21
11546 12812 2.16
11547 12829 1.04
11547 12836 1.2
11548 12739 1.35
11548 12777 2.01
11548 12798 0.1
11549 11554 1.3
11549 12833 1.42
11549 12920 1.73
11550 12839 0.5
11550 12843 0.25
11550 12923 1.53
11551 12805 0.2
11552 12807 0.75
11552 12852 0.78
11552 12856 1.15
11553 12856 0.16
11553 12859 0.49
11553 12920 0.37
11554 12920 0.5
11554 12922 0.58
11555 12925 0.43
11555 12938 0.15
11555 12946 0.96
11556 11792 1.24
11556 12938 0.99
11557 11563 0.46
11557 12874 1.34
11558 11559 1.44
11558 12852 0.52
11558 12874 0.52
11559 12862 0.37
11560 12953 1.02
11561 12970 0.58
11562 12929 0.13
11562 12946 0.42
11564 11570 0.49
11564 12874 0.74
11565 12878 0.46
11566 12878 0.8
11566 12880 0.38
11566 12902 0.77
11567 11573 1.08
11569 11576 0.5
11569 12887 0.82
11569 12889 1.0
11570 12879 0.53
11570 12887 0.49
11571 12878 0.63
11571 12879 0.51
11571 12894 0.63
11571 12897 0.5
11572 12880 0.94
11575 11576 0.85
11575 11581 0.99
11576 11577 1.08
11577 11582 1.1
11578 11579 1.44
11579 11580 0.35
11579 11585 0.95
11581 11582 1.53
11581 12912 0.52
11582 12917 0.47
11583 11584 1.14
11583 11973 3.31
11584 11585 1.9
11588 11590 1.02
11602 12739 1.7
11632 11812 1.05
11650 11651 2.25
11662 11689 1.13
11664 12883 0.75
11666 12809 1.5
11666 12886 1.0
11666 12888 1.03
11666 12932 1.0
11667 11668 1.49
11669 12934 0.21
11669 12935 0.77
11682 11684 0.67
11686 11687 1.0
11691 11822 1.07
11692 12799 2.1
11693 12801 2.85
11697 11698 1.5
11699 12927 0.97
11702 11708 0.5
11723 11825 1.6
11727 11825 1.01
11728 11827 1.0
11753 11831 1.78
11767 11769 1.0
11770 12036 0.51
11771 12082 0.85
11773 12086 0.52
11774 12035 0.6
11774 12379 0.9
11775 12035 0.3
11775 12379 0.18
11778 11779 0.51
11778 12345 0.92
11780 12155 0.64
11780 12157 1.27
11781 12031 0.32
11782 12031 1.15
11782 12081 1.38
11782 12300 0.88
11786 11788 1.18
11787 12834 0.49
11788 12527 1.52
11788 12553 1.2
11789 12553 0.1
11789 12556 0.82
11791 12555 0.45
11791 12556 0.04
11792 11794 0.45
11794 11795 1.6
11795 11797 0.84
11797 11798 0.36
11801 11803 0.17
11804 11806 1.18
11807 11809 1.01
11808 12594 0.38
11824 12799 0.21
11824 12800 1.16
11825 11827 1.01
11826 11827 1.0
11829 11830 1.01
11833 11964 0.2
11835 11973 0.66
11835 11974 0.79
11836 11968 0.06
11839 11970 1.89
11841 11949 1.78
11845 11847 3.35
11846 11851 5.1
11861 11862 1.05
11862 11863 1.1
11863 11864 1.15
11863 12921 0.5
11864 12254 0.54
11865 12403 0.23
11867 12269 0.7
11868 11869 1.0
11868 12259 0.29
11870 11892 0.09
11870 12412 1.35
11871 11895 2.77
11871 12412 1.01
11873 11901 1.51
11875 11876 0.77
11878 11879 1.38
11878 12016 1.0
11880 11881 1.37
11883 12256 0.27
11889 11892 1.38
11890 11893 1.19
11890 12407 0.31
11890 12409 0.04
11895 12417 1.06
11896 12419 1.51
11913 12275 0.31
11914 11981 0.85
11915 12306 0.77
11925 12363 1.77
11926 12182 0.48
11926 12308 0.99
11927 12428 0.55
11947 11956 2.71
11950 12084 0.76
11976 11977 1.05
11980 12275 1.0
11980 12277 0.25
11981 12277 0.32
11982 11983 0.43
11983 12306 1.07
11995 12370 0.19
11995 12431 1.25
12004 12307 1.25
12030 12070 0.33
12030 12071 0.47
12032 12033 0.89
12032 12034 0.81
12033 12034 0.3
12036 12037 0.62
12038 12087 0.75
12039 12088 0.7
12040 12041 0.54
12040 12042 0.42
12041 12091 0.78
12042 12044 0.21
12043 12106 0.25
12045 12097 0.5
12046 12047 0.12
12047 12106 0.87
12048 12049 0.27
12049 12050 0.31
12050 12051 0.37
12051 12111 0.62
12052 12115 0.5
12053 12093 0.25
12053 12131 0.63
12054 12116 1.62
12055 12056 0.43
12056 12057 0.5
12056 12060 0.82
12057 12059 0.4
12057 12122 0.39
12058 12059 0.14
12058 12122 0.4
12058 12123 0.39
12061 12066 0.5
12062 12063 0.5
12062 12124 0.5
12063 12064 0.1
12064 12065 0.36
12064 12076 0.35
12065 12076 0.2
12066 12067 0.5
12067 12068 0.46
12069 12075 0.18
12072 12073 0.27
12072 12079 0.27
12073 12074 0.25
12073 12078 0.25
12074 12075 0.38
12075 12077 0.24
12078 12079 0.3
12079 12229 0.24
12081 12137 0.47
12082 12086 0.98
12085 12133 0.75
12088 12089 0.51
12089 12240 0.5
12090 12091 0.5
12090 12241 0.54
12091 12092 0.62
12094 12102 0.5
12094 12285 0.14
12095 12096 0.39
12099 12103 0.57
12102 12104 0.5
12102 12337 0.1
12102 12338 0.5
12104 12110 0.5
12106 12107 0.3
12108 12109 0.1
12108 12258 1.0
12109 12111 0.18
12110 12125 0.37
12111 12112 0.56
12111 12113 0.33
12113 12261 0.78
12114 12262 0.78
12117 12134 1.62
12119 12121 0.39
12119 12123 0.5
12120 12121 0.1
12120 12122 0.17
12121 12122 0.1
12121 12123 0.25
12124 12127 0.49
12126 12129 0.5
12127 12128 0.4
12127 12280 0.51
12129 12130 0.6
12129 12282 0.52
12131 12134 0.15
12132 12228 0.52
12133 12139 0.25
12136 12708 0.17
12137 12138 0.48
12139 12140 0.15
12144 12147 0.05
12145 12148 0.16
12146 12147 0.51
12146 12151 0.38
12146 12152 0.38
12146 12238 1.0
12147 12149 0.06
12147 12150 0.12
12148 12149 0.1
12148 12150 0.21
12149 12234 1.0
12154 12160 0.25
12155 12156 0.18
12157 12158 0.51
12158 12159 0.51
12160 12161 0.13
12161 12855 0.14
12162 12164 0.48
12162 12165 1.17
12164 12165 1.31
12164 12169 0.27
12166 12170 0.67
12167 12172 1.38
12168 12169 1.37
12169 12170 0.99
12169 12197 1.51
12171 12172 0.47
12172 12173 0.74
12174 12185 0.37
12175 12201 0.3
12176 12202 0.3
12177 12178 0.5
12178 12179 0.5
12179 12180 0.5
12182 12387 1.01
12184 12186 1.73
12184 12590 0.22
12185 12186 0.58
12186 12189 0.73
12187 12188 0.25
12188 12190 0.2
12189 12192 1.11
12190 12219 0.1
12191 12194 0.33
12191 12202 0.12
12192 12193 0.28
12194 12201 0.19
12195 12488 0.81
12195 12562 0.89
12196 12197 1.46
12197 12198 0.21
12198 12199 0.48
12199 12200 0.29
12203 12471 1.75
12206 12207 0.04
12208 12209 0.04
12210 12211 0.04
12214 12215 0.32
12214 12216 0.66
12216 12317 0.38
12217 12230 0.19
12217 12234 0.19
12217 12238 0.19
12218 12329 0.51
12219 12220 0.06
12220 12368 0.07
12221 12222 0.05
12221 12677 1.02
12223 12224 0.06
12225 12699 0.07
12226 12230 0.5
12226 12238 0.19
12227 12776 0.17
12230 12234 0.19
12231 12232 0.5
12231 12296 0.51
12232 12297 0.59
12236 12237 0.73
12239 12242 0.92
12240 12241 1.0
12241 12244 0.63
12244 12245 0.75
12247 12248 0.44
12248 12249 0.83
12249 12311 1.1
12250 12251 1.07
12251 12252 0.44
12254 12255 0.38
12254 12924 0.46
12255 12256 1.0
12257 12320 0.43
12258 12260 0.2
12259 12269 0.7
12260 12261 0.45
12261 12262 0.66
12264 12265 0.61
12264 12268 0.74
12266 12271 0.21
12267 12268 0.13
12270 12273 0.45
12270 12274 0.54
12276 12278 0.5
12276 12331 0.48
12277 12426 0.12
12278 12279 0.13
12278 12280 0.5
12281 12286 0.12
12282 12284 0.49
12283 12415 1.38
12284 12285 0.5
12284 12287 0.61
12285 12337 0.51
12286 12289 0.37
12287 12290 0.47
12288 12290 0.51
12289 12294 0.33
12289 12383 0.26
12290 12291 0.25
12290 12292 0.49
12291 12293 0.48
12292 12293 0.29
12292 12340 0.5
12293 12341 0.53
12294 12299 0.12
12294 12383 0.46
12295 12296 0.47
12295 12298 0.5
12296 12297 0.39
12297 12298 0.7
12301 12302 0.8
12303 12304 1.25
12308 12387 0.08
12309 12428 1.3
12310 12311 0.61
12312 12313 0.13
12313 12320 1.17
12314 12315 0.14
12314 12316 0.28
12315 12316 0.25
12315 12317 0.7
12320 12321 0.23
12321 12322 0.5
12322 12323 0.12
12322 12324 0.15
12323 12324 0.07
12324 12325 0.81
12325 12326 0.59
12329 12330 0.45
12331 12332 0.12
12331 12333 0.52
12332 12335 0.5
12333 12334 0.05
12333 12335 0.15
12335 12336 0.73
12336 12337 0.49
12338 12340 0.49
12339 12340 0.5
12340 12341 0.37
12341 12343 0.44
12342 12343 0.5
12345 12348 1.67
12349 12438 1.5
12352 12354 1.0
12352 12429 1.97
12354 12355 1.35
12355 12359 1.0
12356 12357 0.39
12359 12360 1.0
12361 12363 1.84
12361 12370 1.0
12361 12431 0.33
12362 12365 0.95
12363 12370 1.53
12365 12366 0.21
12366 12367 0.3
12369 12381 0.58
12371 12372 0.83
12375 12376 1.26
12377 12378 0.2
12379 12380 0.5
12381 12388 0.9
12382 12711 0.06
12384 12386 0.4
12388 12415 0.7
12389 12390 0.58
12390 12391 0.42
12392 12394 0.19
12392 12401 0.4
12395 12396 0.5
12395 12399 1.01
12396 12448 1.02
12397 12401 0.19
12398 12404 0.63
12398 12405 0.66
12399 12400 0.63
12400 12452 0.99
12402 12408 0.89
12402 12774 0.2
12404 12405 0.2
12404 12406 1.03
12407 12409 0.36
12408 12462 1.0
12409 12411 1.26
12412 12417 2.32
12413 12414 0.81
12418 12421 1.06
12422 12423 1.13
12424 12425 0.48
12425 12427 1.21
12430 12433 1.08
12432 12433 0.5
12434 12435 0.98
12434 12439 0.25
12436 12437 1.08
12438 12439 0.75
12438 12441 1.98
12439 12440 2.02
12440 12442 0.66
12440 12444 0.88
12441 12442 0.47
12442 12443 0.39
12443 12444 0.42
12444 12446 0.82
12445 12446 1.06
12446 12447 1.54
12446 12501 2.0
12447 12494 0.63
12449 12456 0.5
12452 12453 0.28
12453 12458 1.06
12456 12461 0.98
12456 12475 1.53
12457 12458 0.36
12457 12459 0.5
12458 12460 0.46
12459 12460 0.39
12460 12463 0.63
12461 12471 0.25
12461 12474 0.32
12463 12464 0.4
12465 12468 0.26
12465 12524 1.37
12466 12467 0.25
12469 12470 0.69
12471 12474 0.2
12474 12478 0.8
12474 12482 2.11
12475 12478 1.06
12477 12484 0.35
12479 12480 0.34
12487 12491 0.72
12488 12493 0.59
12490 12492 1.85
12491 12494 0.31
12497 12498 0.04
12499 12503 0.51
12500 12502 0.54
12501 12521 0.28
12502 12509 0.48
12503 12512 0.51
12504 12507 0.51
12505 12514 0.64
12507 12508 0.51
12508 12513 0.5
12509 12511 0.28
12510 12511 0.25
12511 12517 0.25
12512 12516 0.5
12515 12522 0.75
12517 12520 0.9
12518 12521 1.01
12523 12524 1.67
12526 12527 0.36
12528 12532 0.11
12529 12557 0.9
12531 12541 0.33
12532 12536 0.15
12532 12540 0.31
12535 12537 0.62
12536 12540 0.32
12537 12538 0.75
12538 12908 0.3
12539 12542 0.06
12539 12543 0.08
12541 12542 0.07
12541 12543 0.08
12547 12550 0.53
12551 12552 0.67
12551 12617 1.09
12552 12554 0.57
12552 12618 1.02
12554 12558 0.8
12554 12619 1.07
12561 12615 0.35
12561 12616 2.15
12563 12647 0.19
12564 12572 0.54
12565 12566 0.36
12566 12572 0.43
12569 12613 0.81
12571 12597 0.35
12573 12576 0.05
12573 12577 0.43
12574 12978 1.11
12575 12978 1.11
12577 12581 0.14
12577 12584 0.15
12578 12579 0.55
12580 12624 1.02
12581 12584 0.09
12583 12590 0.5
12586 12588 0.73
12587 12588 0.46
12587 12592 0.5
12591 12592 0.32
12593 12651 0.54
12596 12598 0.28
12597 12612 0.12
12598 12599 0.17
12600 12605 0.5
12608 12609 0.08
12610 12615 0.06
12610 12662 1.27
12613 12614 0.41
12618 12619 0.5
12618 12621 0.93
12620 12621 0.8
12620 12629 2.0
12622 12623 0.59
12623 12624 0.13
12623 12625 0.25
12623 12626 1.0
12624 12625 0.21
12625 12772 0.31
12627 12628 1.25
12627 12630 1.2
12628 12632 1.03
12629 12636 0.28
12630 12632 1.09
12630 12641 1.23
12633 12841 0.16
12636 12641 0.99
12637 12715 0.4
12639 12640 0.22
12641 12649 0.42
12641 12650 0.92
12642 12643 1.29
12643 12644 0.73
12643 12687 0.38
12644 12645 0.15
12645 12648 0.45
12648 12649 0.47
12649 12650 0.8
12649 12657 0.58
12650 12653 0.39
12651 12675 0.35
12654 12655 0.95
12654 12738 0.96
12658 12659 1.1
12659 12741 1.5
12660 12661 0.07
12660 12721 1.57
12661 12706 1.38
12663 12665 1.1
12666 12667 1.52
12666 12671 1.62
12667 12669 1.27
12669 12680 0.49
12671 12676 0.1
12672 12673 0.99
12673 12680 0.98
12674 12715 0.23
12678 12679 0.5
12678 12757 0.53
12680 12683 0.57
12681 12682 0.51
12684 12685 0.5
12685 12686 0.52
12685 12695 0.57
12685 12767 0.5
12687 12688 1.0
12688 12690 0.4
12689 12691 1.16
12691 12693 0.49
12692 12693 0.35
12693 12701 0.5
12694 12716 0.16
12695 12696 0.73
12696 12699 0.52
12697 12698 0.53
12697 12779 0.5
12698 12700 0.51
12701 12702 0.1
12702 12703 0.41
12702 12705 0.51
12704 12706 0.13
12704 12716 1.09
12707 12708 0.5
12708 12712 1.01
12711 12755 0.06
12712 12791 0.53
12713 12714 0.4
12716 12717 0.84
12717 12764 0.62
12718 12723 0.49
12718 12724 0.61
12721 12825 0.24
12722 12723 0.29
12724 12726 0.39
12725 12731 0.38
12725 12746 0.76
12725 12796 1.25
12726 12727 0.13
12727 12728 0.26
12731 12737 0.7
12732 12735 1.86
12733 12734 1.86
12738 12741 3.29
12741 12742 0.7
12741 12743 1.01
12742 12745 1.03
12742 12815 1.4
12743 12744 0.51
12744 12745 0.38
12745 12816 0.65
12746 12749 0.9
12747 12748 0.95
12749 12777 0.52
12749 12778 0.33
12750 12751 0.62
12750 12752 0.89
12751 12753 0.97
12753 12754 1.01
12756 12838 0.4
12757 12758 0.49
12758 12759 0.52
12758 12762 0.51
12759 12760 0.5
12759 12835 0.52
12760 12762 0.51
12761 12764 0.51
12761 12773 0.65
12762 12763 0.5
12763 12765 0.5
12763 12768 0.51
12764 12766 0.75
12766 12773 0.73
12766 12780 0.7
12766 12796 0.63
12767 12769 0.53
12768 12769 0.5
12769 12770 0.47
12769 12775 0.52
12770 12771 0.4
12770 12849 0.5
12771 12775 0.52
12771 12863 0.53
12773 12784 0.85
12773 12828 0.42
12775 12776 0.36
12777 12803 0.42
12778 12780 0.5
12778 12796 0.74
12778 12803 0.53
12779 12781 0.5
12781 12782 0.5
12782 12785 0.5
12784 12804 0.23
12785 12866 0.51
12786 12788 0.5
12786 12867 0.54
12787 12789 0.5
12788 12791 0.52
12789 12790 0.21
12792 12795 0.45
12793 12794 0.45
12794 12876 1.97
12795 12875 1.97
12797 12798 0.6
12797 12805 0.4
12797 12807 1.26
12801 12802 0.2
12803 12807 2.05
12804 12833 0.31
12807 12812 0.99
12808 12809 1.0
12808 12886 1.51
12809 12810 1.0
12810 12811 1.0
12810 12813 1.0
12810 12888 1.49
12812 12856 0.7
12813 12814 1.0
12814 12815 1.0
12815 12817 1.01
12816 12817 0.5
12818 12826 0.82
12818 12829 1.16
12819 12820 0.47
12819 12891 1.0
12820 12821 0.57
12820 12822 1.28
12820 12890 1.34
12822 12830 1.26
12823 12824 0.88
12825 12828 1.52
12828 12829 1.39
12828 12832 1.13
12830 12893 1.03
12832 12833 0.04
12832 12836 0.04
12836 12837 0.6
12837 12839 0.5
12837 12922 2.18
12838 12911 0.08
12842 12843 1.64
12842 12925 0.04
12844 12855 1.0
12844 12896 0.4
12847 12848 0.5
12847 12849 1.04
12848 12850 1.04
12848 12851 0.5
12849 12850 0.5
12849 12863 0.31
12851 12853 0.51
12852 12859 1.4
12853 12855 0.5
12858 12899 0.57
12859 12862 0.46
12861 12870 1.01
12862 12868 0.25
12862 12873 0.6
12863 12864 0.16
12865 12866 1.04
12867 12869 0.49
12870 12871 0.24
12870 12872 0.09
12871 12872 0.27
12872 12900 1.21
12875 12877 0.21
12875 12915 1.95
12876 12877 0.27
12876 12914 1.95
12879 12889 0.7
12884 12885 0.62
12886 12931 1.0
12888 12933 1.0
12889 12894 0.58
12890 12891 0.4
12891 12940 1.0
12892 12894 0.03
12893 12944 0.6
12895 12897 0.08
12895 12902 0.08
12897 12902 0.2
12898 12899 0.43
12898 12962 0.62
12899 12900 0.97
12901 12903 0.21
12903 12907 0.53
12903 12910 0.85
12904 12906 0.5
12905 12906 0.14
12906 12907 0.1
12909 12912 0.23
12909 12916 1.17
12911 12937 0.09
12916 12917 0.3
12916 12919 0.21
12917 12919 0.15
12920 12953 0.81
12922 12923 0.62
12922 12954 0.98
12923 12925 0.3
12929 12949 0.32
12930 12931 1.01
12930 12934 0.99
12931 12932 1.0
12932 12933 1.0
12932 12934 1.0
12933 12935 1.0
12933 12936 1.0
12937 12950 0.1
12939 12940 1.01
12943 12945 1.01
12946 12970 0.05
12949 12952 0.35
12953 12954 0.84
12954 12957 0.25
12957 12970 0.62
12958 12959 0.37
12960 12967 0.28
12960 12968 0.15
12961 12962 0.65
12963 12964 0.15
12967 12968 0.32
12968 12969 0.49
12969 12971 0.39
12977 12978 0.52
