0 546 0.86267
1 547 0.86267
2 548 0.86267
3 549 0.86267
4 550 0.86267
5 551 0.86267
6 552 0.86267
7 553 0.86267
8 554 0.86267
9 555 0.86267
10 556 0.86267
11 557 0.86267
12 558 0.86267
13 559 0.86267
14 560 0.86267
15 561 0.86267
16 562 0.86267
17 563 0.86267
18 564 0.86267
19 565 0.86267
20 566 0.86267
21 567 0.86267
22 568 0.86267
23 569 0.86267
24 570 0.86267
25 571 0.86267
26 572 0.86267
27 573 0.86267
28 574 0.86267
29 575 0.86267
30 576 0.86267
31 577 0.86267
32 578 0.86267
33 579 0.86267
34 580 0.86267
35 581 0.86267
36 582 0.86267
37 583 0.86267
38 584 0.86267
39 585 0.86267
40 586 0.86267
41 587 0.86267
42 588 0.86267
43 589 0.86267
44 590 0.86267
45 591 0.86267
46 592 0.86267
47 593 0.86267
48 594 0.86267
49 595 0.86267
50 596 0.86267
51 597 0.86267
52 598 0.86267
53 599 0.86267
54 600 0.86267
55 601 0.86267
56 602 0.86267
57 603 0.86267
58 604 0.86267
59 605 0.86267
60 606 0.86267
61 607 0.86267
62 608 0.86267
63 609 0.86267
64 610 0.86267
65 611 0.86267
66 612 0.86267
67 613 0.86267
68 614 0.86267
69 615 0.86267
70 616 0.86267
71 617 0.86267
72 618 0.86267
73 619 0.86267
74 620 0.86267
75 621 0.86267
76 622 0.86267
77 623 0.86267
78 624 0.86267
79 625 0.86267
80 626 0.86267
81 627 0.86267
82 628 0.86267
83 629 0.86267
84 630 0.86267
85 631 0.86267
86 632 0.86267
87 633 0.86267
88 634 0.86267
89 635 0.86267
90 636 0.86267
91 637 0.86267
92 638 0.86267
93 639 0.86267
94 640 0.86267
95 641 0.86267
96 642 0.86267
97 643 0.86267
98 644 0.86267
99 645 0.86267
100 646 0.86267
101 647 0.86267
102 648 0.86267
103 649 0.86267
104 650 0.86267
105 651 0.86267
106 652 0.86267
107 653 0.86267
108 654 0.86267
109 655 0.86267
110 656 0.86267
111 657 0.86267
112 658 0.86267
113 659 0.86267
114 660 0.86267
115 661 0.86267
116 662 0.86267
117 663 0.86267
118 664 0.86267
119 665 0.86267
120 666 0.86267
121 667 0.86267
122 668 0.86267
123 669 0.86267
124 670 0.86267
125 671 0.86267
126 672 0.86267
127 673 0.86267
128 674 0.86267
129 675 0.86267
130 676 0.86267
131 677 0.86267
132 678 0.86267
133 679 0.86267
134 680 0.86267
135 681 0.86267
136 682 0.86267
137 683 0.86267
138 684 0.86267
139 685 0.86267
140 686 0.86267
141 687 0.86267
142 688 0.86267
143 689 0.86267
144 690 0.86267
145 691 0.86267
146 692 0.86267
147 693 0.86267
148 694 0.86267
149 695 0.86267
150 696 0.86267
151 697 0.86267
152 698 0.86267
153 699 0.86267
154 700 0.86267
155 701 0.86267
156 702 0.86267
157 703 0.86267
158 704 0.86267
159 705 0.86267
160 706 0.86267
161 707 0.86267
162 708 0.86267
163 709 0.86267
164 710 0.86267
165 711 0.86267
166 712 0.86267
167 713 0.86267
168 714 0.86267
169 715 0.86267
170 716 0.86267
171 717 0.86267
172 718 0.86267
173 719 0.86267
174 720 0.86267
175 721 0.86267
176 722 0.86267
177 723 0.86267
178 724 0.86267
179 725 0.86267
180 726 0.86267
181 727 0.86267
182 728 0.86267
183 729 0.86267
184 730 0.86267
185 731 0.86267
186 732 0.86267
187 733 0.86267
188 734 0.86267
189 735 0.86267
190 736 0.86267
191 737 0.86267
192 738 0.86267
193 739 0.86267
194 740 0.86267
195 741 0.86267
196 742 0.86267
197 743 0.86267
198 744 0.86267
199 745 0.86267
200 746 0.86267
201 747 0.86267
202 748 0.86267
203 749 0.86267
204 750 0.86267
205 751 0.86267
206 752 0.86267
207 753 0.86267
208 754 0.86267
209 755 0.86267
210 756 0.86267
211 757 0.86267
212 758 0.86267
213 759 0.86267
214 760 0.86267
215 761 0.86267
216 762 0.86267
217 763 0.86267
218 764 0.86267
219 765 0.86267
220 766 0.86267
221 767 0.86267
222 768 0.86267
223 769 0.86267
224 770 0.86267
225 771 0.86267
226 772 0.86267
227 773 0.86267
228 774 0.86267
229 775 0.86267
230 776 0.86267
231 777 0.86267
232 778 0.86267
233 779 0.86267
234 780 0.86267
235 781 0.86267
236 782 0.86267
237 783 0.86267
238 784 0.86267
239 785 0.86267
240 786 0.86267
241 787 0.86267
242 788 0.86267
243 789 0.86267
244 790 0.86267
245 791 0.86267
246 792 0.86267
247 793 0.86267
248 794 0.86267
249 795 0.86267
250 796 0.86267
251 797 0.86267
252 798 0.86267
253 799 0.86267
254 800 0.86267
255 801 0.86267
256 802 0.86267
257 803 0.86267
258 804 0.86267
259 805 0.86267
260 806 0.86267
261 807 0.86267
262 808 0.86267
263 809 0.86267
264 810 0.86267
265 811 0.86267
266 812 0.86267
267 813 0.86267
268 814 0.86267
269 815 0.86267
270 816 0.86267
271 817 0.86267
272 818 0.86267
273 819 0.86267
274 820 0.86267
275 821 0.86267
276 822 0.86267
277 823 0.86267
278 824 0.86267
279 825 0.86267
280 826 0.86267
281 827 0.86267
282 828 0.86267
283 829 0.86267
284 830 0.86267
285 831 0.86267
286 832 0.86267
287 833 0.86267
288 834 0.86267
289 835 0.86267
290 836 0.86267
291 837 0.86267
292 838 0.86267
293 839 0.86267
294 840 0.86267
295 841 0.86267
296 842 0.86267
297 843 0.86267
298 844 0.86267
299 845 0.86267
300 846 0.86267
301 847 0.86267
302 848 0.86267
303 849 0.86267
304 850 0.86267
305 851 0.86267
306 852 0.86267
307 853 0.86267
308 854 0.86267
309 855 0.86267
310 856 0.86267
311 857 0.86267
312 858 0.86267
313 859 0.86267
314 860 0.86267
315 861 0.86267
316 862 0.86267
317 863 0.86267
318 864 0.86267
319 865 0.86267
320 866 0.86267
321 867 0.86267
322 868 0.86267
323 869 0.86267
324 870 0.86267
325 871 0.86267
326 872 0.86267
327 873 0.86267
328 874 0.86267
329 875 0.86267
330 876 0.86267
331 877 0.86267
332 878 0.86267
333 879 0.86267
334 880 0.86267
335 881 0.86267
336 882 0.86267
337 883 0.86267
338 884 0.86267
339 885 0.86267
340 886 0.86267
341 887 0.86267
342 888 0.86267
343 889 0.86267
344 890 0.86267
345 891 0.86267
346 892 0.86267
347 893 0.86267
348 894 0.86267
349 895 0.86267
350 896 0.86267
351 897 0.86267
352 898 0.86267
353 899 0.86267
354 900 0.86267
355 901 0.86267
356 902 0.86267
357 903 0.86267
358 904 0.86267
359 905 0.86267
360 906 0.86267
361 907 0.86267
362 908 0.86267
363 909 0.86267
364 910 0.86267
365 911 0.86267
366 912 0.86267
367 913 0.86267
368 914 0.86267
369 915 0.86267
370 916 0.86267
371 917 0.86267
372 918 0.86267
373 919 0.86267
374 920 0.86267
375 921 0.86267
376 922 0.86267
377 923 0.86267
378 924 0.86267
379 925 0.86267
380 926 0.86267
381 927 0.86267
382 928 0.86267
383 929 0.86267
384 930 0.86267
385 931 0.86267
386 932 0.86267
387 389 12.0468
387 390 6.35718
387 707 1.81366
387 801 4.42618
388 389 4.70056
388 800 7.50969
388 913 3.3019
389 924 7.06021
390 391 4.5587
390 708 1.26933
390 714 4.71637
391 392 2.70059
391 712 1.675
391 716 1.60466
392 393 3.1116
392 711 2.70953
392 715 0.61304
393 394 2.25782
393 583 4.77245
393 600 0.56239
394 395 3.35722
394 583 3.87386
394 599 0.82969
395 396 1.95295
396 397 2.17728
396 587 2.501
396 603 1.10476
397 398 0.62803
397 399 1.95581
397 402 2.806
398 536 3.93438
398 603 1.69926
398 608 1.364
399 400 3.45553
399 586 1.00973
399 608 2.50769
400 401 1.5004
400 584 1.00047
400 589 2.22043
402 403 3.00452
402 605 1.20311
402 610 1.92899
403 404 0.91703
403 674 1.54319
403 679 1.61045
404 405 2.18666
404 487 0.95285
405 406 3.05061
405 676 0.82067
405 681 2.20446
406 407 2.94384
406 686 0.82067
406 691 2.45596
407 408 1.91447
407 688 1.04948
407 693 2.10339
408 409 3.58034
408 537 1.40829
408 538 2.55473
409 410 2.99149
409 689 2.81196
409 699 0.63686
410 411 2.93815
410 684 2.91909
410 694 0.63686
411 412 2.87283
412 413 2.80865
412 729 3.17024
412 733 0.62208
413 414 4.37375
413 730 3.20061
413 734 0.63686
414 415 6.15496
414 726 4.24465
414 732 1.75633
415 416 5.59407
415 725 2.04509
415 731 3.95137
416 731 8.19718
416 912 3.12711
416 925 6.52016
417 418 5.50658
417 920 2.33798
417 921 4.25297
417 922 10.3917
418 419 4.81398
418 738 3.41273
418 742 1.62768
419 420 2.97089
419 750 2.501
419 751 0.90683
420 421 3.25194
420 752 1.47413
420 753 1.83508
421 422 2.80865
421 761 0.61
421 765 3.05061
422 423 3.09902
422 763 0.69551
422 766 3.49621
423 424 3.06764
423 772 0.682
423 776 3.32995
424 425 1.53594
424 774 1.47539
424 778 1.73609
425 426 0.9548
425 440 4.40258
426 427 3.24219
426 593 0.7446
426 778 2.57432
427 428 0.682
427 430 0.9548
428 429 0.60078
428 592 1.00047
428 777 2.39692
430 431 3.22089
430 592 0.682
430 596 2.42854
431 432 2.37978
431 594 1.66609
431 598 1.56355
432 433 2.01208
432 615 2.79936
432 616 0.76433
433 434 2.60592
433 617 3.17024
433 618 0.63686
434 435 1.78575
434 551 1.30973
434 553 1.76057
435 436 2.75582
435 495 0.95285
436 437 3.79967
436 553 1.037
436 555 3.32156
437 438 2.196
437 534 7.09097
437 535 1.85925
437 539 1.50659
438 439 2.318
438 613 2.33798
438 614 0.7764
439 440 2.44076
439 611 2.33798
439 612 0.86267
440 590 1.87122
440 595 1.30973
441 442 3.9287
441 897 6.25094
441 898 1.5444
441 928 32.8818
442 443 4.52881
442 896 1.00973
442 897 3.82164
443 444 5.42934
444 445 6.81154
444 884 4.73644
444 885 1.64248
445 446 6.28774
445 857 1.41882
445 858 4.74469
446 447 4.3224
446 847 3.81335
446 848 2.16185
447 448 2.989
447 663 2.75245
447 664 0.65699
448 449 1.83
448 661 2.63362
448 662 0.682
449 450 1.30973
449 452 4.05593
449 507 3.51955
450 451 2.00095
450 653 2.00652
450 654 1.2276
451 524 2.15668
451 651 2.16185
451 653 1.13467
452 453 9.13311
452 649 2.62016
452 840 0.7446
453 454 2.99894
453 837 1.98695
453 839 1.20311
454 455 2.92864
454 832 2.14543
454 834 1.18441
455 456 3.18429
455 833 1.96908
455 835 1.13467
456 457 1.58248
456 828 3.05061
456 830 0.682
457 458 1.3708
457 466 5.6173
457 467 3.08879
458 459 5.04681
458 831 1.27372
458 844 3.63808
459 460 6.78445
459 871 4.80508
459 874 1.09969
460 461 5.79725
460 873 2.42854
460 876 3.93675
461 872 3.26108
461 875 2.74025
461 926 7.7268
462 463 4.16322
462 927 16.654
463 464 7.80824
463 882 2.78804
463 883 3.36165
464 465 6.00285
464 861 4.47426
464 880 1.54319
465 466 5.7353
465 854 2.10339
465 861 3.97203
466 844 2.20446
466 854 3.79232
467 468 3.18429
467 828 1.66609
467 829 1.50659
468 469 2.94384
468 818 0.65982
468 823 3.54115
469 470 4.14441
469 816 0.61304
469 821 3.19596
470 471 3.17259
470 814 3.24219
470 815 0.65699
471 472 1.5552
471 812 1.87122
471 814 1.4461
472 473 2.98962
472 474 2.92355
472 706 3.85219
472 812 0.7446
473 537 2.99149
473 700 0.82067
473 705 2.41317
474 475 1.52866
474 705 2.51953
474 706 1.17811
475 476 3.38371
475 704 2.28404
475 706 1.18441
476 477 2.29704
476 502 0.793
476 503 0.87339
477 478 3.01935
477 632 1.97097
477 702 1.31398
478 479 1.17336
478 628 2.23796
478 692 0.96449
479 480 1.29401
479 482 1.525
479 483 1.80131
479 485 1.89493
480 481 0.488
480 482 1.09969
480 690 2.30915
482 538 3.07733
482 692 0.682
483 484 2.98962
483 626 1.73609
483 628 1.52866
484 488 2.44
484 625 1.75633
484 627 1.364
485 534 0.25151
485 626 2.10339
485 690 1.06706
486 487 2.4039
486 534 3.49621
486 680 1.64248
486 681 1.50659
487 679 2.29623
487 681 1.01524
488 489 0.9779
488 629 1.72534
488 630 1.769
489 490 2.39847
489 556 2.43542
489 630 1.19846
490 491 2.63432
490 557 2.34672
490 558 0.73707
491 492 0.99301
491 560 2.19685
491 561 0.73707
492 493 1.9096
492 496 1.40829
492 561 0.57547
492 563 1.82797
493 494 2.58801
493 560 0.67377
493 562 2.20446
494 495 2.37274
494 550 3.26962
494 559 0.61304
495 552 1.46907
495 555 0.9836
496 497 0.5787
497 498 1.25755
497 532 1.2276
498 499 2.60592
498 566 1.525
498 568 1.04948
499 500 3.30809
499 565 1.54319
499 569 0.671
500 501 3.19188
500 570 1.12478
500 635 1.06706
501 502 3.32995
501 631 1.64248
501 633 1.586
502 503 0.366
502 632 3.05061
503 504 3.22839
503 634 0.71138
504 505 2.2338
504 633 1.79406
504 638 1.39235
505 506 3.58034
505 638 0.86267
505 643 2.41317
506 507 7.0739
506 577 5.15657
506 645 0.2728
507 508 1.89198
508 509 2.98962
508 658 1.09969
508 666 2.16185
509 510 0.244
509 657 1.04948
509 665 2.22043
510 511 2.074
510 520 2.86765
510 521 4.27174
511 512 3.42959
511 660 1.09969
511 669 3.42144
512 513 4.8861
512 901 3.14017
512 904 5.8981
513 514 4.02785
513 902 2.56273
513 904 6.71693
514 515 5.28768
514 533 1.49543
514 543 0.305
514 931 10.4426
515 516 6.58828
515 902 7.21375
515 905 1.11981
516 517 7.19102
516 907 1.64248
516 908 4.31335
517 910 3.62732
517 911 2.16614
517 929 38.3558
518 519 0.682
518 520 2.50769
518 667 0.35569
518 669 3.21048
520 665 0.793
520 669 2.728
521 522 5.70472
522 529 2.074
522 544 0.061
523 524 2.94447
523 544 3.715
523 577 2.74568
523 646 0.80233
524 651 1.06706
524 656 2.23796
525 526 5.36835
525 527 8.59494
525 540 0.43988
525 545 2.93815
526 541 0.61304
526 542 3.66203
526 545 3.24678
527 528 1.30546
527 572 2.39148
527 574 1.14609
528 529 1.89493
528 530 1.12478
529 574 2.51509
529 576 0.8184
530 531 1.403
530 572 0.7446
530 573 2.24957
531 532 1.22152
531 568 1.45508
531 573 1.70909
532 567 1.4892
532 568 0.854
533 542 2.95646
533 932 6.10762
535 536 2.94826
535 614 1.74784
536 607 2.693
536 609 0.62208
537 698 0.71138
537 703 3.37435
538 693 1.15095
538 703 2.14196
539 582 0.7421
539 621 2.046
540 581 2.91335
540 901 3.77264
541 901 2.16614
541 902 4.21298
542 902 0.90683
543 902 3.28268
543 903 2.51953
544 576 1.83508
544 579 1.10476
546 547 1.33783
546 548 2.38213
546 620 1.58365
547 549 2.728
547 551 2.43542
547 617 1.95295
548 549 1.57423
548 550 3.1104
549 550 2.85204
549 551 3.26564
549 552 1.84619
549 559 2.61945
550 562 2.22043
551 552 2.2112
551 617 2.65122
551 618 3.08699
552 559 2.16185
553 613 3.02427
553 618 2.7987
553 621 3.73248
553 624 1.84418
554 555 3.06339
554 621 3.13542
554 623 1.6116
554 624 1.10476
555 556 2.86959
555 559 2.63362
555 623 3.85219
556 557 1.86624
556 558 2.69645
556 623 4.44966
556 629 1.71778
557 559 1.98695
557 560 2.32121
558 561 2.63432
558 565 2.13848
558 630 3.26564
559 560 2.45899
561 562 2.37587
561 566 1.46907
562 563 1.50906
563 564 1.48419
564 567 1.53594
564 568 3.039
565 566 2.5489
565 630 2.89027
567 573 2.05779
568 569 2.64067
568 571 3.7185
568 572 3.05549
569 570 3.50312
569 571 2.50769
570 571 3.08879
570 630 3.84735
570 631 3.22609
570 633 3.77313
570 636 2.14283
571 572 2.63432
571 575 2.37978
571 636 3.62835
572 576 2.93815
573 574 2.93118
574 579 3.6544
574 580 2.62371
575 576 3.03349
575 577 3.44258
575 636 3.25537
575 642 1.65714
576 577 2.51213
577 578 3.51902
577 579 3.05061
577 642 2.3188
577 644 3.14904
578 579 2.56273
578 581 3.41872
578 646 2.26687
578 655 3.49195
579 580 3.6544
579 581 3.62835
580 581 3.66457
581 659 4.07195
583 585 4.41776
583 587 4.55503
583 604 5.24742
583 709 4.70926
583 711 4.70689
583 767 5.97831
583 807 6.26996
584 585 3.05
584 586 2.928
584 770 3.05
585 587 2.92864
585 771 2.86765
586 587 2.989
586 591 2.86959
586 603 2.8922
588 589 2.98962
588 590 2.867
588 593 2.92864
588 774 3.172
589 591 3.05061
589 775 3.111
590 591 3.05244
590 607 2.9946
590 612 2.728
591 607 2.76189
591 608 2.81461
592 593 2.928
592 594 2.92864
593 595 2.928
594 595 2.867
594 611 2.9784
594 616 2.67358
595 611 2.70127
595 612 2.9784
596 598 2.89862
596 777 4.13587
597 598 2.57432
597 615 2.11486
597 619 1.85825
598 615 2.73141
598 616 2.86765
599 600 3.05244
599 601 2.623
599 604 2.86765
600 602 2.501
600 715 2.928
601 602 3.05
601 606 2.87283
601 670 2.86959
602 671 3.05061
602 717 2.99149
603 604 2.86959
603 605 2.501
604 606 2.501
605 606 2.86959
605 674 3.11339
606 675 3.111
607 608 2.80666
607 612 2.86765
608 610 2.50174
609 610 2.74568
609 614 2.93371
609 678 3.05061
610 679 2.92864
611 613 2.318
611 616 2.92864
612 614 2.37978
613 618 3.01132
613 621 3.41273
614 621 3.14904
615 617 1.89493
615 619 1.89198
616 618 2.01392
617 620 2.08652
619 620 1.403
621 622 3.22839
621 624 2.74025
622 623 2.94384
622 626 3.05061
622 680 2.87736
623 625 2.69023
625 626 3.05061
625 629 2.0749
627 628 2.87283
627 630 3.111
627 631 2.9946
628 632 2.93054
630 635 2.19939
631 632 2.93054
631 635 2.9159
633 634 2.93054
633 636 2.928
634 639 2.93054
634 704 2.928
636 643 2.86959
637 639 5.47847
637 641 4.47343
637 706 3.24219
637 814 4.39242
637 824 3.0341
637 825 3.0008
638 639 2.93054
638 640 3.05061
639 641 2.93054
640 641 2.867
640 645 2.93054
640 647 2.98962
641 648 3.05244
642 643 2.90824
643 645 2.98962
644 645 3.09902
644 646 2.50769
644 651 2.38213
645 652 2.93054
646 656 2.17984
647 648 2.80666
647 649 2.93371
647 652 2.9946
648 650 2.92864
648 824 3.05
649 650 3.05061
649 654 2.928
650 826 2.93054
650 841 2.93371
651 652 3.05
652 654 3.11339
653 658 3.05061
653 661 3.05061
654 662 2.93371
655 656 2.99149
655 657 3.05061
655 659 2.318
656 658 3.17259
657 658 2.989
657 660 2.3188
659 660 2.98962
659 901 3.47218
660 901 3.74542
661 663 2.99149
661 666 2.989
662 664 2.98962
662 840 3.05061
663 668 2.92864
663 848 4.45801
664 842 2.928
664 848 4.57663
665 666 2.989
665 667 2.92864
666 668 2.92864
667 668 2.989
667 849 2.989
668 850 2.93054
669 853 5.91731
669 901 6.92961
669 904 4.72268
670 671 2.87283
670 672 2.99149
670 675 2.98962
671 673 2.98962
671 721 2.86959
672 673 3.05549
672 677 2.86765
672 682 3.11339
673 683 2.928
673 723 2.928
674 675 2.74771
674 676 2.80865
675 677 2.867
676 677 2.87283
676 686 3.05061
677 687 2.989
678 679 2.196
678 680 3.05061
680 690 2.867
681 691 2.9946
682 683 2.928
682 684 2.80666
682 687 2.9946
683 727 2.92864
684 685 2.80865
684 689 3.05
685 729 2.92864
686 687 2.80865
686 688 2.928
687 689 2.989
688 689 2.81196
688 698 3.1116
690 691 2.75109
691 693 2.92864
692 693 2.98962
692 702 3.05
694 695 2.989
694 696 2.92864
694 699 2.99149
695 697 3.05061
695 733 2.80865
696 697 2.99149
696 701 2.989
696 808 2.989
697 735 2.867
697 809 2.86765
698 699 2.867
698 700 2.86765
699 701 3.05061
700 701 2.87283
700 812 2.93054
701 813 2.92864
702 703 2.867
702 704 2.74771
703 705 2.86765
704 705 2.93054
707 708 5.856
707 713 5.81647
707 912 16.7325
708 710 4.64922
708 712 4.59164
708 802 6.1003
709 711 2.86765
709 805 2.867
710 712 3.05061
710 806 2.74568
711 712 3.05061
712 715 3.33721
713 714 5.673
713 719 5.79532
713 912 11.385
714 716 4.49955
714 718 4.51647
714 720 5.673
715 716 2.86959
715 717 2.62371
716 718 2.501
717 718 2.806
717 721 3.05549
718 722 2.989
719 720 5.61333
719 725 5.91731
719 912 7.75444
720 722 4.55258
720 724 4.71242
720 726 5.85632
721 722 2.98962
721 723 2.86959
722 724 3.1116
723 724 2.81196
723 727 2.989
724 728 2.928
725 726 5.73692
725 912 7.53294
726 728 4.49955
726 730 4.51977
727 728 2.80865
727 729 2.92864
728 730 2.86959
729 730 2.98962
731 732 5.79789
731 863 6.222
732 734 4.49955
732 736 4.70175
732 864 5.85886
733 734 2.80666
733 735 2.928
734 736 3.05
735 736 2.81196
735 865 4.70926
736 865 4.57175
737 739 3.47218
737 741 3.85267
737 745 5.79789
737 783 2.867
737 919 5.81551
738 739 3.05244
738 740 2.68469
738 920 4.60136
739 741 2.63432
739 919 4.84825
740 741 2.86765
740 742 4.72701
740 746 3.05061
741 747 2.99149
742 743 5.38599
742 744 5.38772
742 750 4.84211
742 751 4.68748
742 920 6.67441
742 921 6.49471
743 744 2.68469
743 921 5.01982
744 754 2.92864
745 747 3.47754
745 749 3.60107
745 756 5.91826
745 791 3.05
746 747 3.05
746 748 2.806
746 751 2.989
747 749 2.867
748 749 3.05061
748 753 2.867
748 757 2.98962
749 758 2.92864
750 752 2.74771
750 754 3.66457
751 753 2.80865
752 755 3.29456
752 761 2.98962
753 762 3.1116
754 755 2.90824
755 765 3.07188
756 758 3.69289
756 760 3.74095
756 767 5.856
756 799 2.93054
757 758 2.928
757 759 3.111
757 762 2.99149
758 760 2.928
759 760 2.93371
759 764 2.93054
759 768 2.80666
760 769 2.928
761 762 2.92864
761 763 2.74568
762 764 2.86765
763 764 3.05549
763 772 3.1116
764 773 2.86765
765 766 3.07188
766 776 2.95079
767 769 3.69289
767 771 3.8192
767 807 2.928
768 769 2.86765
768 770 2.86959
768 773 3.05061
769 771 3.111
770 771 2.9946
770 775 2.92864
772 773 3.05061
772 774 2.80666
773 775 2.867
774 775 2.989
776 777 3.46789
776 778 2.95897
777 778 2.93371
779 780 5.91731
779 784 5.734
779 913 11.5535
779 915 6.20793
780 781 5.79628
780 785 5.67333
780 916 6.21901
781 782 5.97831
781 786 5.551
781 916 6.89408
781 917 6.39191
782 783 3.90829
782 787 4.62957
782 788 4.57175
782 917 6.72689
782 918 6.33608
783 791 5.795
783 918 5.77023
784 785 5.856
784 792 5.79532
784 913 7.74796
785 786 5.856
785 793 5.856
786 788 4.69224
786 790 4.78452
786 794 5.91731
787 788 2.92864
787 789 2.745
787 791 2.728
788 790 2.867
789 790 2.92864
789 791 2.87736
789 795 2.989
790 796 3.05244
791 799 5.795
792 793 5.79532
792 800 5.85632
792 913 7.3111
793 794 5.91731
793 801 5.79532
794 796 4.51647
794 798 4.73487
794 802 5.734
795 796 3.05244
795 797 2.92864
795 799 2.75582
796 798 3.05061
797 798 3.05974
797 799 2.89348
797 803 2.99149
798 804 2.80666
799 807 5.978
800 801 5.917
800 912 20.8982
801 802 5.856
802 804 4.60136
802 806 4.758
803 804 2.86765
803 805 3.05061
803 807 2.8383
804 806 2.98962
805 806 2.989
805 807 2.9784
808 809 2.928
808 810 2.989
808 813 2.92864
809 811 2.98962
809 865 4.57663
810 811 2.867
810 815 3.11339
810 816 2.93054
811 817 3.11339
811 865 4.53415
812 813 3.05549
813 815 2.93371
814 820 2.93054
815 821 2.92864
816 817 2.87283
816 818 2.989
817 819 2.80865
817 868 4.44087
818 819 2.745
818 828 2.93815
819 829 3.05061
819 868 4.44087
820 821 2.98962
820 822 2.928
820 825 2.93371
821 823 2.98962
822 823 2.93054
822 827 2.928
822 832 2.92864
823 833 3.05061
824 825 2.86765
824 826 3.05061
825 827 3.111
826 827 2.93054
826 836 2.86765
827 837 2.87283
828 833 2.928
829 831 2.867
829 871 4.4979
830 835 2.98962
830 844 4.51647
831 871 4.39962
832 833 2.93815
832 837 3.05061
834 835 2.928
834 839 2.93371
834 845 4.37885
835 845 4.41945
836 837 2.80865
836 838 2.99149
836 841 3.05061
838 839 2.92864
838 843 2.93054
838 846 4.49955
839 846 4.59893
840 841 2.928
840 842 2.93371
841 843 2.928
842 843 3.111
842 847 4.575
843 847 4.758
844 845 5.80013
844 874 5.9808
845 846 6.03931
845 855 5.91983
846 847 5.97831
846 856 5.79628
847 857 5.67333
848 850 4.55258
848 852 4.514
848 858 5.73692
849 850 2.86765
849 851 2.80666
849 853 2.67358
850 852 2.86765
851 852 2.989
851 853 2.80865
851 859 4.47592
852 859 4.57663
853 860 5.734
853 904 4.9361
853 906 4.18462
854 855 5.79789
854 877 5.91731
855 856 5.9808
855 862 5.92203
856 857 5.91983
856 884 6.22469
857 885 6.42356
858 859 5.734
858 886 6.4706
859 860 3.66203
859 887 6.25808
860 887 6.78527
860 906 4.65922
860 909 6.75119
861 862 5.91983
861 888 6.28566
862 884 5.91826
862 889 6.34517
863 864 5.63879
863 866 6.04023
863 912 16.3991
864 865 5.98578
864 867 6.16855
865 867 8.15326
865 868 6.0467
866 867 5.81071
866 869 5.85727
867 868 5.9808
867 870 6.22469
868 871 5.85727
869 870 5.85632
870 871 5.91983
870 873 5.91731
872 873 5.795
873 874 5.81071
874 877 5.73919
875 876 5.80655
875 878 6.1613
876 877 5.74632
876 879 5.734
877 880 6.22469
878 879 5.85632
878 881 5.917
879 880 5.87155
879 882 5.85632
880 883 6.10122
881 882 5.79628
883 888 5.91983
884 891 6.93578
885 886 5.734
885 891 5.67136
886 887 6.59506
886 892 5.79628
887 893 5.79628
887 909 6.25183
888 894 7.15366
889 890 6.26432
889 895 6.89327
890 895 7.39384
890 896 4.69105
890 898 6.00068
891 896 4.27392
892 893 6.59506
892 897 6.24617
892 900 9.5326
893 909 8.845
894 895 6.29365
895 898 7.72198
896 898 5.47133
897 899 4.67835
899 900 6.58404
903 905 5.72881
904 905 7.74724
904 906 5.68905
905 907 6.00316
905 908 6.31873
905 930 22.6543
906 907 5.61498
906 909 8.91122
907 910 8.92687
907 911 8.00589
908 911 6.6291
909 910 4.70056
913 914 15.3899
914 915 5.856
915 916 5.795
916 917 6.1003
917 918 5.978
918 919 5.734
918 923 8.53869
919 920 5.97831
