0 25 2.0
0 58 1.0
0 70 2.0
1 9 3.0
1 15 4.0
1 25 1.0
1 31 1.0
1 37 6.0
1 39 2.0
1 58 1.0
1 59 2.0
1 70 6.0
1 73 1.0
2 6 4.0
2 17 5.0
2 21 6.0
2 24 4.0
2 30 3.0
2 31 5.0
2 35 1.0
2 40 5.0
2 46 2.0
2 49 1.0
2 55 1.0
2 67 2.0
3 8 1.0
3 10 2.0
3 12 1.0
3 16 1.0
3 27 1.0
3 39 1.0
3 42 2.0
3 73 2.0
4 34 1.0
4 49 1.0
5 23 3.0
5 26 4.0
5 27 3.0
5 29 4.0
5 44 4.0
5 71 4.0
5 76 3.0
6 17 9.0
6 21 12.0
6 24 10.0
6 30 6.0
6 31 5.0
6 35 3.0
6 40 7.0
6 46 1.0
6 49 5.0
6 55 1.0
6 67 2.0
6 73 1.0
7 70 1.0
8 10 2.0
8 12 2.0
8 16 2.0
8 42 2.0
8 73 2.0
9 15 1.0
9 25 1.0
9 31 1.0
9 37 3.0
9 59 1.0
9 70 3.0
10 12 2.0
10 16 2.0
10 42 3.0
10 73 3.0
11 62 1.0
12 16 2.0
12 42 2.0
12 73 2.0
13 14 3.0
13 31 2.0
14 31 2.0
15 24 1.0
15 25 1.0
15 37 4.0
15 39 1.0
15 58 1.0
15 59 2.0
15 70 4.0
15 73 1.0
16 42 2.0
16 73 2.0
17 21 13.0
17 24 15.0
17 30 5.0
17 31 6.0
17 35 1.0
17 40 5.0
17 46 2.0
17 49 5.0
17 67 2.0
18 34 3.0
18 39 1.0
18 45 1.0
18 49 21.0
18 51 2.0
18 58 4.0
18 70 1.0
18 71 1.0
18 72 2.0
18 73 31.0
18 75 1.0
19 62 2.0
20 62 1.0
21 24 17.0
21 25 1.0
21 30 6.0
21 31 7.0
21 35 2.0
21 40 5.0
21 46 2.0
21 49 9.0
21 55 1.0
21 67 3.0
22 62 1.0
23 26 3.0
23 27 4.0
23 29 5.0
23 44 3.0
23 71 3.0
23 76 4.0
24 30 6.0
24 31 7.0
24 35 3.0
24 39 6.0
24 40 5.0
24 46 1.0
24 49 7.0
24 55 1.0
24 67 4.0
24 73 4.0
25 37 1.0
25 46 1.0
25 49 5.0
25 58 2.0
25 59 1.0
25 70 3.0
26 27 3.0
26 29 3.0
26 44 4.0
26 71 4.0
26 76 3.0
27 29 4.0
27 39 5.0
27 44 3.0
27 48 2.0
27 58 2.0
27 65 1.0
27 69 2.0
27 70 1.0
27 71 3.0
27 73 9.0
27 76 4.0
28 36 2.0
28 39 1.0
28 60 3.0
28 73 8.0
29 44 3.0
29 71 3.0
29 76 4.0
30 31 2.0
30 35 1.0
30 40 5.0
30 46 1.0
30 49 1.0
30 67 2.0
31 35 1.0
31 37 1.0
31 39 1.0
31 40 3.0
31 46 1.0
31 49 4.0
31 53 2.0
31 55 1.0
31 59 1.0
31 67 1.0
31 70 1.0
31 73 1.0
32 62 1.0
33 73 1.0
34 45 1.0
34 47 1.0
34 49 12.0
34 51 9.0
34 73 2.0
35 40 2.0
35 55 1.0
35 67 1.0
37 39 1.0
37 58 1.0
37 59 2.0
37 70 5.0
37 73 1.0
38 73 1.0
39 58 1.0
39 59 1.0
39 69 1.0
39 70 5.0
39 72 1.0
39 73 17.0
39 74 1.0
39 75 1.0
40 46 1.0
40 49 2.0
40 55 1.0
40 67 2.0
41 53 1.0
42 73 3.0
43 73 1.0
44 71 4.0
44 76 3.0
45 49 1.0
45 51 2.0
46 49 1.0
46 61 3.0
47 58 1.0
48 73 1.0
49 51 6.0
49 66 1.0
49 70 2.0
49 71 1.0
49 73 19.0
50 56 6.0
50 62 8.0
50 73 3.0
51 52 1.0
51 57 1.0
51 73 2.0
54 73 1.0
56 62 10.0
56 73 3.0
57 66 1.0
58 70 13.0
58 73 7.0
59 70 1.0
59 73 1.0
60 73 1.0
62 63 1.0
62 64 1.0
62 73 5.0
65 69 2.0
66 70 1.0
68 73 1.0
69 73 3.0
70 73 12.0
71 76 3.0
72 73 1.0
73 74 2.0
73 75 3.0
