0 1 106.71404668978379
0 2 124.48121550971071
0 3 157.10172161842735
0 4 424.5933935675652
1 2 179.03623788901862
1 3 183.57815250611083
1 4 496.77884331462707
1 5 296.3429917538846
1 2240 393.98234019952923
1 2246 570.7872899729794
2 3 281.03776669331063
2 4 515.2975077892022
2 5 258.9031184845597
2 2237 334.97370739655094
2 2241 131.3141937368294
2 2243 149.1286215367031
2 2244 345.1905830068141
3 4 324.1240002012545
3 2233 478.00371171476
3 2235 303.6024198780726
3 2236 425.0634064603876
3 2240 507.19459358800333
3 2245 673.1183782916604
4 5 760.4499828403777
4 903 3389.3389569793376
4 1051 5077.769823660035
4 1108 3929.2513978148236
4 1478 5063.538280392432
4 1600 4934.830117300574
4 1603 2088.6718542429244
4 1605 842.6001486896507
4 1632 2754.395811193161
4 1942 3518.9616503000575
4 2039 1407.7999132315197
4 2125 3381.5660736572136
4 2231 935.3729187710212
4 2232 453.79379393129665
4 2233 442.07463730909205
4 2234 354.51888632148274
4 2235 139.07008820342944
4 2236 565.0122954458611
4 2237 750.950940834592
4 2238 860.0993154107366
4 2239 536.9579566080653
4 2240 821.0951990266808
4 2241 556.4101850047405
4 2243 617.7991967562788
4 2244 806.9634609155951
4 2245 803.8695185540431
4 2246 995.5113855527133
4 2247 559.3172618947083
5 2246 280.78304960002606
6 7 463.69300679132436
6 8 698.952839343621
6 2249 242.49302488285684
6 2250 59.24868933152208
6 2253 43.547367420279144
7 8 316.8324211706841
7 13 1400.5570438612463
7 14 1428.0985484311957
7 1979 562.4461141651769
7 2249 264.6591318979026
7 2251 148.37349155910323
7 2255 321.0668447983096
8 295 3429.1368387002212
8 1979 248.48551425429628
8 1980 208.96944192101614
8 2251 203.9939831876884
8 2255 131.3712056784147
9 2254 107.82689023007829
10 14 249.40519824097632
11 14 380.1603656082078
12 14 221.5641683496354
13 31 4921.55495505124
13 125 4170.618239837562
13 184 2148.1169234228146
13 188 2431.133683600406
13 191 2401.2131569678377
13 196 2691.7578968569974
13 218 2444.34591443708
13 242 1653.091213207114
13 245 1817.4884195889474
13 247 1861.7616264001806
13 253 1935.2727383301965
13 255 1894.9970699324692
13 270 1347.458655512922
13 271 1384.6314277051247
13 282 2037.6644738832854
13 294 1967.3833972846655
13 295 2143.9243007883692
13 308 1489.4575663353653
13 315 1782.8048390530807
13 332 1632.6438958852127
13 333 1589.525296561898
13 368 2142.51139753739
13 566 3208.0713865018074
13 628 2241.0804521755217
13 640 2576.1063662077167
13 758 2630.713311315409
13 1692 3874.2456437326355
13 1714 4176.911081337258
13 1747 5811.3480146056845
13 1822 4494.883374380175
13 1845 5726.99228851562
13 1862 4163.2517312707705
13 2105 5642.812458560765
15 73 418.44026910703815
15 80 284.1208887756431
15 87 511.94259356547104
15 125 494.0147837614219
16 121 364.46392160707694
16 122 483.511366223756
16 2277 76.64764994651541
17 65 352.3032048892757
17 89 582.8764240161845
17 99 431.63749035099556
17 124 58.25562867975985
18 46 362.77029857398145
18 65 173.7555183318909
18 89 380.2192410878799
18 99 587.6437114951417
18 130 402.4681439479844
19 79 256.533947841883
19 90 517.7868874336555
19 2278 282.72205650099613
19 2314 287.49396014079775
20 71 38.35108228233496
20 97 172.41790304838568
20 3020 311.6496681613221
21 113 1002.1583504294013
22 26 432.3725064578273
22 44 375.5988022776653
22 118 455.75641259685244
22 126 849.9800789460814
23 97 52.24504471481915
23 113 738.4564646047189
24 97 403.0941066449169
24 113 326.92949562630264
25 48 407.78819007615573
25 99 549.6121953475904
26 43 343.8300051898117
26 126 596.2269066902702
27 34 748.3110948025779
27 49 411.4335507693542
28 79 460.339672379086
28 84 330.3993025484508
28 90 290.901053189405
28 2278 374.07284516634843
29 48 667.8951659468416
29 50 112.57209920865631
29 121 503.14605268442926
29 122 385.38273205250636
29 125 1803.6567969989615
30 97 755.8096694867031
30 115 373.3179900858031
31 45 2702.0885834778055
31 47 847.6956048793555
31 55 546.6662717270909
31 56 401.02329974317945
31 59 631.1474046416571
31 60 2849.375169635458
31 71 877.5405438877144
31 72 689.9358920852521
31 74 402.39121775717393
31 82 752.6481510691361
31 89 2968.7700091800752
31 97 809.0091565903306
31 98 1186.844654469839
31 102 479.95276131628134
31 104 562.5073010217911
31 110 774.8434200781353
31 111 1528.5641317872303
31 113 245.9944319687526
31 119 861.2877622321356
31 125 2689.109322270252
31 126 1019.0250715596726
31 255 6809.389602771439
31 841 3697.281581220635
31 853 4245.810234070571
31 1701 2213.5428826922343
31 1705 1871.350204646149
31 1708 2187.0745167411187
31 1714 3248.014905425132
31 1737 2984.4589076402985
31 1747 897.536306992294
31 1793 2622.981703204732
31 1845 1640.007154558459
31 1877 2279.8514726472245
31 1880 2178.4169281527343
31 1893 1744.226372358114
31 1905 1919.7518125530294
31 3019 680.6048792759365
32 79 216.55896524335606
32 120 261.8645622045989
32 2314 149.23218002284787
33 43 665.547487790678
33 83 513.9854079633093
33 88 126.87862288188535
33 96 445.3490819506997
33 131 115.2222024775087
33 2136 309.23692964848755
33 2138 395.1230718746616
34 60 2097.44007421241
34 79 1175.6661207488178
34 84 391.9198225103904
34 91 793.3663031394749
34 95 629.4359503623325
34 106 297.3336170637404
34 2284 852.6197894325417
34 2296 120.64321418055259
34 3094 1221.0283328217554
35 48 260.8126345838702
35 60 712.7147794410703
35 89 561.2930962940837
35 125 1060.5742766837236
36 85 272.30068985457916
36 98 609.932941478057
36 2307 87.42830445811825
37 126 361.8699679868154
38 125 250.36985967115717
39 89 950.3955904979251
39 2285 184.24776739022934
39 2846 714.9083149916142
40 41 250.51280843790488
40 65 561.51086053434
41 65 730.6231756973316
41 2882 284.50275943257225
42 68 116.26488853799482
42 73 297.1929503224345
42 105 67.70471998385361
42 2309 156.1371357849459
43 83 297.16433353951277
44 118 135.62926942125367
44 126 1089.4772296648978
45 48 1324.6042513924147
45 70 1248.255528596601
45 113 2696.4916840370624
46 65 210.5848055072769
46 94 435.7727469806177
46 130 746.5859724355888
47 82 228.56798493885262
47 126 193.9007177635616
48 60 954.8049831232457
48 70 164.5094376179316
48 75 814.4445780243934
48 76 304.8787578266934
48 81 193.09968944235857
48 89 804.18173268441
48 113 3745.159427133159
48 117 159.57092079905462
48 121 964.5380145022641
48 122 880.4519183990903
48 125 1288.280453626657
48 191 5236.066895376815
48 255 4584.541180925948
48 645 605.448389151518
48 791 2981.3606374414503
48 792 2960.3668661851566
48 793 2868.5071626668255
48 803 3222.747236035515
48 853 3406.8647321289604
48 874 2834.7886326682888
48 881 2904.4345503406676
48 882 2923.8484385857373
48 1692 664.8055050959732
48 1714 985.6133223286475
48 1724 1303.0424951009268
48 1811 959.4439762668846
48 1846 1111.5195969039028
48 1877 1988.5279372663904
48 1906 2411.260878620699
49 2284 394.19870929695213
50 122 442.72649129951736
51 97 257.9711885172371
51 107 385.56935074916737
51 113 452.59851142188086
52 113 2649.309498020507
52 1877 636.2885871071413
53 65 947.1726941374851
53 95 379.21824810754634
53 99 209.46064774123298
53 130 510.7989201107913
54 113 363.09626181160354
55 66 455.9936683936725
55 97 287.18171947440123
55 101 260.9923114793396
55 107 492.34510499389796
55 111 1545.7271420983848
55 113 399.8589239027941
55 119 327.5706479075882
55 125 3065.5475581647293
55 1708 1782.3990671310214
55 1747 352.0504199788897
56 64 235.13785379201323
56 66 526.2629093224898
56 97 1150.590626236764
56 113 642.535081200935
56 125 2637.16589246541
56 1845 1926.935339301557
57 86 307.56566794515857
57 2281 125.96377905719321
57 2294 129.93969455990762
58 130 318.54637749039654
58 2291 155.9022724931071
58 3092 37.265071200414134
59 3019 130.9013096569111
60 65 368.0727916055672
60 70 857.0794975523872
60 87 350.61460696208604
60 89 151.46488939578418
60 97 3551.9804302721464
60 98 1688.5153293273254
60 109 505.7633735823337
60 113 2878.549784062448
60 122 1766.9219308092856
60 125 363.50147090543686
60 126 3099.699972218743
60 191 5984.623791320091
60 255 5346.250378922029
60 1692 497.94893603691935
60 1714 529.0649092210022
60 1724 728.2529774324004
60 1782 706.9031966448291
60 1811 526.0370491693338
60 1822 724.2884120632393
60 1846 607.0893281302057
60 1877 1050.9918835391827
60 1904 1209.1045774069646
61 73 347.7559003125114
61 2313 256.371063627408
62 130 147.62083139945344
62 3018 69.21638873157904
63 97 754.5917148274143
64 82 147.31896525521017
65 87 718.3830435584671
65 89 232.97057389387868
65 99 754.7099456546179
65 124 312.46169549432545
65 125 731.5490008056271
65 130 536.7417402506773
65 628 5292.116564627045
65 792 3150.5374791294157
65 853 3186.994021744399
65 1714 713.7200879213266
65 1846 829.6721767655854
65 1877 1413.5857436357473
65 2882 468.2887429431982
66 113 119.10756944877023
67 87 326.3286311208195
67 113 2541.0347271850237
67 125 312.1511777621887
68 98 206.6938619007397
68 2273 142.82641732716917
69 113 186.275220990637
70 89 705.8451136538948
70 125 1206.5370856725456
70 1714 974.0347555342901
70 1906 2445.137016873384
71 97 135.85541420013726
71 113 784.9075829155516
72 97 1332.3233544471445
72 98 531.8371044782745
72 113 661.6665353688023
72 125 2027.7804051247847
72 1845 1175.3545720369088
72 1877 1590.0382680559644
72 1893 1054.298201130319
72 1905 1803.62837531946
73 80 668.8303888863599
73 86 586.0354981080694
73 87 929.6157985077892
73 98 600.3679830956758
73 105 269.4809970523391
73 123 514.270887968964
73 125 911.3748266609999
73 2273 304.7572542971591
73 2282 368.8705274155354
73 2313 528.2261423795618
74 113 556.1839312089678
75 121 635.6112965450044
75 122 198.86655131988704
76 125 1562.2716417561949
77 97 428.70617470547734
77 100 98.66524190762611
78 2287 383.41468903966756
78 3094 360.6236045574015
79 85 844.2526895457928
79 90 498.2938035355768
79 98 1467.750641120158
79 120 464.9549336636135
79 126 1135.8838846232532
79 2278 91.6772932946911
79 2314 68.18378754699506
80 86 220.53657321621827
80 87 350.9879166285431
80 112 109.27475963363142
80 125 340.33263855007937
81 89 613.0044220684433
81 125 1103.525733936849
82 126 302.1691120275536
85 98 656.3939334448436
85 120 398.4943084075941
85 2286 205.21192589799142
85 2307 289.7501377484531
86 87 570.3156105545876
86 123 123.06590026624151
86 125 560.3765046385247
87 89 492.64022748044414
87 1692 696.4046697645845
87 1714 540.3421647799765
87 1722 1106.8869220866927
87 1822 545.3370257089955
87 1842 712.4615949854876
89 92 492.4670126108204
89 94 420.9247744224273
89 95 1449.5894313519632
89 97 3682.1493078198228
89 98 1818.3623339433548
89 99 966.5441630142633
89 113 3005.539183162164
89 117 826.4668323895694
89 122 1617.7710842029412
89 124 545.2178235397655
89 125 507.19918786157075
89 130 767.7179337354092
89 133 6275.411187998817
89 176 6770.47002868055
89 184 5553.845306351961
89 191 5854.766895628285
89 196 6150.775666560039
89 253 5245.7353591941355
89 255 5214.2097771959425
89 282 5503.142781910053
89 492 5674.3789307490815
89 570 5911.353540571275
89 579 5705.163006839932
89 593 5518.1068626083415
89 597 5727.75603046951
89 614 5865.188744870777
89 618 6005.501865479769
89 619 6128.794573429695
89 628 5523.4889308204
89 629 5526.824912835335
89 645 1358.8396855148328
89 704 6358.095701505784
89 706 6584.404211857397
89 718 8802.909867376733
89 739 5235.171673951316
89 755 5905.067028822584
89 758 5995.707941377787
89 789 2638.40804689268
89 792 3032.43805608763
89 793 2873.9271338474814
89 803 3023.2576457139157
89 815 3025.058990754089
89 832 3712.782936720813
89 841 3980.534100693354
89 853 2969.7811085804337
89 873 2993.0922984992294
89 874 2592.186843412835
89 875 2746.0605876827353
89 876 2700.3596207701667
89 877 2842.0734596451166
89 880 2754.9268263681033
89 881 2616.296760593849
89 882 2590.0738054222224
89 899 2381.430549063975
89 1004 8897.017167612912
89 1347 3635.664252684552
89 1349 3441.061599254035
89 1692 408.9840798842207
89 1705 4075.8537373695244
89 1708 3972.639952337097
89 1714 532.4340636359083
89 1724 784.3251218569907
89 1729 2231.3154148387316
89 1737 2548.788706446394
89 1746 2264.7158872070827
89 1782 851.0733717656085
89 1793 2432.255659945127
89 1802 1600.3017597737942
89 1811 521.9925226619034
89 1822 787.3096408476284
89 1845 2587.5002810448314
89 1846 634.4828625117859
89 1862 537.1699945798268
89 1874 401.7935942168305
89 1877 1200.6541325419198
89 1893 1524.667761574472
89 1904 1292.261706484124
89 1905 3595.9459563193136
89 1906 2008.396141105126
89 1943 7631.863466220901
89 2285 1127.1949925501622
89 2300 481.90174267454233
89 2316 656.9350347550993
89 2467 2936.8789607519634
89 3178 10406.222829940487
91 2284 69.30110349024115
92 94 79.96095737699106
92 2285 790.2116999721733
93 106 172.24025231404175
94 2269 644.5239433663536
94 2294 386.67839694388226
95 2275 232.76588617881353
95 2285 649.6922162824059
95 2295 149.7058566130918
95 2299 157.4370280424214
95 2303 565.1580230959531
95 2846 550.4474024428646
95 2847 109.47046821703576
96 126 679.9270943782876
96 2135 70.71117178653006
96 2136 136.11844438446983
97 98 1863.887747227065
97 100 341.7721138790911
97 101 537.3868560245502
97 102 1204.6383342090587
97 104 800.2592857546005
97 107 523.2794074278662
97 108 693.2872145595111
97 111 1483.3278319511355
97 113 686.3714685980079
97 114 683.0542925447381
97 116 261.2759547545261
97 119 63.34189785372309
97 125 3345.516862714681
97 127 750.8396459629814
97 129 341.9075239616719
97 191 8062.492181354609
97 196 8340.371537730447
97 242 7337.424589254155
97 253 7618.684438333231
97 255 7578.594753376379
97 282 7707.268835389767
97 832 3944.6990812951312
97 841 3546.675780626121
97 845 3126.838013916956
97 853 4475.550590662742
97 932 11360.79558750556
97 1049 9591.692541264889
97 1051 7503.436994819745
97 1095 7558.670327449545
97 1108 10554.127634430411
97 1478 10269.328373979735
97 1632 12500.969401606086
97 1635 8492.322023199411
97 1639 10203.014789672421
97 1672 9016.093850046278
97 1695 4301.615152430962
97 1701 1980.4021231677998
97 1705 1288.7094210837483
97 1708 1740.8888584843396
97 1714 3899.16960499842
97 1721 4385.2892512459175
97 1731 1281.920781919888
97 1737 3169.3696044055937
97 1747 204.52266294089245
97 1759 4382.739159831847
97 1793 2819.3495663082053
97 1827 403.29682170562836
97 1830 4353.588807558251
97 1845 1789.483868363961
97 1862 3930.3928696580797
97 1877 2831.391264839791
97 1880 1794.830156090788
97 1893 2304.587804349637
97 1900 1780.3989405690686
97 1905 1597.180133318074
97 1934 8199.730812590979
97 2089 8002.818104526693
97 2258 391.6773726795924
97 2306 118.72267228359303
97 2320 817.4799821431346
97 2856 428.4100236245866
97 3093 405.87881852051385
98 102 706.9296141113008
98 109 1445.2235412437585
98 113 1191.4287452891174
98 120 1002.8303882319667
98 125 1504.017027198066
98 1845 1259.9994006944983
98 1877 1137.8456901125544
98 1893 635.4263458743467
98 1905 2107.540629566184
98 2286 736.3871978598713
98 2307 522.9264819671582
98 2309 275.6603681602265
98 2310 1400.0672741337391
99 121 431.7758505792006
99 124 488.8156179797189
99 130 302.90827179467635
99 2324 196.82502428664958
99 2882 548.423700618631
101 113 208.68876989133065
102 113 518.3556455423402
102 125 2209.90411411803
102 1845 1377.4871548569934
102 1877 1810.1523845911092
102 1893 1277.9123886310738
102 1905 1909.0521403403438
103 113 262.86656213817105
104 107 288.8516077909081
104 113 720.8116706765559
104 115 309.4177723221804
105 2261 370.93723367136823
105 2262 444.78345356375365
105 2263 358.1947651812384
105 2265 432.47135503525107
105 2266 352.04855537082375
105 2272 179.4806240886998
105 2273 196.66621953097436
105 2274 440.4911476066278
105 2280 714.5024580788623
105 2304 238.61904388751285
105 2309 170.2529900778629
105 2311 434.1862001241175
105 2319 370.13119703399354
105 2321 420.47781302983736
105 2322 317.30399944645706
105 2323 342.7744304858476
107 108 389.006910189427
107 113 661.7852709676852
107 114 309.7547034957567
107 115 550.1049810764099
108 114 97.98509544374014
109 113 2619.9073978315037
109 125 142.32626404680224
109 1877 565.5604258165113
110 113 638.5552753456553
111 113 1677.918240813499
111 126 1103.6957159283318
112 125 299.1605138151984
113 119 726.9896350028084
113 125 2689.185627528165
113 126 1262.194270340059
113 191 7528.462094202864
113 242 6776.297164251343
113 253 7054.573328870231
113 255 7014.974905613784
113 270 6476.688258493446
113 282 7167.634998068631
113 841 3469.4070549348285
113 845 3131.242904869319
113 853 4091.0244500061217
113 882 4190.634803256807
113 1051 7945.740150499843
113 1701 1972.6219950594955
113 1705 1638.4425201592876
113 1708 1942.0470312187626
113 1714 3246.7125407364892
113 1731 1158.8241500433433
113 1737 2812.549916405821
113 1747 725.6746209857533
113 1793 2451.200137417775
113 1827 881.6736199148141
113 1833 2060.062575151213
113 1845 1445.2592878525213
113 1862 3277.134577448331
113 1877 2224.270665127405
113 1880 1932.4228648267685
113 1893 1688.0125052184856
113 1905 1674.114780706992
113 1906 3711.130227486135
117 125 1327.9288521542321
118 126 1218.24000808442
119 125 3370.2670544371526
119 1705 1229.17721726927
119 1747 156.9568111128021
119 1905 1551.7390571714077
121 122 833.7904258676604
121 2259 160.939140314582
121 2277 303.04739000573755
121 2279 367.9761315059435
121 2324 245.2422834886934
121 3016 181.8042099124608
122 125 2123.473664141196
122 255 3715.7960488187996
122 645 275.4431936816005
122 1714 1866.0527722126299
122 1906 3254.721707113912
124 130 227.98002752640156
124 2882 211.69500738208262
125 128 229.3286415938504
125 184 6044.4072724619655
125 191 6343.979194440071
125 196 6640.9628238005835
125 242 5511.396065147212
125 253 5739.203171476469
125 255 5707.061342968156
125 270 5283.984195937739
125 282 5989.669523026455
125 288 5260.994572971558
125 295 6269.459017999958
125 340 6934.690899669001
125 508 11501.419011617358
125 523 9228.263395502947
125 570 6417.698453214187
125 628 6019.857252467919
125 704 6853.582343512095
125 706 7085.640861204698
125 718 9295.136112997827
125 728 6948.287447521011
125 735 4513.023510886082
125 737 5642.240008514072
125 739 5740.472592285696
125 758 6490.673160311446
125 770 8198.848834818726
125 789 2528.518131888417
125 792 2984.311307343998
125 793 2790.1624196642474
125 802 2874.727627063301
125 803 2803.7791593960415
125 832 3246.670177816692
125 853 2605.3218337454427
125 864 3848.0737390611102
125 866 3722.693198425905
125 868 3771.4487773914557
125 871 3480.3922093506644
125 874 2362.1740854040822
125 876 2480.3359237408004
125 879 2314.478139549646
125 880 2563.906366282766
125 881 2355.8434970821404
125 882 2301.3365395367146
125 884 2716.206682018782
125 889 2262.8299911032673
125 898 2081.775388977461
125 970 10444.49945977614
125 1008 11122.34575178706
125 1010 11082.205505264883
125 1019 11670.139292839296
125 1020 11246.42929885926
125 1027 10986.225027868799
125 1049 12078.790841365839
125 1051 10299.610458883493
125 1183 8193.741588545325
125 1234 8616.726245561815
125 1257 4367.2024137351855
125 1310 6198.72476538323
125 1344 3394.402273117714
125 1345 3908.4794141144544
125 1350 3915.3816065400288
125 1356 3082.3875152729547
125 1359 3775.2256025815286
125 1360 3586.8130448046677
125 1364 3243.705331286237
125 1367 4078.852393428201
125 1428 7466.739378878045
125 1430 7490.3550060419
125 1478 12548.546580990323
125 1635 10560.779622219912
125 1672 11414.371735571938
125 1692 715.8851343354768
125 1697 1345.0190296772987
125 1701 3013.41929744867
125 1705 3627.3010667699405
125 1708 3493.952935051373
125 1709 310.6372945442463
125 1710 664.2471636238425
125 1714 558.9650021561464
125 1722 1113.3309365955936
125 1724 578.562005004794
125 1729 1958.113131663183
125 1732 454.1369711489277
125 1737 2060.08442342685
125 1744 357.70120642694593
125 1746 1989.5090172262894
125 1747 3306.6455694945457
125 1752 706.700018309151
125 1771 169.94933604679446
125 1773 870.2503932054317
125 1782 343.97412766792155
125 1783 1765.1402121709748
125 1793 1928.413790523474
125 1799 1051.0293240470196
125 1802 1191.0786971696914
125 1806 1031.949266849422
125 1811 573.1555585298034
125 1822 556.6626681530438
125 1824 673.409997055771
125 1833 3465.041716554268
125 1841 291.6080290430847
125 1845 2111.191808972755
125 1846 557.9830030495547
125 1849 490.1771751273696
125 1859 1915.5868047272809
125 1862 588.5969446273613
125 1874 598.574368251437
125 1877 700.3536521217362
125 1886 558.0928809717713
125 1893 1088.9398005114244
125 1895 1788.111554402499
125 1904 947.753598749494
125 1905 3120.3139610800126
125 1906 1702.07815676893
125 1934 10616.651251082923
125 1943 8128.50646112053
125 2037 1810.6419678982184
125 2165 4630.304155002217
125 2467 2866.6615027092616
126 2134 535.8216477815316
126 2260 160.8431555498887
126 2298 3277.5393548956363
126 2308 233.13265652444596
126 3021 192.99725346500458
129 3020 169.0198121348899
130 3018 188.8124307120936
132 133 165.34675505258988
132 614 1002.2633164982319
132 618 748.1500070664928
132 629 1353.3316980121663
133 134 1501.5957890433392
133 135 1558.2048020881878
133 136 409.4688627748822
133 137 307.87904286360504
133 138 462.5696718458461
133 139 418.2523408614814
133 140 217.63404423072623
133 141 459.7722979037117
133 142 364.27602430890244
133 143 321.66764621134985
133 144 1034.8937720679708
133 145 310.41077586515087
133 147 481.8273823589799
133 148 619.36969086898
133 149 1051.7664143409493
133 150 480.5710817291543
133 151 567.8495840242302
133 154 2747.1560047627986
133 160 3569.786775045898
133 174 2582.8256610830254
133 176 624.6608165658064
133 184 1583.3424155371044
133 191 1544.4434083566005
133 194 1606.8065070177215
133 253 1630.0745705463808
133 255 1668.9100578333628
133 474 2908.2592815186094
133 492 1050.209787565582
133 500 3187.7552973620145
133 523 2705.7332661323326
133 538 1012.8378281869807
133 566 376.99887247976346
133 570 521.500417580956
133 578 723.4319432588765
133 593 963.1808244684406
133 597 787.3042679767419
133 608 1388.6410379105666
133 614 1016.5669381203307
133 618 769.4784975235328
133 619 845.7419913984202
133 628 1371.1815754193174
133 629 1339.6557226982918
133 630 1542.5689121396808
133 691 1095.2606982336843
133 706 961.7011408245633
133 723 1013.242347215694
133 728 1672.8040830859625
133 739 1109.795939655467
133 755 1088.4163529530326
133 770 2259.3039913138205
133 970 3837.4967207706904
133 971 3716.0366231600633
133 1004 3049.164606882634
133 1007 2933.8531678672753
133 1010 5068.255063268336
133 1428 3332.114122866032
133 1635 9104.086706812754
133 1981 320.81459615954
133 2325 296.44685962465326
133 2328 479.4714528789205
133 2830 197.10518777189876
133 3178 4732.307730912381
134 135 439.8418797014192
134 151 935.5781802495995
135 146 900.3415498645909
135 147 1076.8245812571097
135 149 575.5851901004788
136 142 767.6118015593248
136 614 1015.7482242750956
136 618 767.86057875392
136 628 1420.6798363000084
136 629 1394.658507832827
136 770 1870.4787674203533
137 142 655.718460438981
137 144 1135.8503768766102
137 147 504.5466230412687
137 148 513.7384786690686
137 614 1058.5957284999265
137 618 805.3859179328642
137 619 822.4469961584285
137 628 1454.308507783004
137 629 1426.4860250863837
137 770 1991.4974199228843
139 148 300.3843538377679
140 143 120.3825701423712
141 614 1311.9053280740443
141 618 1097.9105328014136
141 629 1556.212917221492
142 144 866.7709313886068
142 147 543.417164954795
142 148 764.3535959754458
142 151 693.2608197708212
142 176 981.928584477495
142 492 685.950851599397
142 566 295.64274010618743
142 570 673.1019077004116
142 578 597.3509487792858
142 597 906.1476633989172
142 614 1221.042427157255
142 618 1002.503943068197
142 628 1511.0775356463073
142 629 1477.1172873131843
142 630 1687.6986515428493
142 706 1308.0969536765992
142 770 2623.3524487097675
142 970 4145.305546685579
142 971 4038.838094976711
142 2326 467.9250399216869
144 149 273.91491820846727
144 151 704.9268122890345
144 2327 727.3083497953243
145 614 1216.878964304157
145 629 1573.39031705373
146 151 285.14026478155085
148 152 525.5002271222393
148 253 2226.912724240408
151 152 592.1246591980025
153 154 791.9126002034274
153 156 294.2593515214516
153 160 708.648559317056
153 161 613.0174688734869
153 170 106.36081606933865
153 174 792.488406800479
153 182 126.68777457479003
153 184 4956.915137538659
153 396 1852.729258861702
153 397 1629.8011174582593
153 400 960.2778335127725
153 401 757.8405617603753
153 404 853.272119229199
153 441 1018.9191507661288
153 474 1324.8136215057207
153 492 3174.894994052566
153 500 2361.7952119134393
153 508 4021.906404121389
153 628 4743.114900769732
153 2031 3928.1892595992176
154 155 334.27988713767166
154 156 764.7446478479134
154 160 831.9303976589147
154 174 419.75711167533245
154 176 2965.2898991436205
154 182 751.9952743282894
154 184 4320.720681318709
154 474 699.2756272742098
154 492 2416.8407829365005
154 500 1747.0401457636583
154 508 4417.021744499053
154 628 4093.513499113362
154 770 4339.458260388128
155 160 657.4164222636387
156 157 446.09431785787734
156 158 308.5525776383509
156 159 194.7266042618057
156 160 417.91102761352306
156 161 902.4246250556956
156 170 400.51190924047944
156 182 169.10778966683432
156 191 5007.350337766225
156 255 5100.080985333593
156 282 5212.8718849219795
156 381 4673.638843845939
156 484 1475.8501309499486
156 485 1173.8704012853866
156 486 1129.7884667831036
156 492 3180.996871626539
156 500 2148.779184016742
156 508 4312.083176630491
156 523 4282.929817509771
156 578 3891.799993738899
156 706 4208.024792239457
156 739 3798.044191853418
156 770 4874.342167184227
156 1007 4829.525354237702
156 1010 6288.971377706303
156 1862 8221.503955215674
156 2031 4190.550148072036
156 2062 3665.3402218632477
156 2329 200.00159830733415
160 170 814.8073166271386
160 176 3796.5989396077694
160 182 581.9608414807171
160 184 5134.856384358645
160 404 1518.756640309554
160 441 1574.243128890108
160 474 921.3981223635355
160 484 1088.8753780136649
160 486 720.205167951501
160 492 3148.1687342709984
160 500 1819.6586806796947
160 628 4903.2194658202
160 629 4869.453092606248
160 770 5134.199703803558
160 2031 4596.061860172446
160 2103 1170.5772351119651
161 162 350.8049781207472
161 163 463.889051128211
161 164 283.5212940230683
161 165 405.12988562639543
161 166 310.81476298906875
161 169 365.1580125588987
161 170 511.41708444548436
161 171 445.15964919911573
161 172 489.21672769222585
161 173 567.9673174101785
161 174 744.5023582660554
161 182 733.7091564955541
161 191 4563.552461924475
161 255 4774.223031946806
161 401 605.3831110157732
161 454 917.6951828881428
161 508 3462.4640483781436
161 523 3435.061559928866
161 628 4470.1361872571015
161 2849 398.09825676235357
161 2926 411.3843574515101
162 170 253.39724090663972
163 170 583.8287060233787
164 170 468.63957473305425
164 508 3452.066608351325
167 170 699.1801188111853
168 170 634.7549630589762
169 170 834.0986655849428
169 454 707.8029996973456
169 523 3097.8651156585556
169 544 2622.6750525787525
169 770 3776.471238519305
169 970 3423.2140299168695
169 1007 3649.904459229066
170 171 437.34895332651837
170 182 232.92556600172855
170 191 4856.829173552272
170 255 5004.0665557085895
170 282 5086.8007699806785
170 381 4524.10056293585
170 401 674.0711553631813
170 404 763.8904713503935
170 441 958.8970200406012
170 474 1401.5901004774807
170 484 1834.3057598439837
170 486 1512.4698561502491
170 492 3184.411467051281
170 500 2446.2308126903254
170 508 3916.318455739541
170 523 3931.381086280532
170 540 3124.8189185264205
170 578 3830.7002496716445
170 628 4719.168000534658
170 706 4014.43995087521
170 770 4584.34415046502
170 1004 4393.131545659779
170 1007 4483.987742212737
170 1008 5807.561712302952
170 1010 5895.9141309300585
170 1737 10468.920376821525
170 1802 9395.437692532558
170 1862 8444.443419918498
170 2031 3831.811481790202
170 2849 448.2392733064125
170 2926 296.8249664490796
170 3159 560.9415981106821
170 3178 5527.5322871687085
174 454 1401.2055160673626
174 492 2422.368185562776
174 508 4020.996948964375
174 628 3951.0484943294805
174 770 4001.460262785432
175 176 130.39417066064007
175 184 1756.977215904195
175 538 408.9707839878493
175 614 1206.205024316186
175 618 976.2983120060597
175 619 928.9247127618268
175 628 1618.2977211622645
175 629 1595.7170668746437
175 639 1629.075551540772
175 755 1228.2369930342106
176 177 298.4271860134132
176 178 330.8961939522392
176 179 334.6289769881114
176 180 240.83994721772854
176 181 376.2776233565233
176 184 1627.4715343088546
176 191 1471.8003216970965
176 194 1577.520208500306
176 195 1628.6404436260511
176 196 1285.327365474093
176 255 1831.2626875369917
176 282 1771.157693453385
176 474 3255.0557319979685
176 492 1663.6460864282358
176 500 3681.2968588135723
176 501 3284.037798278997
176 523 2096.0947055324878
176 537 1060.6646404484738
176 538 537.0876008452555
176 570 859.1647524126912
176 578 1261.5863226398872
176 593 1276.2026780786816
176 597 1063.716146174808
176 614 1075.8146718315786
176 618 846.7839563788159
176 619 798.7665486241339
176 628 1487.91635904732
176 629 1465.3861429797073
176 639 1502.9116208564699
176 642 1316.6003212764604
176 685 292.39709266567945
176 691 984.2098791179457
176 699 859.1186273359928
176 704 978.5046708342368
176 706 576.8476112207932
176 708 570.0030949365216
176 723 396.29284480522466
176 728 1354.5442452375667
176 739 1711.1237465964423
176 755 1098.2150959132243
176 758 1188.1886010431917
176 770 1668.6570712193825
176 783 1224.6445025136504
176 970 3254.2369421675617
176 971 3115.0245938221456
176 1004 2426.8203826632625
176 1006 3594.0841397679815
176 1007 2309.202830831129
176 1010 4444.475125271443
176 2007 2931.187693341727
176 2388 870.7902697260075
176 2389 1371.1384516985222
176 2390 1161.6845584240464
176 3178 4110.448997826342
177 178 132.53289116066205
177 181 84.64618630912062
178 181 184.0282152398545
179 184 1960.6933689163748
179 188 2069.3233281386633
179 191 1805.7447445219234
179 193 2197.57931318584
179 195 1963.2688192887388
179 196 1612.156993106357
179 197 1737.4563012185827
179 198 1954.9025973762193
179 302 1790.8557619511341
179 538 259.31740382395526
179 578 1464.2408802906748
179 614 1403.6940929809475
179 618 1167.0336063461996
179 619 1130.4885892504058
179 628 1814.901842111213
179 629 1791.2009797025642
179 630 1958.1096678856106
179 639 1805.2207486398704
179 640 1549.001378145622
179 642 1651.2258570397426
179 755 1430.2569081070776
179 758 1522.552950276949
179 3047 246.63871742060354
180 537 935.1917132800094
180 538 322.97336286300214
180 628 1724.1253098050456
181 629 1710.8386122784696
182 184 4983.409328257855
182 404 967.7584018854874
182 441 1105.489627571469
182 474 1232.908960838319
182 492 3159.553494581923
182 508 4148.41434507722
182 628 4765.957871651776
182 1181 5811.9052904571745
182 1183 6136.661889031169
182 2103 1680.5330860243619
183 254 307.8990210661461
184 188 644.5115634113866
184 191 304.8396426794158
184 193 481.80443669434896
184 196 596.9788822727639
184 200 419.51411507570924
184 201 633.2302602464902
184 202 398.1727572807716
184 216 1591.5431580283291
184 218 1646.51594968779
184 240 462.9174491001604
184 242 535.6448676463535
184 245 505.1726881598359
184 253 328.04248655609314
184 255 350.43507223034015
184 262 618.0665936004095
184 264 452.93700263983993
184 271 764.6858614423047
184 282 157.65897556809384
184 287 905.5252784856157
184 288 784.3149637237644
184 294 620.6564484481853
184 295 754.3843142540572
184 315 1104.1018823651727
184 334 1017.3568979218727
184 340 1146.2036454219874
184 341 867.0375371091013
184 343 905.0110613400138
184 368 1287.7657483855096
184 369 1266.3511101730728
184 404 5237.389615641836
184 433 6698.30622386503
184 461 6236.13230120282
184 476 2930.951850230151
184 479 3050.586689345746
184 480 2870.6628492761356
184 481 3094.9258722942263
184 484 4974.42972912598
184 486 5153.755002177559
184 487 2561.3287279612387
184 490 1864.6681246687508
184 492 2182.666819326927
184 493 2379.5199548333912
184 497 1881.2475990968687
184 500 4477.448173019501
184 519 6475.885902018833
184 523 3208.6132238048494
184 540 6362.014932368686
184 551 6238.986667047639
184 553 1973.0727722429383
184 555 1697.7398809403294
184 556 1951.4999324483963
184 558 2877.9982351778644
184 559 1397.2293624470428
184 564 1029.0232890914353
184 566 1458.0148309214153
184 567 1655.0971045431268
184 569 1012.540115467301
184 570 1083.784459204447
184 573 1009.4153316466363
184 575 1359.4586408077148
184 578 1315.6143813421897
184 579 1735.4829564247514
184 580 1227.6338925286054
184 582 1114.1225804008004
184 585 1320.5355842642027
184 586 1326.5110375687866
184 591 1708.8324578311422
184 593 778.3256126798482
184 597 842.0270468983186
184 599 923.2590842509893
184 609 1002.9105295777115
184 614 577.2120322896518
184 618 831.6083668859573
184 619 831.1697161933342
184 628 251.4801245414926
184 639 608.887080112459
184 640 429.36348547455896
184 642 346.5263473629244
184 650 2395.4380624067794
184 655 2379.9947938158007
184 657 1735.9286576325562
184 663 2224.2865556685147
184 666 2471.2952022834506
184 668 2322.239513150533
184 671 2319.791672258563
184 675 1950.7553269489526
184 676 1139.239056993869
184 682 1711.7444036996742
184 685 1568.3153009577306
184 691 664.6871945455416
184 693 675.9664967682372
184 695 702.7757846413364
184 699 871.079286406963
184 700 815.7151634229713
184 704 835.7576144350637
184 706 1172.551445584214
184 708 1345.1108369637009
184 710 936.1782423093682
184 712 898.3094911951495
184 716 696.578950241501
184 718 3250.984025440405
184 723 1853.6244115613933
184 728 924.8861044868645
184 731 1832.2748836470737
184 737 1473.398797694129
184 739 1717.4714575591347
184 750 1753.742593633881
184 755 532.0981300395861
184 758 482.86910792567693
184 762 2597.7666254840906
184 770 2166.25137056811
184 771 2261.972030736929
184 783 1356.6046378373471
184 786 1435.6431751451319
184 1007 3139.2662244329013
184 1008 5166.6967123706145
184 1394 1854.1567993168928
184 1428 2229.6226191560154
184 1438 6866.067952475664
184 1486 6399.323161692674
184 1635 7944.9398531212655
184 1714 5907.232908512
184 1802 7106.033753547368
184 1822 6247.001450325411
184 1846 6035.521457218877
184 1862 5885.519563744248
184 1877 6675.185293649314
184 1910 9262.303784852496
184 1943 2101.4350496045363
184 1953 1434.2762531942049
184 1956 1453.5731681278519
184 1981 1269.3158535568464
184 2007 2260.6947433657224
184 2031 6566.611428964771
184 2052 2664.090307031445
184 2102 5287.4803660135185
184 2172 2376.574521047525
184 2173 2204.1043807549295
184 2376 1869.6987578742426
184 2886 2360.185319345864
184 3047 1715.6629569069073
184 3178 4892.362224042448
185 242 562.3607806307426
185 271 801.7926918668912
185 288 804.4878336604082
185 325 1070.0359852513352
185 335 1088.5373969730133
185 340 1160.704389014588
185 348 1221.265525136557
185 476 2891.287869391011
185 479 3012.0253614660655
185 480 2831.0233962009042
185 481 3057.516383332914
185 487 2518.5896404731234
185 489 1991.925390662541
185 490 1817.406345994238
185 491 2039.0167026822003
185 493 2336.121253211537
185 497 1837.8158384053106
185 555 1679.413564245605
185 558 2857.2540376220095
185 561 939.7290588034547
185 565 1081.4847840057196
185 566 1410.5727248562669
185 567 1608.7269303236844
185 570 1035.0951526010194
185 573 960.4474623831084
185 575 1310.8671870576206
185 578 1272.6879699751169
185 579 1691.0827450981353
185 582 1066.025213036146
185 586 1279.353064759323
185 589 1001.6896667160754
185 590 1064.9781459975882
185 591 1666.4516052769268
185 593 735.801266539123
185 594 692.1216529429294
185 603 899.6164265307675
185 605 688.9474393482511
185 611 1058.2741311824436
185 617 821.7100205414748
185 618 782.7412449007751
185 620 866.7178453514408
185 621 766.255184018717
185 644 745.2127220708467
185 647 1901.9969936932007
185 657 1706.147588476547
185 666 2447.7532815243403
185 668 2292.7470127656197
185 674 1809.5143458492118
185 675 1919.6830335625752
185 676 1130.4198191607397
185 678 1405.026406816387
185 679 1160.8590048030885
185 680 1509.2309148712657
185 681 1583.050529185607
185 687 1533.131542844341
185 688 1132.4358530111074
185 689 1297.2722806747424
185 692 659.4448405283222
185 693 631.3494121477084
185 694 748.4478684791512
185 699 834.4448232356983
185 700 784.8354413969638
185 701 843.4005271376489
185 705 1147.731863857696
185 709 876.7693952916087
185 711 1021.9667697912857
185 712 875.5154311504598
185 731 1792.0949476690214
185 737 1439.5226101253538
185 746 1466.7345701030013
185 750 1743.55576208657
185 781 1617.849008725028
185 783 1339.561086679496
185 784 1444.0908436293255
185 787 957.8943951294397
185 1956 1476.698553645949
185 1981 1220.2416138685944
185 2169 1015.7803247970713
185 2173 2189.2860949273686
185 2376 1823.2911178747106
185 2831 632.8575927326414
185 3115 1141.4164939565255
185 3150 1701.4386928446224
186 187 191.38721255733145
186 487 2573.599898033764
186 609 950.1394371712712
186 612 1002.4629748752793
186 630 166.50296652728522
186 650 2324.518881518852
186 666 2398.5728853824394
186 1981 1250.5934877874356
187 1981 1295.1464533152543
188 242 1063.7103675338512
188 245 1117.9351725989677
188 246 1101.8937130786028
188 247 948.4361414853278
188 253 952.1040524468445
188 256 882.0018156654504
188 264 1002.3029838461322
188 270 1228.598048309137
188 271 1165.7022682738288
188 279 907.3333546381547
188 282 594.6683754557386
188 288 1328.2710326815413
188 291 1512.3371672586436
188 295 364.45782339160843
188 308 1016.2278531143487
188 315 874.0473250123988
188 325 796.5652010268478
188 332 1241.062489367199
188 333 874.4433315510805
188 368 853.0548022004577
188 476 3487.1114873054207
188 479 3616.9173013641434
188 480 3427.3844593140184
188 481 3671.171067390253
188 487 3083.1813969061704
188 493 2893.5658144271347
188 523 2873.8300271800495
188 555 1305.2432065528874
188 557 2513.459885814489
188 570 1504.8803452620652
188 576 2315.037039790423
188 578 1853.3016635153795
188 579 2243.265437989523
188 614 960.9433049442919
188 619 1076.292895813102
188 629 884.7688887402643
188 640 683.1147950672008
188 650 2106.6580383044975
188 655 2031.7226171849743
188 657 1502.693730394891
188 666 2111.1522739136653
188 674 1501.5000440036067
188 676 686.4805023156422
188 689 1499.5905087542258
188 690 1312.2373997628881
188 691 827.5309714721349
188 692 795.6727662606332
188 704 769.1706564200251
188 706 1180.3690334168823
188 708 1279.4019888868966
188 709 994.3250433605645
188 718 2845.5239784855466
188 727 511.35301658319986
188 739 2305.4260944945045
188 755 868.1303628990834
188 762 2186.397984472482
188 772 2111.6596457442415
188 781 1308.3902718167
188 1007 2705.4673525090666
188 1401 1319.9998736637478
188 1404 980.4245915013081
188 1428 1596.5618465230207
188 1943 1797.7654790064648
188 1981 1648.0619312887293
188 2173 1748.252085398205
188 3047 1829.0875732393154
189 191 386.6373515701981
189 194 464.35961125401656
189 195 487.76414389940015
189 196 340.191908576928
189 200 423.793618233357
189 254 952.4140309554242
189 481 3606.0072313708392
189 524 3151.952153285509
189 570 1412.4548002925742
189 640 599.0230582518874
189 650 1979.287941584245
189 657 1367.8842724093092
189 666 1993.2528463188578
189 758 556.0768654865494
189 762 2077.8332595851634
189 1428 1642.559278945416
189 1981 1545.8875092057167
189 3047 1695.1180729878645
190 253 778.5368930163495
190 476 3251.6188194619185
190 479 3381.6851813612448
190 481 3436.4379379366083
190 762 2217.04238202813
190 1981 1422.195056291653
191 192 241.69800163234814
191 193 411.6459401461768
191 195 188.86835255443205
191 196 299.0786454580804
191 197 189.6409970646257
191 198 300.7532116345526
191 200 156.65320284707093
191 201 431.68306686036414
191 202 280.8716507914279
191 203 335.49326000339505
191 211 271.51330066912567
191 214 542.8401692680029
191 216 1468.5271186922582
191 218 1537.9399851512628
191 240 766.2069132892086
191 242 832.5834409408543
191 245 808.1593798444611
191 251 804.9547539583857
191 252 780.2776199461968
191 254 620.3929665635643
191 255 654.7605010643798
191 268 1065.1701948426262
191 271 1032.8551268878662
191 282 366.57375472178785
191 288 1086.8891349189469
191 294 635.7774754638993
191 295 678.6520864335422
191 302 175.72837637129751
191 308 1160.1912891965585
191 315 1132.545517477294
191 333 1001.1993674851994
191 334 828.2846656753974
191 335 799.8731071163614
191 336 748.1663164839514
191 337 632.7400117990181
191 338 958.5309065172178
191 340 896.2441943091908
191 341 598.8495372833555
191 343 882.2259307752503
191 368 1222.9870223623666
191 381 8690.017914268054
191 402 9199.596034348018
191 433 6564.072089192392
191 452 7561.584101641089
191 476 3055.8224084273847
191 478 3251.9493425496676
191 479 3184.904834266989
191 480 2996.015631564531
191 481 3238.8036681876
191 487 2656.3102521304045
191 492 2277.247524693891
191 503 4651.267323423359
191 504 4706.26024701963
191 508 5348.759265506996
191 523 2921.7094091386534
191 524 3323.6150729144806
191 532 6707.208822131349
191 550 6917.248209972126
191 552 1288.607946146118
191 555 1396.7387754426923
191 557 2635.96331323545
191 559 1114.1407356905554
191 561 698.5212055222817
191 563 930.4551128756711
191 564 734.3532273335596
191 565 834.3918793251744
191 566 1493.3272033451806
191 569 1150.0803114148057
191 570 1093.6159549088497
191 575 1364.617845488893
191 576 1885.3146288751598
191 578 1422.0525765336972
191 579 1817.170654866759
191 580 1181.1238058857934
191 586 1370.836459545686
191 597 897.82822433731
191 609 834.7453337374462
191 614 544.9826998315332
191 618 776.1699393868524
191 619 716.2752091481028
191 621 798.6858465609473
191 628 449.00346723415527
191 640 282.17774975433366
191 650 2114.395083759647
191 655 2087.9377616104825
191 657 1461.3599974569802
191 666 2177.7441875331547
191 667 1668.256814783071
191 668 2044.7892134708754
191 674 1540.6088256468179
191 676 834.901702357353
191 682 1490.1498389117735
191 685 1366.3256398346532
191 690 1018.3844936124298
191 691 489.70317003867336
191 693 541.7570742962085
191 695 512.9080050662496
191 699 644.6919857273069
191 703 543.9881301933231
191 704 577.202655490659
191 706 958.1376400399946
191 708 1109.8618177062826
191 710 720.2251798554154
191 712 608.216183796677
191 716 406.0554853001114
191 718 2953.015335210611
191 723 1646.6566694623723
191 724 608.2736986501026
191 725 369.5364654245633
191 726 454.8905330376384
191 727 408.56515760627127
191 728 620.3139869299935
191 731 1959.331944280327
191 735 3031.718060565629
191 737 1652.7478426557493
191 739 1873.8503581722725
191 750 1449.0527293651717
191 755 459.7844430059347
191 758 285.62376399404144
191 760 2196.7812958904065
191 762 2297.869191323134
191 770 1862.3923996634621
191 771 1965.5987021154524
191 772 2192.671297690031
191 780 1534.756007556138
191 783 1054.5786662750065
191 784 1182.6584166071414
191 785 1263.9885197754288
191 792 7512.440419118452
191 793 7572.4517504196465
191 794 7616.839027940381
191 803 8195.572798371622
191 832 9551.984885733136
191 853 8606.140081979602
191 879 8138.225155788516
191 880 7895.213858385686
191 882 8067.515952212626
191 960 4439.797584525284
191 965 4367.499343241482
191 970 4131.679624463382
191 975 4292.434699079005
191 1004 3044.5763929756954
191 1006 4020.562226206294
191 1007 2837.9768670820836
191 1008 4861.972124509225
191 1010 4843.213270613654
191 1014 5179.162207235323
191 1049 9365.039834377756
191 1051 9366.636221152896
191 1095 9360.841294776239
191 1181 9568.434207775506
191 1183 9798.206333014257
191 1209 7709.29705103266
191 1216 8353.975563574875
191 1257 9087.116923943671
191 1333 8076.87621784581
191 1344 7160.818018847066
191 1345 7336.1473709971615
191 1356 7354.306427789058
191 1366 7593.482740464054
191 1370 5089.372251066224
191 1371 4308.758865688282
191 1380 3367.25373028824
191 1394 1583.7335365853207
191 1401 1747.3374134096223
191 1404 1395.2637835168039
191 1423 4115.111168472506
191 1424 4823.5455545186405
191 1427 4684.4198947527475
191 1428 2022.4117606110617
191 1430 2008.1836090631118
191 1435 2846.445331786317
191 1438 6568.900107420861
191 1450 6685.120123417527
191 1456 8066.441217481379
191 1478 9153.338327492509
191 1486 6120.629250857315
191 1506 7401.649759017506
191 1513 7593.879440529867
191 1518 7883.977719217754
191 1535 8711.731710814634
191 1538 9655.930248338696
191 1595 9997.52915352253
191 1600 10279.269885686137
191 1635 7787.388272091035
191 1657 8635.053939221583
191 1664 7810.387655808885
191 1672 8857.739049316526
191 1692 5889.320241338783
191 1705 9148.720568827137
191 1708 9321.998213962279
191 1714 6211.0401914790555
191 1737 8402.600403244718
191 1746 7763.563668147689
191 1747 8197.433216413147
191 1782 6679.285593357645
191 1793 8258.187530357141
191 1802 7409.660042666554
191 1822 6550.639197920242
191 1845 8088.751640772062
191 1846 6339.383883124988
191 1862 6189.446247195561
191 1877 6971.073966423774
191 1904 7059.477673977622
191 1905 8963.489416085358
191 1906 7619.880980689658
191 1910 8999.480286421754
191 1934 8543.163259746478
191 1943 1815.6405629932456
191 1944 9293.5033936436
191 1953 1270.2361268458346
191 1956 1241.6647121703859
191 1974 11502.57319548043
191 1975 3214.2678551728322
191 1977 9261.347006039789
191 1981 1252.096332456821
191 2007 2046.7473181598943
191 2031 6316.6070914137335
191 2043 4803.929644616387
191 2052 2836.0456289058625
191 2062 8110.7972486380795
191 2089 8019.337163935425
191 2150 2418.3121872047323
191 2173 1900.021727249538
191 2182 3774.2508138598305
191 2330 573.3542369341815
191 2376 1919.0124143506264
191 3047 1559.2764717568477
191 3178 4587.5386136503985
192 196 511.4808210466363
192 200 398.1948435484597
192 203 125.87020596098174
192 573 1196.8854275571157
192 575 1553.038326658326
192 579 1966.7329746735259
192 657 1679.7315360308496
192 758 522.9520265980319
192 762 2475.734274276105
192 1981 1449.7938771513375
193 194 363.27917690254185
193 195 339.6243907727215
193 196 600.0206235940029
193 197 465.5447179012308
193 199 529.9250617286181
193 200 551.9432395226992
193 211 663.4706151875096
193 214 178.2968992443229
193 218 1168.6030390829162
193 240 794.4911114107476
193 242 810.8327763288287
193 245 894.2363179491707
193 247 723.0969952059369
193 253 743.0047278492261
193 255 745.4444228751797
193 271 892.9374061875611
193 282 379.357426640726
193 288 1072.6020210260845
193 295 279.84068623440146
193 308 794.8261272536861
193 315 724.5768081373076
193 340 753.3993725141919
193 368 825.5052019805682
193 476 3406.04246705083
193 479 3528.129428719642
193 480 3345.828678865414
193 481 3574.3761481239417
193 524 3529.8029354568066
193 559 1373.7184275281984
193 562 991.9824814130296
193 563 1213.1563454143889
193 566 1886.6739130084286
193 570 1492.5656923321042
193 575 1766.5538031865515
193 576 2248.453106144083
193 578 1780.8595009283686
193 579 2191.709619747811
193 580 1591.465341790401
193 597 1277.9207494003601
193 609 1232.3472845031374
193 619 1127.1610798737934
193 628 727.8476267598029
193 640 693.6033288119993
193 650 2352.9669211643877
193 655 2289.321129216205
193 657 1730.4451514686286
193 666 2371.1497335746926
193 674 1752.3663348869052
193 676 949.8167636443949
193 682 1839.1196035506964
193 690 1416.1394684416039
193 691 894.1177454070908
193 703 917.9420000177029
193 704 919.2733373341899
193 706 1326.0072519162234
193 708 1453.1523545562704
193 716 489.7818227868493
193 723 2006.806428680499
193 727 682.7542793421736
193 728 767.4647058830345
193 731 2306.39789014611
193 739 2197.680845179337
193 755 867.280239370744
193 757 767.390083415346
193 758 693.0555254006335
193 762 2454.157139811017
193 770 1986.927216329836
193 771 2149.106909567372
193 772 2374.3758482538988
193 785 1474.3616390402815
193 1010 4884.2175988125855
193 1401 1406.5814558551353
193 1428 1765.0571966902344
193 1714 6137.543957557114
193 1943 2045.2237265943309
193 1953 956.1719063086958
193 1972 627.5656276401107
193 1981 1658.503928453138
193 2052 3145.89382592726
193 2104 555.485655087682
193 2173 2019.7426308042661
193 2177 836.1801936088085
193 2182 3764.5750966033766
193 3047 1952.2944129651328
194 196 435.70095418874473
194 198 360.62446802447755
194 201 463.176099164868
194 211 394.56480827736726
194 240 637.7042814030046
194 242 699.4176984331536
194 253 513.8121659777021
194 255 534.2215443395689
194 271 895.8089175885742
194 279 492.46489570348166
194 282 229.64171057517814
194 288 956.6868849883776
194 315 1057.6816186538215
194 334 856.9850153172225
194 336 841.4700651877782
194 340 965.930266513649
194 368 1188.765428513664
194 374 486.2204974111963
194 476 3050.014592177044
194 479 3174.634838778471
194 480 2989.9035966146757
194 481 3223.861850748274
194 493 2478.39410180828
194 503 4639.4845250857725
194 504 4695.706691531896
194 524 3460.556780113579
194 559 1251.1747614777094
194 561 833.9127478459951
194 562 835.5128967728525
194 563 1067.0893694792237
194 564 870.9169566598124
194 565 970.70348083969
194 566 1524.4079986691763
194 570 1132.747254650469
194 573 1051.5137247535924
194 575 1407.8453529027593
194 576 1887.945018390985
194 579 1829.0858260387226
194 580 1244.3912668440057
194 609 941.3303368317574
194 610 935.9635577406011
194 619 801.4570538668421
194 650 2251.438182058733
194 655 2224.473588986183
194 657 1597.922013651217
194 659 1740.0219499890425
194 663 2072.2873344688446
194 666 2314.0228376571413
194 671 2171.0206735460883
194 674 1677.1710958808956
194 676 959.1929602994111
194 678 1309.7482911721431
194 681 1508.2187574473485
194 682 1616.1601461899122
194 685 1486.5436814055276
194 689 1300.04270666021
194 690 1123.2854510269985
194 691 593.8184057838896
194 699 768.9538747361647
194 703 668.5549215812164
194 704 709.8365165556057
194 706 1080.6621219183978
194 708 1238.6418973441073
194 709 835.1765756245021
194 716 510.4983323344752
194 718 3087.989752831861
194 727 544.837295238308
194 728 745.9899815657446
194 731 1950.51609380949
194 739 1850.4570298123663
194 742 1148.2120987508001
194 757 440.1822457075479
194 758 391.75738736317413
194 760 2324.15173409296
194 762 2432.0871996945934
194 770 1993.1554863626982
194 771 2101.2617752075544
194 781 1482.6424038434484
194 1398 1637.9274508672079
194 1943 1952.6926857889412
194 1981 1303.9180451568814
194 2007 2094.616902984834
194 2052 2806.4080804509317
194 2173 2030.3471340551166
194 2177 705.6452711633748
194 2182 3888.5586996766438
194 2330 581.5357505889618
194 2376 1945.7402556960112
194 3047 1665.5096816769465
195 196 485.82345364362175
195 197 364.67137046060185
195 198 380.0041588456378
195 200 338.13381783130086
195 201 468.74562449256854
195 211 448.4575407577102
195 214 416.38085865600294
195 218 1507.794128665764
195 240 598.3644270718548
195 242 655.4306510925558
195 243 829.9486585719044
195 244 701.7787056961057
195 251 695.2600276559032
195 252 677.4552654931227
195 253 484.610432390556
195 254 466.0729741754586
195 255 501.8917363974817
195 259 636.8999860726849
195 262 700.4026579078934
195 270 896.2495955933972
195 279 455.93954057207964
195 280 714.3221849881805
195 282 178.3437495562394
195 288 915.1073801708617
195 294 519.3419309276787
195 295 618.9919500616713
195 302 189.4968823753368
195 315 1017.4953098845955
195 336 867.5438557292487
195 337 701.6421726648986
195 340 981.2851047110296
195 341 704.8523012087769
195 343 792.5478951646345
195 368 1162.4037497605145
195 476 3066.924176767809
195 478 3242.319477864405
195 479 3189.799623334541
195 480 3006.733677883225
195 481 3237.2209403175525
195 487 2686.239862631217
195 524 3510.7664615921412
195 557 2815.99384279742
195 559 1302.6395192846269
195 563 1119.3189255424502
195 565 1023.2281461809771
195 566 1555.6935409387195
195 569 1147.636244210227
195 570 1167.4161993130658
195 575 1443.1497153128548
195 576 1908.948766149004
195 578 1441.3016747933468
195 579 1853.4631777004392
195 580 1285.7894978722481
195 586 1427.308680428624
195 609 992.9746883620162
195 610 986.6073343190636
195 614 630.9761525701733
195 619 849.207246100803
195 621 883.0530102300935
195 628 392.77118409813227
195 639 761.9271831760199
195 640 415.0367121240057
195 650 2302.821838563924
195 654 1986.8904488495073
195 655 2273.841673058853
195 657 1650.227577258673
195 659 1787.6897203155977
195 664 2053.6790474526756
195 665 1753.6009843713352
195 666 2362.97649893823
195 667 1857.1039136807096
195 668 2233.525304508365
195 670 2186.4271306610317
195 674 1726.6390107593247
195 675 1868.9944088945833
195 676 999.7722365156679
195 678 1363.032335284766
195 681 1562.0930073637219
195 682 1670.0113596395804
195 689 1350.3045857907948
195 690 1174.4912630754934
195 691 645.5839113848276
195 693 680.1682403369286
195 704 763.499940146877
195 706 1134.319766568564
195 708 1292.5718777802028
195 710 895.4888218036035
195 716 543.8237243391549
195 718 3135.299488812466
195 723 1822.471236402036
195 724 790.6420432927126
195 726 631.6861085634939
195 727 594.3518995334039
195 728 787.8242632465848
195 731 1967.2321905332278
195 735 2947.3520577776812
195 739 1861.7284555241633
195 750 1614.8381623395826
195 755 563.7502484906365
195 758 444.40777861529597
195 760 2365.614614683187
195 762 2478.7110125017284
195 768 2626.7193413529926
195 770 2037.0541747721563
195 771 2149.4313748081017
195 772 2376.647060129976
195 783 1234.1835479443182
195 784 1370.5437135618974
195 785 1449.1718826681486
195 792 7381.584424792847
195 793 7435.681752425856
195 853 8443.700495065395
195 882 7909.577969364983
195 1008 5026.288817339771
195 1010 5005.084473853297
195 1051 9331.029639553939
195 1362 7962.80403760054
195 1401 1740.7059276533791
195 1428 2068.034347688768
195 1430 2057.6049518057157
195 1635 7796.129560426854
195 1708 9133.130895182301
195 1714 6038.446356739748
195 1746 7603.579040915243
195 1802 7236.390999285423
195 1859 7640.492848053443
195 1862 6017.2313111787935
195 1877 6788.413600289407
195 1943 2003.4275174268842
195 1953 1279.6072716337133
195 1975 3373.2455428320227
195 1981 1341.9768533041963
195 2007 2098.172635060693
195 2052 2814.2556318848697
195 2117 3704.795199644716
195 2169 985.9484119237885
195 2173 2073.9182368664938
195 2182 3921.9044302565812
195 2330 575.6669100964043
195 2539 3514.245585009308
195 3047 1716.6953363835814
195 3076 2209.5658168750724
196 197 137.41339576016432
196 198 342.89742701892493
196 200 192.49712975274858
196 201 479.57554185086275
196 202 480.3145512712422
196 203 562.9186737363488
196 208 427.44635460368124
196 209 461.4219342797841
196 214 766.9222083629884
196 218 1574.5419039188548
196 240 1059.8410211835028
196 242 1130.048857554049
196 245 1090.6409705924375
196 253 913.5421972523037
196 255 941.5815118095991
196 271 1330.3383467645826
196 279 911.0086502379401
196 282 664.1671918724076
196 286 658.7356760119307
196 287 1492.0011502741609
196 288 1381.2859186100725
196 294 840.7063765516912
196 295 809.9083884905506
196 302 430.92328116253344
196 315 1309.307279128593
196 334 813.9114141114729
196 335 611.4223658187709
196 337 576.0939388720691
196 340 777.332324577848
196 341 477.08359557525216
196 343 1035.6343605935372
196 368 1317.3127831760917
196 374 619.6819433947156
196 381 8444.3517733566
196 476 3116.7380140605305
196 478 3342.803427527747
196 479 3254.3433865185816
196 480 3058.0103389941755
196 481 3317.6845513486965
196 487 2691.4719310710248
196 492 2317.7290583937724
196 493 2498.997988250238
196 503 4717.0074127583475
196 504 4769.203656690999
196 523 2623.1728246963576
196 524 3024.99808102947
196 552 991.9298319237927
196 555 1100.7781474889125
196 557 2339.5213313052877
196 559 818.1854377213825
196 563 638.7549719133889
196 564 435.27875598384907
196 565 545.6274463189706
196 566 1496.7539031140986
196 569 1266.9758201848244
196 570 1094.631556748746
196 575 1344.346286109211
196 576 1941.5928088267485
196 578 1496.9722214743701
196 579 1854.9467527954828
196 580 1119.6932937635802
196 586 1388.4982950396948
196 593 1031.0664585530324
196 597 960.1190116739331
196 614 585.8403257802644
196 618 745.5910155488731
196 619 629.9672578105702
196 628 681.5701871575657
196 639 1009.0640427743273
196 640 328.0394559548937
196 650 1817.8199056752956
196 654 1505.235926559626
196 655 1788.8668174521547
196 656 1912.2657802521212
196 657 1168.9028439359295
196 659 1306.8422900704225
196 664 1571.9267075372795
196 665 1271.336972232794
196 666 1878.694266353035
196 668 1749.7525829292647
196 670 1702.3806872852329
196 674 1241.541818702029
196 675 1389.3651555005238
196 676 566.4855918491334
196 678 892.8078960925709
196 680 984.6567064175892
196 681 1109.6436306265045
196 682 1239.3928154335717
196 685 1136.5957810349
196 689 1035.417348248647
196 690 848.0800449193229
196 691 381.35856067341507
196 693 471.17628050850146
196 694 493.00084332362337
196 699 426.2917419191244
196 701 308.5342812864372
196 703 335.92140029309166
196 704 319.6374931488725
196 706 729.5826418274182
196 707 633.4828925646748
196 708 853.5879384029391
196 709 530.2739939917666
196 710 507.22722838466433
196 712 310.92828218247644
196 716 264.56321691512125
196 718 2655.0158896624107
196 723 1406.9130797672979
196 724 312.67093578718124
196 728 355.29000655042347
196 731 2038.2158563076391
196 737 1790.2644879852664
196 739 1983.6121154517298
196 742 712.5465118764472
196 746 908.6724354180378
196 750 1171.007223519062
196 751 973.4636217655394
196 754 775.931775840315
196 755 488.33396531536323
196 757 358.96692793629586
196 758 260.70748592475184
196 760 1912.156992541466
196 762 2000.93503704427
196 770 1571.6129919762006
196 771 1666.9633441485862
196 772 1893.951777457131
196 780 1291.5011777619247
196 783 760.115379201916
196 785 964.9900210325525
196 792 7758.6062173919345
196 832 9844.873426085498
196 975 3999.4070556317283
196 1004 2747.1924156435466
196 1008 4580.006993219208
196 1010 4564.016464677713
196 1014 4902.1723198135705
196 1095 9358.630714045254
196 1183 9857.467312382127
196 1394 1397.7648390542802
196 1395 1914.0733426679535
196 1399 899.9892786087383
196 1400 1434.3395390010057
196 1401 1741.3170534747608
196 1409 2109.1815077497376
196 1422 3363.092433699254
196 1428 1927.3895310350422
196 1429 1983.104723838034
196 1438 6312.181498133011
196 1478 9019.366164341869
196 1486 5899.458848421424
196 1600 10058.439751897586
196 1635 7720.92326589968
196 1672 8778.180645772525
196 1692 6181.033080666209
196 1705 9437.04887607761
196 1708 9615.814249096535
196 1714 6502.970009169817
196 1737 8699.044757043206
196 1802 7701.9776432834515
196 1822 6842.960116025224
196 1846 6631.1667312945065
196 1862 6481.064698486339
196 1877 7269.5630468349
196 1904 7350.67543257269
196 1910 8799.719024319349
196 1934 8499.609949451911
196 1943 1517.6804850588662
196 1953 1254.8822899589163
196 1956 1163.4535813242999
196 1963 2687.80283751537
196 1975 2940.0285798820555
196 1981 1215.7465632311803
196 2007 1942.0405193297102
196 2043 4727.266214259698
196 2052 2947.885996381446
196 2169 540.6472833831265
196 2173 1610.0319629311211
196 2539 3082.4651408370946
196 3047 1369.6924440842608
196 3178 4301.906451527514
197 201 373.75905700986374
197 212 268.27106661116756
197 279 807.6437394840533
197 282 541.5968895724073
197 476 3152.7305647142953
197 479 3286.6597853526437
197 481 3345.759623629757
197 524 3150.045551114825
197 563 773.3137328896865
197 566 1553.414096763304
197 570 1149.563818314442
197 575 1409.8077864953693
197 579 1898.5831731413218
197 628 620.9430969252229
197 650 1947.247356776911
197 655 1911.3958799382797
197 666 1999.776997079535
197 670 1823.0948551554682
197 674 1364.6345395629112
197 690 964.0027322869091
197 728 430.6748542355226
197 758 293.04580877584357
197 762 2114.061060554984
197 770 1674.6312465886583
197 1981 1286.7570905014695
197 2173 1711.9714068356266
197 3047 1493.4535937149647
198 200 372.3955347084167
198 203 296.22183866132485
198 279 828.5674749633291
198 282 522.1788248508053
198 476 3351.4899402808296
198 479 3482.0901518111755
198 480 3291.8343863870714
198 481 3537.3271487587676
198 487 2945.8399222232433
198 524 3246.245282729438
198 570 1366.7318856909646
198 628 738.7900363819653
198 650 2064.9864478099616
198 655 2005.0527632094668
198 657 1442.2925015691828
198 666 2088.2373627038824
198 728 482.13092136115375
198 758 514.5079676956399
198 762 2178.777346353051
198 770 1718.1898578476696
198 1981 1510.6929918426
198 2007 1746.886348586857
198 2052 3136.7669315939715
199 201 570.762548966403
199 302 79.69645249922773
199 1981 1128.7079109010633
200 201 516.9390227981311
200 202 420.60992638489245
200 203 485.5031476458522
200 214 694.634678722189
200 240 879.2527194282072
200 252 834.9541399160362
200 255 756.2541617283454
200 279 729.9565799753323
200 282 511.0070666852398
200 288 1200.4907172340181
200 295 804.9418701817125
200 335 779.3213658672406
200 374 618.8216516500838
200 476 2991.255748813286
200 479 3124.7682813936453
200 480 2931.912118317944
200 481 3183.5658348205693
200 503 4590.438980676802
200 504 4644.068359109305
200 559 978.149182990847
200 562 560.034080697847
200 563 790.2652880677562
200 564 611.8501442865594
200 565 692.4673668339126
200 566 1398.1457048858235
200 569 1110.4118399577987
200 570 994.6573605268746
200 575 1258.84371434702
200 576 1816.2018548356332
200 579 1738.8779270511793
200 580 1058.7037448761039
200 609 682.7287624952531
200 628 489.3334619361895
200 650 1977.2932868483363
200 655 1960.6680676199019
200 657 1319.7812120227006
200 659 1486.6518290553329
200 666 2052.2459173272714
200 674 1414.0093303541473
200 676 758.5399637945472
200 678 1027.174626799396
200 680 1127.0237286155468
200 681 1223.967591525327
200 682 1334.166874967701
200 689 1049.5887404189334
200 690 866.6551157311718
200 691 342.21990276911646
200 704 425.97696163829625
200 706 801.5021897165292
200 708 954.9776531723273
200 710 563.585782142292
200 724 500.8308153422703
200 728 546.0458978134543
200 731 1901.9485101060607
200 739 1833.0464649659991
200 742 883.962847871165
200 755 359.22773280031487
200 758 145.11436270528753
200 760 2102.717404610305
200 762 2182.4123802201975
200 770 1759.7205418299109
200 771 1844.0583583540463
200 772 2070.3858374978245
200 783 946.7771299522193
200 785 1140.8889675748562
200 1428 2061.430476869722
200 1714 6317.443931842545
200 1802 7516.650644731119
200 1943 1682.160359668841
200 1981 1139.3031498214323
200 2052 2798.134305834136
200 2173 1798.561362358796
200 2330 670.7977134281564
201 205 478.65803553296655
201 211 606.3942114842074
201 214 417.40019820070034
201 218 1118.8445718521457
201 240 1015.8556639999819
201 255 947.2458329613496
201 282 578.1881175796806
201 284 555.2294926744592
201 295 342.53952821885116
201 302 592.3147328452023
201 315 851.886017100013
201 334 397.78715684303313
201 335 528.8894937649053
201 340 523.0373016744529
201 343 571.0319608231683
201 362 1312.7142865339376
201 368 838.7736627927035
201 476 3487.452596712471
201 479 3616.544829085056
201 480 3427.661713435718
201 481 3670.028745551597
201 492 2706.951129756852
201 524 3295.339241888353
201 555 1330.7819297180856
201 559 1172.1772669689603
201 563 1027.4836896510026
201 564 784.3598628630114
201 565 951.8934104555598
201 566 1913.243849036266
201 569 1579.9241944891978
201 570 1510.395878700427
201 575 1775.7579768412313
201 578 1853.643350523263
201 579 2245.8788449647886
201 580 1572.02376011949
201 609 1148.3394445273088
201 618 1176.7701768073953
201 619 1086.6722477169533
201 628 850.4987886613378
201 629 878.2873140633878
201 639 1222.2705394375805
201 650 2131.9562546867073
201 655 2057.2514223534326
201 657 1527.147217691883
201 666 2136.691014107883
201 670 1961.5603153652523
201 674 1526.8956140996022
201 676 712.0181161116509
201 678 1296.710866984608
201 682 1683.9353138526255
201 685 1599.4690135369437
201 690 1327.625792445114
201 691 838.5425708335843
201 695 843.1447846060818
201 699 904.2191976971957
201 703 815.4959419563738
201 704 787.3571933749434
201 706 1198.9832011292042
201 708 1300.2737066271272
201 709 1009.8495227825376
201 710 984.9857761836981
201 716 281.6320411620479
201 718 2870.86131932021
201 723 1859.5561818005042
201 724 638.1129190947241
201 727 530.383081837644
201 728 546.7046133030302
201 731 2390.95392575157
201 742 1040.1303685485284
201 750 1291.0438302116972
201 757 752.6258635888465
201 758 659.6816866864528
201 762 2211.7756187957193
201 770 1741.2017331848053
201 771 1913.2636720689743
201 783 1002.2205215492577
201 785 1251.7651643431786
201 1004 2952.581082454673
201 1008 4663.668932778721
201 1394 1241.333089649697
201 1401 1317.2163989536793
201 1403 545.6154898125664
201 1428 1603.135021855275
201 1430 1591.4277994188951
201 1635 7356.367976946304
201 1714 6387.399351456125
201 1746 7990.608524335745
201 1862 6367.7490927394965
201 1877 7081.234551429017
201 1943 1823.0827441455615
201 1953 838.5842775363163
201 1956 823.5000320058563
201 1972 552.3733197701833
201 1981 1655.80833510078
201 2007 1631.4588031408673
201 2052 3262.870660592044
201 2104 557.7121744923278
201 2169 994.4774805374585
201 2173 1773.3331510621222
201 2177 662.2803728990193
201 3047 1846.513082473983
201 3178 4405.606754436274
202 240 773.8611303831451
202 242 807.2139284738967
202 252 907.9848639944714
202 255 703.2429281514716
202 279 647.1407489086175
202 282 334.35866504006316
202 288 1072.2002489446104
202 295 400.9723790039129
202 476 3299.397333034924
202 479 3423.9553189339213
202 480 3239.289565284083
202 481 3472.842405857441
202 503 4888.649997809562
202 504 4944.9543002896025
202 557 2719.659029180347
202 559 1273.641407630547
202 563 1106.3058666775282
202 570 1367.6037020213955
202 575 1640.613879517348
202 576 2136.5387577257907
202 579 2075.8709716991766
202 580 1461.7197392180428
202 628 631.2943795950838
202 650 2262.23961593408
202 655 2208.824793442208
202 657 1629.6913825890758
202 666 2293.149949957249
202 674 1667.0086008139683
202 681 1589.4434318367146
202 682 1718.9961699876858
202 691 762.6950296271509
202 704 797.4114755874235
202 706 1200.8679031849395
202 708 1333.4986559877602
202 728 687.4081217156821
202 731 2199.90792120548
202 758 561.465688668433
202 762 2387.123946218192
202 770 1927.5828061638895
202 771 2073.2560210559864
202 772 2299.738483496812
202 785 1387.811595232237
202 1404 1229.4241411471655
202 1428 1831.45965783084
202 1981 1530.6966057784468
202 2052 3052.6623937989084
202 2173 1961.9706524105159
203 216 1213.4450077933304
203 234 1282.9851878795419
203 242 736.8343854897657
203 271 847.4630658218213
203 279 593.1748659368303
203 282 283.33065014219244
203 288 1001.0993191829846
203 295 380.1820172634018
203 316 734.1728593715699
203 348 813.6146947495369
203 476 3304.077837342452
203 479 3425.803718475526
203 480 3243.849810233934
203 481 3471.7903199944326
203 566 1791.7025114525572
203 573 1318.435342575068
203 575 1674.9071575388025
203 579 2092.5341543805225
203 597 1180.8193404753122
203 622 1153.0065603691144
203 628 625.2552681304829
203 657 1717.3923934861537
203 668 2288.931690442634
203 674 1755.9303532266804
203 692 822.5771771944507
203 700 858.722456648018
203 728 775.9636481821905
203 731 2204.499192572224
203 737 1852.4395988509582
203 758 621.0086837820589
203 762 2474.8823753442357
203 770 2014.098312908091
203 771 2161.8527875323116
203 1953 1057.4016866514892
203 1956 1094.1286686520325
203 1981 1569.544980829431
203 2052 3043.156250823947
203 3047 1891.5683739307444
204 234 1625.9945676641792
204 271 974.3127112035651
204 279 537.4401675621012
204 288 1007.7643771421646
204 290 1196.188647037413
204 336 841.9673101126614
204 480 2922.511748297712
204 481 3161.706103827744
204 489 2043.1211520669774
204 493 2401.88575865364
204 554 1610.2789677120402
204 555 1474.3395864365696
204 561 752.3405863175678
204 565 891.7883987974217
204 566 1437.8291725024355
204 573 959.8122311614189
204 575 1316.4236319098984
204 576 1815.2476442014085
204 579 1751.5464494652529
204 582 1086.847564292514
204 585 1430.6265753793577
204 586 1312.5478635435732
204 589 1111.7941993402358
204 621 751.6804312990613
204 647 1707.085483239122
204 668 2104.596463462789
204 674 1610.3955037066787
204 676 922.9232597349782
204 678 1225.3652874564282
204 679 990.0780115902837
204 681 1417.5953934997706
204 687 1401.4527724378404
204 688 1039.0421086922709
204 689 1197.7967342539816
204 692 508.9972138246833
204 700 603.2718950763924
204 705 995.0867463074195
204 709 736.0038399454342
204 731 1884.2524290395252
204 737 1567.7006847089854
204 739 1793.0387497267684
204 781 1417.3684388638676
204 1953 1345.715312960082
204 1954 1264.5699072932769
204 1981 1209.4746500118783
204 2376 1861.346374749859
204 3150 1555.7035892793904
206 597 1263.5662058402763
207 334 508.9472618684969
207 692 907.0945297790641
207 709 1125.7125527530993
207 1981 1695.285829279588
208 476 3181.0839531118377
208 479 3306.1681004358043
208 480 3121.0013673421054
208 481 3355.7251858728278
208 575 1524.2009788839498
208 762 2390.297891743199
208 1981 1415.9659949748464
209 247 551.1821482898384
209 279 509.8059368505124
209 334 792.6069750075253
209 335 869.3011403644491
209 336 810.0368493321065
209 555 1540.915091591115
209 563 1099.5174078160933
209 570 1212.2788844987326
209 573 1130.9275791386608
209 579 1907.3217386499728
209 676 955.0670030017067
209 688 1211.608485293038
209 731 2025.6647423409677
209 737 1686.0139506822932
209 746 1278.5081784610704
209 750 1569.2799237933762
209 753 1344.2146008737877
209 754 1188.3539209440523
209 771 2116.300291306145
209 781 1501.4213952181656
209 783 1197.8472596064626
209 1398 1597.9007995297698
209 1399 1164.89875371746
209 1956 1226.634034455983
209 1981 1382.9133350815134
209 2173 2032.367823596269
209 2330 512.644727179108
209 3076 2163.497028644454
210 618 708.3802882423092
211 565 600.4684745808154
211 575 1178.0593900089725
211 690 753.079733751055
211 707 549.0401482403895
211 762 2110.529454788277
211 770 1700.206094793758
211 1981 1053.7768544426006
212 476 2931.590871040654
212 479 3060.992128580158
212 481 3115.373530530173
212 640 180.31936639412828
212 762 2326.9534745155447
212 1981 1135.4268445527684
213 762 2334.1662922077007
213 1981 1416.0349793625564
214 758 828.3633934249801
215 216 187.6036558421304
216 218 100.77286517829299
216 242 1784.0079702505916
216 253 1815.9501361884934
216 279 1741.3648299385338
216 282 1471.8851410298337
216 295 838.9753691130729
216 315 774.2373873539567
216 325 793.7460838212015
216 332 862.8566833836439
216 340 840.9984911593939
216 368 390.5549217063389
216 563 1857.9264868650525
216 573 2468.1108784295434
216 619 2119.57258984812
216 650 2676.985203089016
216 692 1829.241645183626
216 770 2068.636671872817
216 1394 1079.2740397691246
216 1401 308.38560511084336
216 1428 838.112188637766
216 1953 281.4108328084933
216 1956 532.1266879186337
216 2357 666.8523110278758
216 2855 875.2622035573793
217 218 243.99727960289704
218 219 929.0383231693341
218 220 358.7045826454877
218 221 234.6531192478306
218 222 607.5930739410145
218 223 463.1474618431536
218 224 390.19767670925916
218 225 665.7121537664002
218 226 821.0611210308538
218 227 334.3580678643352
218 229 280.50413078376386
218 230 513.3192570738412
218 231 213.21931441065135
218 232 696.021097623255
218 233 279.88751134844927
218 234 142.43125076946356
218 235 149.84769747310713
218 236 347.60031630392575
218 242 1811.5083932494344
218 253 1858.2392885944969
218 255 1847.95819497987
218 282 1521.3059037021098
218 288 2023.2897970968793
218 295 892.1347674034453
218 315 767.2880738536461
218 334 766.0880329055523
218 335 1184.1679702407478
218 340 939.0072543199686
218 343 782.6821642337013
218 368 398.5694830996523
218 369 406.4439225067337
218 372 528.1935399854168
218 553 1980.9909046610446
218 559 2025.6752533362644
218 563 1954.0674003709312
218 566 3029.948244743863
218 570 2628.0585193554193
218 578 2947.435496960087
218 579 3352.642783390709
218 619 2199.812395360546
218 628 1895.5610389515473
218 629 1928.2618122633264
218 668 2756.6429920571372
218 676 1479.6260322325986
218 691 1950.1233342814414
218 706 2233.733175533027
218 712 1710.9361778630532
218 716 1319.8296533723435
218 718 3230.8606476267287
218 728 1460.2259256240259
218 739 3363.882595076812
218 755 1990.6326647137134
218 758 1778.191252634116
218 762 2636.7430895846965
218 770 2166.729615886591
218 771 2453.8838868180624
218 1051 7829.36912900398
218 1394 1169.4647368456733
218 1401 299.57577554802486
218 1404 738.900023718642
218 1422 2090.699057955614
218 1428 873.8247351952381
218 1478 7809.736221324351
218 1486 5223.064594192937
218 1600 9275.365758276752
218 1635 6307.616693902064
218 1648 6406.514195907403
218 1662 6723.536623258205
218 1672 7393.923579721668
218 1862 6607.324604115992
218 1910 7907.8138100271835
218 1934 7032.126299710632
218 1943 2489.667546810786
218 1944 7760.900160967412
218 1953 381.6880809884624
218 1956 632.2245480575897
218 1977 7732.236723917736
218 1981 2774.3608404332776
218 2007 937.6167175245157
218 2615 738.0704859886214
218 3109 2721.382399767303
219 226 146.13906469929952
221 222 379.4918073134873
224 231 260.4667138996823
228 573 2725.06079951519
228 692 2086.2749107705367
228 2118 1701.445422230389
229 235 137.28954093413157
229 368 122.18581377712165
230 368 700.6246201990052
230 566 3407.6081732918915
231 368 292.3269737038373
234 279 1762.5758145506152
234 368 367.40038738809704
234 566 3062.1951473333443
234 573 2577.745206097828
234 579 3374.498369245802
234 676 1579.3105814877185
234 692 1967.1160795112366
235 295 783.2210242610967
235 334 718.8719267107614
235 368 259.234041761751
235 566 2939.7903515541107
235 1953 411.2127275413228
236 368 429.7318825112405
237 240 383.45252571299
237 242 295.47763399702166
237 245 432.66450000480614
237 246 264.6889487674422
237 247 496.701270022034
237 253 561.4128920769413
237 262 292.653987716431
237 270 176.03515592773041
237 271 230.28165852551354
237 279 527.9194820883346
237 282 771.0411184099003
237 335 1825.3833309703475
237 480 2920.1751480160247
237 481 3075.4254285227253
237 557 3760.47419989844
237 559 2227.7831115148865
237 566 1870.1890512529749
237 570 1606.1502559855298
237 577 1921.3223237965096
237 579 2003.8695975290807
237 582 1597.7669057925004
237 619 1559.6924259597913
237 628 868.6621885889105
237 723 2623.5673255840748
237 731 1966.3498216177286
237 772 3317.5943320187826
237 1714 5098.828746689737
237 1981 1807.8258971898683
237 3047 2427.9649881782902
238 240 363.4913676109179
238 242 273.97892664477996
238 244 396.0995551274703
238 249 508.27051926941374
238 253 542.1222153726445
238 255 503.0362555376515
238 259 286.1280276533639
238 261 100.41732915625549
238 262 271.77905852507365
238 264 358.88068630446463
238 268 367.31093608871254
238 269 344.3007578681755
238 270 166.61257631525956
238 271 216.76500024681968
238 280 462.4944561991209
238 579 1997.9525255342012
238 731 1963.9345097010314
238 1981 1794.5293320491587
239 240 457.55056186729155
239 246 338.73868419187244
239 273 171.10624576601973
239 279 601.996649706708
239 731 2005.5982995598622
240 251 340.96955883024987
240 252 362.30266460287555
240 261 263.40576563969097
240 262 287.30738567381525
240 268 528.736542393893
240 269 584.4384441254053
240 270 418.25876284331366
240 271 402.82205636164775
240 282 442.13510441824076
240 287 464.93606553363907
240 288 321.50394226185955
240 289 497.9469869551696
240 291 485.52631521179535
240 292 363.9981769030028
240 295 1001.9893685799711
240 334 1351.7830355371304
240 335 1515.377084200844
240 336 1454.3259933876634
240 343 1061.6013570142306
240 368 1451.5235699616617
240 476 2849.9842374295517
240 479 2951.1518337819202
240 480 2790.1813980255647
240 481 2978.226803132731
240 493 2373.3577225744616
240 504 4444.777575414338
240 524 4065.299039014419
240 557 3399.187876692783
240 558 3340.139766550083
240 559 1852.5949510592732
240 563 1661.451763552499
240 566 1578.505211355435
240 567 1736.4356791440157
240 570 1273.749647288264
240 575 1529.1178331828305
240 577 1633.8351511136998
240 579 1767.6968217046763
240 580 1472.319848344916
240 582 1276.3806436130671
240 614 897.4699126528697
240 619 1181.4202741155998
240 628 487.5775732699332
240 650 2846.773709705342
240 691 1074.4125916782866
240 704 1283.1129690662776
240 706 1582.9099795153238
240 710 1355.517894989777
240 723 2242.910597186476
240 731 1784.0178812081313
240 737 1351.4755406782199
240 758 920.7161036434604
240 762 3060.3634988753856
240 770 2628.5820606700204
240 771 2723.2956409208773
240 772 2949.6345587709206
240 782 1834.7083376597332
240 787 1423.145047492226
240 1010 5603.418425889483
240 1027 6131.016380729007
240 1423 4818.678701216154
240 1486 6798.851475491909
240 1714 5444.835958136234
240 1954 1712.7822465431984
240 1981 1475.1864139732013
240 2029 4029.6205472425813
240 2052 2506.455086682083
240 2172 2837.052905907997
240 2353 1324.5999529597764
240 3047 2057.128836061843
241 261 293.7164866891023
242 243 373.7935799838456
242 249 274.48326631113144
242 251 436.328859402126
242 252 461.0253402326588
242 255 242.81122937717055
242 261 174.54620325471146
242 268 427.9289402753792
242 269 478.9570976473367
242 270 312.56224297097395
242 271 297.1946285869379
242 278 249.61818408296176
242 280 301.4784675745721
242 282 486.7183834901679
242 287 452.0844661012036
242 288 265.0153050955323
242 289 435.7050807511803
242 291 450.40791246280327
242 292 348.6545744265129
242 294 782.2035499102884
242 295 994.5956711659621
242 308 895.0392360009231
242 315 1103.8499727577012
242 325 1043.6929598954957
242 333 784.9195186498623
242 334 1359.7829381406646
242 335 1555.9773481690536
242 338 1702.6440372259867
242 343 1031.2908459675202
242 368 1415.2803665724534
242 476 2926.553457375355
242 479 3024.3971962328696
242 480 2866.981482764908
242 481 3048.3797899876536
242 487 2624.948775798877
242 493 2461.91451895634
242 503 4449.4233698128655
242 504 4510.924502636097
242 523 3743.800786859675
242 524 4145.869451019224
242 538 2607.9044365950062
242 555 2229.3077651971307
242 557 3468.5400771459126
242 558 3411.647058491037
242 559 1932.3363590667461
242 561 1502.0897713301417
242 563 1742.515046289718
242 565 1643.7957755533569
242 566 1681.0217827771637
242 567 1835.82329734063
242 569 1118.7746293452446
242 570 1379.541047018545
242 573 1327.3740712729195
242 575 1634.0119472260928
242 577 1735.9169030345172
242 578 1435.66294205605
242 579 1862.589285807099
242 580 1578.4102612858992
242 582 1381.5003208940668
242 586 1547.6399797131746
242 597 1113.6986434329763
242 619 1282.5130974586752
242 622 1189.4596131331664
242 624 529.5256914025833
242 628 587.9965926881875
242 639 691.0721238462994
242 640 943.0137033712557
242 650 2929.365723970508
242 655 2915.603244484144
242 657 2268.343326924003
242 663 2759.862530717011
242 665 2373.2104725963145
242 666 3006.757006519432
242 671 2854.9466480213046
242 674 2368.6539292119214
242 675 2481.179488221456
242 676 1654.4644037381922
242 682 2213.113236799843
242 687 2056.508162568482
242 691 1167.4977777188813
242 692 1212.380837608398
242 699 1389.4282479287892
242 703 1296.76105563603
242 704 1366.7995864588036
242 705 1694.5890435022036
242 706 1677.42980414365
242 708 1859.933755822787
242 709 1419.3769789286644
242 716 1191.7273290447336
242 718 3785.0647450857023
242 723 2341.7442463937473
242 728 1443.1767958455762
242 731 1869.310440663728
242 739 1702.7058190083198
242 755 992.6562848413763
242 758 1006.643658602838
242 762 3130.4280077169706
242 770 2692.2886178965605
242 771 2796.6991957685163
242 772 3023.5167889469667
242 782 1927.7228603804383
242 792 6782.857566526552
242 803 7420.296575653269
242 853 7794.536904521371
242 874 7108.627837042955
242 880 7117.958963374931
242 970 4957.30917687835
242 1008 5678.284031646268
242 1010 5655.274843269914
242 1020 6398.156653313131
242 1027 6145.7587681532095
242 1345 6698.8649431441445
242 1359 6731.201290136349
242 1714 5383.180947129405
242 1802 6581.0029491125515
242 1822 5722.145053059209
242 1846 5511.705005723182
242 1862 5362.051351681466
242 1877 6139.973253746571
242 1905 8166.450970506277
242 1906 6804.654068920312
242 1943 2636.648734981784
242 1953 1703.2486080130518
242 1981 1581.0545488484959
242 2007 2575.6144066063116
242 2029 4108.352286582554
242 2052 2570.2801506304318
242 2172 2911.7966242566686
242 3047 2160.5327293051278
242 3115 1534.3288063282616
242 3178 5409.386281803865
243 253 346.71059631766457
243 280 116.33027672288615
243 2191 109.3535354230422
244 252 256.66572048112914
244 262 419.477586976569
244 270 502.762747351225
244 271 506.30807550171346
244 282 565.673671116523
244 288 300.10522785352794
244 481 2822.3184732335476
244 557 3463.7847918382904
244 566 1474.424678047865
244 570 1196.8201313571028
244 579 1639.5423713032171
244 629 504.9917852088699
244 650 2885.0246094782774
244 666 2984.211872051428
244 723 2233.354497837105
244 772 3006.422853242412
244 1981 1398.668867872289
244 2340 221.22542566012825
244 3047 2024.348377310194
245 251 216.73362079173577
245 252 244.66868140585726
245 260 200.4132650669809
245 262 412.10211324815043
245 268 647.94494667439
245 269 690.2635517555979
245 270 511.7697697299121
245 271 509.67598808035746
245 282 523.9934630438643
245 287 401.6999731712227
245 288 330.713714351078
245 289 498.0505329775197
245 291 448.8958510448385
245 295 1117.519230254787
245 334 1454.0964275819547
245 335 1584.241004707963
245 337 1341.8077421634814
245 338 1737.9710202827061
245 341 1360.9943664857774
245 476 2713.9309954307746
245 479 2814.7593417885746
245 480 2654.1605849346042
245 481 2841.768673343294
245 493 2241.64414313254
245 558 3359.4219406428333
245 566 1466.4720708864243
245 570 1179.7389664307589
245 573 1133.4755227910593
245 575 1427.0075969628901
245 577 1520.4879302954873
245 578 1214.955337441932
245 579 1641.4855273099672
245 580 1388.436566649982
245 582 1176.2307980455657
245 586 1333.7920652315916
245 593 743.767672221424
245 594 767.5624502206874
245 596 677.1378785539499
245 597 914.7127149021611
245 619 1135.6398609595553
245 622 1005.3350954814296
245 628 458.1979984595975
245 650 2845.886257361704
245 657 2182.220289956642
245 668 2767.241943852857
245 676 1642.9768184409677
245 691 1056.4408799504347
245 692 1111.1657766277979
245 699 1287.8752849237158
245 700 1266.7076345569526
245 706 1557.0937617386635
245 709 1301.0910833712328
245 716 1200.4796981691204
245 723 2201.2986164135255
245 731 1650.4406407009212
245 739 1487.6057463852999
245 755 862.1516627153959
245 758 922.7623442980446
245 762 3082.5505594867013
245 772 2965.339296070042
245 1954 1818.2701916182443
245 1981 1381.7052465243835
245 2052 2370.560926790116
245 2172 2851.4057043179423
245 3047 1996.837175900104
245 3115 1600.2649178132428
246 252 461.0038664141752
246 261 143.46525023195184
246 282 523.8699743833769
246 287 415.5207411953853
246 288 227.06769034828307
246 289 398.71055861118464
246 291 412.26284486074906
246 331 1035.6742396783065
246 334 1397.4370288937034
246 335 1593.8590785772888
246 337 1320.1159369235174
246 339 1172.5513038211523
246 340 1600.7767483792084
246 341 1362.5664804024543
246 476 2909.627328799629
246 479 3005.9633066629417
246 480 2850.1765001455724
246 481 3028.641876714876
246 557 3503.2499591544993
246 566 1682.813670406275
246 570 1388.1595515683255
246 575 1639.8502765034948
246 578 1431.1608955275278
246 579 1856.7703937422716
246 582 1387.9907982628936
246 594 977.0840455181537
246 596 879.6456565982792
246 617 1187.193028913385
246 619 1303.9967083241752
246 628 610.002767992025
246 644 1190.1713937390466
246 655 2948.6303006879893
246 666 3040.032935481105
246 708 1887.3231684584957
246 709 1445.5884341432386
246 723 2365.1596284171287
246 731 1857.2015366903536
246 737 1412.8114791852179
246 739 1687.6540836627112
246 755 1016.3267936590463
246 787 1517.2631721538673
246 1956 1832.898618525531
246 1981 1589.951219128062
246 2172 2945.3014930246254
246 3115 1572.5179955548483
247 268 603.9429261989821
247 269 672.847659764893
247 270 518.02557436688
247 271 493.9120544261941
247 282 353.8514095580419
247 288 433.53291620838274
247 289 609.9241525777512
247 290 626.88555045788
247 334 1282.9850949408985
247 336 1360.6026726582845
247 337 1172.023988357721
247 338 1572.759816634929
247 340 1455.021240874967
247 341 1194.9008750790501
247 476 2835.0464499060395
247 479 2941.1600605011377
247 480 2774.9669872799977
247 481 2972.7523822646567
247 493 2338.6215249813918
247 553 2326.671699617215
247 555 2050.036720894846
247 556 2304.734932820921
247 557 3288.1150623158146
247 558 3228.398670780201
247 566 1511.491091806459
247 570 1190.7643865954976
247 573 1133.947147376114
247 575 1452.009420280759
247 577 1568.2001940732391
247 578 1291.2356155626462
247 579 1721.1228120008507
247 580 1381.3816589285764
247 582 1198.5234033510794
247 593 783.9422756920209
247 619 1073.8638118244976
247 621 977.5261818854945
247 622 990.6213955466078
247 628 379.3719610590994
247 644 970.205025311204
247 650 2732.8646464588987
247 657 2070.4221089124426
247 676 1491.5433034111977
247 677 1647.8038755705413
247 682 2005.231821740179
247 688 1414.0494170507072
247 691 961.3077189318348
247 704 1169.1955004739
247 706 1470.4042033481198
247 708 1654.443427542863
247 709 1212.3958003254338
247 712 1246.5411769963719
247 716 1040.8720692014322
247 718 3600.7902761351593
247 723 2133.019093014246
247 731 1756.687987916059
247 739 1606.4502882963927
247 746 1822.891106865778
247 747 1975.3593841048369
247 748 2072.3806529271783
247 750 2106.4641919379364
247 753 1888.3656471584422
247 754 1717.3605811219632
247 755 783.9452026528252
247 758 806.7013267217174
247 762 2949.1067169794533
247 770 2519.774360201683
247 772 2837.2726745004466
247 781 1988.778201692024
247 782 1792.1084551476545
247 783 1709.5231501739474
247 787 1317.9825548999272
247 788 1570.5294341199467
247 1398 2140.3626117519148
247 1953 1661.841738335118
247 1954 1647.4149597981932
247 1956 1723.8822620710132
247 1981 1390.9927016096158
247 2029 3916.151494206442
247 2172 2724.483408337333
247 3127 1590.5943223390364
248 288 421.41946587103456
248 476 2679.7492504929774
248 479 2784.487565979579
248 480 2619.7459406432954
248 481 2815.0896205218605
248 566 1393.3600541795906
248 573 1048.100379448442
248 575 1347.7347320888398
248 577 1448.3766928737393
248 579 1582.6032925554953
248 617 897.6344160713716
248 666 2861.3390086489735
248 668 2681.12831126076
248 709 1212.178020029189
248 723 2110.5946010035327
248 731 1605.9791058660392
248 1981 1298.5103335117585
249 250 151.15635812875877
249 251 190.3804606956119
249 252 202.7752382299014
249 259 324.85366425679547
249 262 455.0273685013492
249 270 583.8602275396361
249 271 571.6764399966488
249 282 448.4895717662466
249 288 433.06386122915956
249 566 1410.0251949856931
249 579 1606.8653144866903
249 594 695.2148891247144
249 596 595.7828286952671
249 619 1035.5121804546898
249 629 364.76855599174996
249 631 354.7798960210195
249 636 321.48981240470465
249 639 422.6234343700047
249 731 1635.69558544775
249 1981 1306.853738346568
249 2831 530.6554960832134
250 251 41.09183320402937
251 252 38.801399386326686
251 253 256.17323987572365
251 264 387.933104320957
251 278 451.06086124701426
251 279 337.8883803588123
251 280 155.66472897561022
251 282 607.222222663777
251 632 101.61675822388146
252 253 258.69313616666227
252 254 301.22475042905
252 256 333.2260529692903
252 258 502.07481995510125
252 259 519.2619815315633
252 262 649.1298668009073
252 264 407.4169762029007
252 270 756.1918753402647
252 271 753.8650630012921
252 278 456.046809091416
252 279 343.6212010386646
252 280 190.7919346059243
252 282 598.3474896010961
252 287 532.4510945816049
252 288 547.2394838791363
252 628 346.0432935743472
252 755 702.9682496388987
252 758 816.7593155452179
252 2331 482.15252734453924
253 261 442.6867284299149
253 262 443.9221117520035
253 268 685.6360723758736
253 269 753.3937990274717
253 270 595.2319845623355
253 271 573.6918050434551
253 282 364.70225017435314
253 287 579.476367769609
253 288 484.4475458277352
253 289 658.9349037270914
253 291 622.929633749087
253 295 984.1894672863504
253 301 928.2830328645543
253 302 483.85075435182523
253 303 1324.4147108362934
253 308 1070.9636478316106
253 315 1218.4477007418543
253 330 2289.403789859316
253 331 1110.5672759848876
253 332 1517.9042335106049
253 333 935.4386304392581
253 335 1410.0725691411808
253 343 1081.486450529177
253 368 1475.3480308546727
253 402 9747.75358231954
253 476 2770.366655373158
253 479 2878.690532811947
253 480 2710.1969458151484
253 481 2912.4304296721625
253 484 4877.386647826083
253 487 2437.7969476648104
253 492 2066.204555745847
253 493 2266.2261230914237
253 497 1774.635419707694
253 503 4325.166197670744
253 504 4384.801284822968
253 524 3900.054725815615
253 552 1864.4590558793427
253 555 2011.4167211376453
253 557 3247.464348634855
253 558 3185.7907763816715
253 559 1690.0723503276383
253 563 1497.7341523434113
253 564 1337.5002977127403
253 566 1430.915401918298
253 567 1599.8976378497814
253 570 1109.055448901467
253 575 1370.379521392082
253 577 1487.8278600909796
253 578 1215.2287923927777
253 579 1645.208267908375
253 580 1300.4641369202059
253 585 1107.8260895095275
253 586 1296.5987320369895
253 591 1591.5607362526405
253 593 703.8121228853796
253 597 844.1687699529467
253 609 1203.9692679719503
253 612 1233.0256620356154
253 614 717.0672969290249
253 618 948.7537962500445
253 619 1001.0104379889007
253 621 897.8205859872348
253 628 307.5402001749452
253 639 456.0444150370046
253 640 684.2373075689032
253 642 630.8494924151103
253 650 2679.9371054809435
253 653 2172.3622775993344
253 654 2348.9159218775812
253 655 2678.8003686393313
253 657 2016.6434051785486
253 663 2519.332245692505
253 665 2121.787458609116
253 666 2771.96844535494
253 668 2602.6781770128728
253 671 2610.5509872207904
253 674 2134.3071992543933
253 675 2225.4166768669147
253 676 1465.1273656083902
253 678 1708.5748273590866
253 682 1938.234261967853
253 685 1778.46682415862
253 690 1361.4931265594228
253 691 898.8780282619839
253 693 879.5228516399924
253 694 1006.423301509477
253 695 943.4185733209905
253 699 1126.6992570857267
253 703 1038.073351243307
253 704 1117.2601271235278
253 706 1405.6208616096703
253 708 1592.1406302601322
253 709 1147.991327473686
253 710 1180.3800419206232
253 716 1024.301346732607
253 718 3557.237111960311
253 723 2062.96812185411
253 725 941.4820240366822
253 727 1022.0191166633302
253 728 1250.3866831252076
253 731 1687.574223061883
253 735 2493.2869427333644
253 737 1278.2717308126475
253 739 1542.1113946174153
253 750 2078.641733618785
253 755 714.9087648145014
253 758 753.7078071488621
253 762 2908.0616173803705
253 770 2485.104452119549
253 771 2567.2043873446914
253 772 2792.725944665978
253 782 1717.3835486929643
253 785 1864.518098819259
253 786 1729.7243738177108
253 792 6896.97975546941
253 802 7536.811219933876
253 803 7567.85137724703
253 853 7976.745795832709
253 879 7508.031497006658
253 970 4714.3634384591805
253 1010 5473.130614958953
253 1344 6564.049180763716
253 1345 6758.771661032405
253 1359 6799.562840862658
253 1367 7099.606250603366
253 1394 2172.60433434875
253 1404 1920.5231631903366
253 1518 8513.823690532327
253 1635 8165.040237787607
253 1783 7111.074251693617
253 1905 8432.745689419155
253 1906 6991.467096617839
253 1943 2393.0182400405465
253 1953 1692.2185150063074
253 1954 1667.5544498630334
253 1981 1309.3396559561754
253 2007 2543.3486301534804
253 2029 3866.4007556979163
253 2037 5540.644430957176
253 2052 2455.5404511609345
253 2172 2679.21002810029
253 2173 2523.573299852254
253 3047 1877.3136955069572
254 261 425.4625248856212
254 268 649.9491256280405
254 270 568.148404985558
254 271 543.0787147724772
254 282 335.06779296986906
254 286 305.8801929428031
254 288 478.3359607231775
254 294 761.6370931822613
254 302 481.90736783157723
254 368 1434.8087176995316
254 574 1620.2607909199455
254 575 1408.3900234177797
254 578 1257.8842226652407
254 579 1687.8579568917119
254 580 1333.8287430856315
254 601 726.6522010173833
254 619 1023.4734219029624
254 629 350.8923739969059
254 631 466.6577468486889
254 633 238.0607229741394
254 639 498.7285767447089
254 640 692.432343710278
254 695 955.7939005877658
254 704 1122.682182236912
254 706 1420.763072606813
254 710 1193.1080879040355
254 755 733.6730697530149
254 757 742.8691893951235
254 758 759.7027015435241
254 1862 5572.496804340904
254 1981 1345.27464014513
255 259 278.3283439814419
255 262 404.9532003892197
255 268 647.0956398260445
255 270 554.714206393616
255 271 533.531037316349
255 282 370.44934051681514
255 286 341.76552426313424
255 287 555.1276824443839
255 288 449.2543765790137
255 291 593.8464272976679
255 295 979.6125004825001
255 302 513.6278087167558
255 308 1042.1241335662814
255 315 1197.6941774508343
255 333 909.1898427232015
255 340 1469.6067104652727
255 343 1068.8351628086202
255 368 1462.5400985273145
255 376 9680.90696142543
255 381 9075.14694891114
255 402 9784.508678278266
255 433 6835.836746542618
255 484 4905.408784521063
255 492 2093.846379043807
255 497 1803.6141041863013
255 508 5919.948639723461
255 523 3532.6528515094537
255 525 4004.8891147144745
255 538 2365.4857153247544
255 551 6496.984048622483
255 555 2040.891097117507
255 557 3277.8355019154083
255 562 1306.9115398668002
255 563 1531.351085916901
255 564 1367.8888957988022
255 569 926.78204615536
255 570 1147.7144479807907
255 572 1084.9244952585852
255 575 1408.049166084192
255 578 1245.9519932614019
255 579 1675.858344718295
255 597 882.5605011386609
255 614 757.2962017473192
255 618 989.281672371643
255 619 1041.0672951836752
255 628 347.16798763263137
255 629 366.5394957517189
255 640 719.6127156413838
255 663 2552.6144823414506
255 671 2644.47267526335
255 676 1489.5516437156214
255 691 936.377489198571
255 695 980.6373272559136
255 699 1163.2373211940217
255 704 1151.4346010289837
255 706 1443.889176744717
255 709 1186.1177744408672
255 716 1044.2726272022744
255 718 3588.7118965148093
255 723 2102.552970162278
255 728 1275.0626392571035
255 731 1712.7968887382194
255 737 1298.0822539136536
255 739 1563.932774249927
255 750 2103.7983590204803
255 755 754.1282170857924
255 758 788.0680236744759
255 770 2513.09260712653
255 782 1747.005074358418
255 783 1701.4919471688538
255 832 8903.869975016343
255 898 6976.532495215785
255 960 5093.745887590695
255 970 4748.303533774429
255 975 4940.618651176464
255 1004 3683.0256003699033
255 1006 4674.748959546667
255 1007 3481.66156633142
255 1008 5516.671378997904
255 1010 5497.933208709122
255 1014 5833.611582226746
255 1019 6338.850309927537
255 1020 6315.3535066118975
255 1027 6066.405606974699
255 1051 9591.536896328736
255 1095 9591.498270049708
255 1108 10767.176121873787
255 1181 9253.308747218829
255 1183 9460.194604680366
255 1370 5623.890315409586
255 1371 4796.939578767705
255 1380 4002.1263356519357
255 1394 2185.3147604574074
255 1401 2113.6730804502536
255 1423 4741.195426807804
255 1427 5260.816611828693
255 1428 2508.503202091406
255 1430 2502.6050704393183
255 1438 7213.051116681211
255 1456 8715.416591522719
255 1476 8018.162643469129
255 1477 8014.990149900491
255 1478 9630.8149033877
255 1486 6731.296838318375
255 1506 8046.600889941156
255 1513 8234.965578134044
255 1595 10605.501419857119
255 1600 10883.304237608347
255 1635 8153.307227101302
255 1639 9495.848580147322
255 1664 8302.03913168229
255 1672 9241.435962864096
255 1692 5239.65696245226
255 1701 8462.896901402155
255 1705 8616.010186273068
255 1708 8759.667739711957
255 1714 5561.655268104343
255 1737 7762.991427715146
255 1746 7108.938400949143
255 1747 7702.093878674254
255 1773 6216.126720614036
255 1782 6044.498979291385
255 1793 7627.249928577716
255 1795 7892.694230793208
255 1802 6760.773177589779
255 1822 5901.7906669039285
255 1833 8806.915062991655
255 1845 7496.481909116523
255 1846 5689.798250815639
255 1862 5539.651717070933
255 1877 6343.7594049252975
255 1886 5833.387849263832
255 1893 6442.929006263427
255 1904 6409.153741108743
255 1905 8395.021211749094
255 1910 9577.994245710624
255 1934 8861.244728863338
255 1943 2426.7697781166084
255 1974 11136.579543580374
255 1981 1348.240902433152
255 2007 2545.0520187247735
255 2031 6841.246067448515
255 2182 4422.665163549668
255 3086 5513.272960893588
255 3178 5241.472137566911
256 271 555.2568231603115
256 282 290.63727914166174
256 288 514.181759178371
256 335 1347.1872318816975
256 566 1480.9272709424565
256 570 1147.299616672487
256 575 1412.9912072244565
256 579 1706.4209622828769
256 704 1089.361650447354
256 731 1756.4118265748743
256 755 712.4732314049032
256 1981 1345.8214423776617
257 261 110.04123089324236
257 288 217.40559288052236
257 480 2891.000753030256
257 481 3066.7570270004016
257 566 1732.6127186626982
257 579 1904.4602842918316
257 731 1901.6397574506525
257 772 3088.276704755326
257 1981 1639.9522416690409
258 268 419.8492870844381
258 278 147.86315849744787
258 282 370.40318342219996
259 268 372.48103271287124
259 270 284.955895438313
259 282 462.4643483281325
259 288 307.7832421847697
259 295 937.5755864197781
259 334 1308.3785403802442
259 335 1521.585857392964
259 476 2995.0316617913795
259 479 3093.422752213769
259 480 2935.412945728658
259 481 3117.781684398983
259 557 3452.8934754902657
259 558 3397.869524707994
259 559 1927.3215989877756
259 566 1734.8612885232062
259 570 1424.9337502362414
259 573 1369.9931266497535
259 575 1682.9191939585135
259 577 1790.4020937878795
259 579 1924.0233419148121
259 580 1618.5928354956861
259 596 912.6944494732776
259 619 1305.9919277477966
259 621 1215.3095333422561
259 628 613.2465372434897
259 650 2926.318166558076
259 655 2906.7416831189403
259 657 2267.2062843295994
259 666 2996.948834029125
259 668 2853.46745742544
259 675 2481.897605917279
259 676 1631.3219195373815
259 692 1220.1338275238516
259 700 1346.8015521521936
259 704 1366.8232601349855
259 706 1689.6633272818412
259 709 1431.879213032637
259 716 1164.8013958908775
259 723 2359.891895159601
259 731 1935.4183044024783
259 762 3115.557889588213
259 772 3012.041055867184
259 1027 6095.146507246201
259 1981 1625.8304751601172
259 2052 2640.1056307474005
259 2172 2901.1669277294923
260 597 1108.5887927799442
261 262 216.77044277361188
261 288 130.8867474450038
262 268 242.70510976348433
262 282 522.065587312966
262 287 573.2777594881194
262 288 347.54046869117917
262 295 908.2501503010116
262 333 615.5820011897049
262 335 1545.4608435092173
262 476 3113.479277896537
262 479 3209.446807687505
262 480 3054.041558029469
262 481 3231.480313158425
262 558 3456.194076991229
262 559 2001.9956852974965
262 566 1865.051095824932
262 570 1552.6582692293011
262 573 1496.3657215597193
262 575 1811.9693976963233
262 577 1920.6494760750882
262 579 2052.957005845677
262 580 1743.3746511769866
262 582 1558.6993237637123
262 619 1417.7113494257028
262 628 729.7464473578846
262 650 3002.2513738630782
262 666 3062.2760292567946
262 704 1450.6517956396183
262 706 1788.2431933819028
262 709 1531.452632832401
262 716 1206.01596866157
262 723 2464.326235396547
262 731 2059.7679379794345
262 772 3074.632555716283
262 1010 5653.311472429521
262 1981 1753.1731237593401
262 2029 4169.037735585899
262 2172 2965.282134040218
262 3047 2302.620738832363
263 268 303.22565957925195
263 282 477.6586351529914
264 268 489.15317887257095
264 270 393.37649825497203
264 271 371.16628132214134
264 282 415.665750807149
264 287 498.7408065883674
264 288 336.14028517498616
264 289 510.9533176993148
264 335 1488.834865623271
264 338 1637.5823742346029
264 341 1259.0221462848128
264 476 2900.0386827620746
264 479 3001.4884388590576
264 480 2840.2142370204792
264 481 3028.7345293672643
264 557 3388.199892683305
264 558 3330.507995089891
264 559 1848.4645531394915
264 566 1618.8516851422323
264 567 1779.5468674538138
264 570 1307.8328190944364
264 573 1253.2445672033407
264 575 1565.8274748079791
264 577 1674.6384273728404
264 579 1813.400219134621
264 580 1502.4357250510786
264 582 1312.671623645454
264 586 1484.9466157981658
264 594 900.3291118999073
264 596 795.7159716371517
264 617 1102.4155246366756
264 628 503.9735119149995
264 632 474.7989698872276
264 650 2844.871608151635
264 657 2183.5152825749096
264 666 2924.1676427181446
264 668 2770.173531271196
264 676 1578.756824255639
264 692 1126.578148229025
264 700 1262.0316877246944
264 705 1608.730552879018
264 709 1333.5536369313295
264 716 1119.1573628535773
264 723 2256.5798673340605
264 731 1832.8105062140996
264 772 2941.5238403720705
264 1953 1670.3934914360182
264 1981 1508.7944347748748
264 2052 2557.0674491843974
264 2172 2829.5095437377354
264 2831 739.7204730240451
264 3047 2077.890723485468
264 3115 1477.882754984381
265 266 137.0330951635634
265 268 199.62285116538013
265 269 170.97838278131607
265 270 355.1048405521874
265 271 335.61762614743674
265 2333 26.975332254884663
265 2334 52.86536289260947
265 2335 43.80034744902598
265 2336 26.63537033045602
265 2337 37.54020742882069
265 2338 43.719189875556125
266 268 302.2311516074181
266 269 304.4925943435993
266 270 482.50660740383876
266 271 453.7135510224143
267 268 149.4812265592697
267 271 279.48383705716947
268 276 270.1099945941194
268 278 550.0240613688918
268 282 703.2740482098338
268 288 492.89034026339544
268 295 928.6321927052767
268 296 687.0939235395093
268 308 548.2744738557151
268 315 830.236533161639
268 318 857.9341796667704
268 333 497.0064871777712
268 628 963.5831918005003
268 1953 1572.7083414307715
269 271 181.79565193364357
269 276 154.36077586810302
269 282 808.5294292110333
270 272 115.98163830218743
270 274 253.03237697958406
270 276 284.7502646330605
270 277 166.0912538663978
270 279 538.4058242389708
270 280 575.2473347714658
270 282 717.9574658497828
270 287 521.0436726665739
270 288 296.99681633989724
270 334 1458.5960737270232
270 340 1699.226315250584
270 476 3139.8682006103977
270 479 3227.4365600298634
270 480 3081.229017935056
270 481 3242.1505549382587
270 557 3703.591279546865
270 558 3652.136909407894
270 566 1977.0026149991115
270 570 1688.1152566102446
270 575 1938.4410638302172
270 579 2134.6175923172273
270 628 896.6227003864267
270 650 3197.2808377507167
270 655 3169.7831595322627
270 666 3258.41926142426
270 706 1973.397633408833
270 723 2644.799316105377
270 731 2113.577818278241
270 762 3368.1670017374395
270 772 3270.786517760541
270 853 7620.285241580504
270 1010 5840.56372883043
270 1714 5182.002748912549
270 1846 5310.8208164176685
270 1906 6626.615185942478
270 1981 1889.9465486317185
270 2052 2748.1136729017758
270 2172 3161.4427412058635
270 2332 92.29394577499907
270 2341 224.9080669706111
270 2342 262.9735992458442
270 3047 2471.159884458586
271 276 308.8494542296102
271 278 472.7954093579932
271 279 509.86010434609057
271 280 579.9554364368101
271 282 666.3640081397747
271 287 566.4286302865526
271 288 337.20352131682523
271 291 509.67311794021765
271 295 1000.6410605442678
271 308 697.3814950412692
271 315 964.5785931682974
271 325 921.9819975021821
271 333 629.3798235063508
271 334 1392.1881804056582
271 335 1670.9938151890378
271 337 1365.9628150418862
271 345 946.3143280758183
271 368 1320.2528625123132
271 476 3169.25017327494
271 479 3259.3890058892252
271 480 3110.340176379506
271 481 3276.2621211496835
271 558 3595.98879327098
271 559 2146.983356627383
271 566 1975.670275333335
271 570 1676.5714486250647
271 577 2029.973414419367
271 578 1721.141756863392
271 579 2144.971195797925
271 580 1873.4927655466886
271 589 1392.849222050534
271 593 1250.6995105191743
271 614 1280.3885745630641
271 618 1519.5585033035657
271 619 1559.7932687175582
271 622 1483.5089205461054
271 628 868.6783368761824
271 640 1191.6265358533553
271 650 3147.246737004397
271 657 2492.654926656028
271 676 1812.786668298971
271 691 1424.0020173262806
271 699 1635.6345773118358
271 704 1597.0626052751095
271 705 1949.4012179520828
271 708 2109.547521175219
271 709 1677.3478362997107
271 716 1341.2900222336723
271 723 2609.338504133776
271 731 2133.558978589039
271 739 1956.133469749087
271 755 1264.1792910979245
271 770 2857.664343586644
271 772 3216.047000824821
271 787 1642.4528215260593
271 1714 5244.798312211864
271 1943 2848.0148756323892
271 1954 1723.2296578485334
271 1981 1877.9854137872037
271 2118 789.1568143277209
271 2172 3107.223655778869
273 288 256.39145384947903
273 341 1501.2821927427747
273 476 3098.540548673087
273 479 3186.284916758384
273 480 3039.8872060807457
273 481 3201.2128789232083
273 566 1939.0663674421212
273 570 1653.3032071271869
273 575 1902.2050717265765
273 577 1992.1820897972038
273 579 2094.3141333268622
273 582 1651.2610581971753
273 617 1453.5247136667688
273 657 2525.977811445522
273 705 1967.998074760552
273 723 2620.722390675612
273 731 2072.2844977742043
273 1953 1759.7471623976223
273 1981 1855.213328502255
273 3115 1675.1397890275298
274 276 101.96464132199915
275 279 550.3004112394566
278 282 239.16838336247338
278 723 2137.3182303477874
279 282 312.8817372662006
279 284 357.6580047246109
279 287 598.8622936733125
279 288 470.6667855549925
279 289 647.134699001669
279 290 667.8844447410277
279 291 629.0949267167191
279 293 835.0026233607348
279 294 724.690271589834
279 295 914.3178746924295
279 316 885.7919948430489
279 325 1061.8147132067284
279 331 1025.8471490723343
279 334 1243.6747167515696
279 335 1378.9760350316615
279 336 1319.176137554197
279 337 1131.0044664334387
279 338 1531.3301454806094
279 339 1003.5523229884959
279 341 1153.4760479756162
279 345 989.728004722644
279 348 1298.6893990930766
279 351 953.4255087184613
279 361 1851.3910846936044
279 366 1330.8013180555638
279 476 2856.151165553672
279 479 2963.7630839424983
279 480 2796.005955374848
279 481 2996.703308135864
279 489 2040.126930880749
279 491 2060.5287913203483
279 493 2353.2888458857146
279 554 2147.7188506590724
279 555 2011.7526083983425
279 558 3190.915922321682
279 559 1703.7230458002418
279 560 1533.4777590021042
279 561 1271.6286347581256
279 565 1413.8443236871008
279 566 1513.821326279224
279 567 1684.9833873373836
279 568 1036.4365438205855
279 569 982.9553678481196
279 570 1185.615140466338
279 573 1126.4514446509536
279 575 1449.5616273704643
279 576 1754.8122138259225
279 577 1571.0911358914761
279 578 1301.8555143951862
279 579 1731.8265024664913
279 580 1371.4040413579428
279 582 1196.069757133499
279 585 1191.0609536288177
279 586 1379.4460528011641
279 589 987.8989530911207
279 590 1140.3826318791203
279 591 1678.611655003847
279 593 787.7880994367148
279 594 785.2818794412548
279 595 589.0564224238494
279 596 673.1754679583354
279 599 968.2657816892212
279 601 766.6940200724501
279 603 945.1091250368821
279 605 847.8637735396484
279 614 770.9779030704348
279 617 976.2950232175235
279 618 1010.0446553628651
279 619 1051.9472794856904
279 620 1035.8819992523308
279 627 496.39385580978774
279 632 401.86285089404714
279 640 708.5038414714487
279 642 643.9105079812109
279 643 1072.4745010227962
279 653 2195.2597632562574
279 655 2689.740570761339
279 657 2036.6424113845203
279 666 2781.795201007753
279 668 2623.281920596439
279 674 2143.561581757594
279 676 1451.2731314489522
279 678 1732.3048899010867
279 679 1484.0950655104996
279 680 1838.1626444193057
279 681 1900.7179216718882
279 685 1822.8202720969966
279 688 1394.1413735814601
279 689 1560.8833001388352
279 692 977.4762057698966
279 693 921.1398380776034
279 694 1046.136808757784
279 696 1079.3214327465437
279 699 1154.6611461963253
279 700 1115.3058664133173
279 701 1176.8173315231593
279 705 1459.2895873703928
279 708 1624.7139384837176
279 709 1184.132812092921
279 711 1340.4427113874362
279 712 1209.5154699132484
279 714 1276.482486104948
279 716 999.761076437974
279 717 1199.859871825458
279 723 2108.117084060248
279 726 1073.4511582542082
279 727 1020.6299046728
279 731 1774.348406311482
279 737 1362.8173669587086
279 739 1627.7149588164227
279 750 2066.2873417522096
279 771 2574.0042729710217
279 772 2800.3371894619486
279 780 2132.7961177880125
279 784 1777.797360550382
279 787 1277.661743966758
279 1943 2407.9199983757903
279 1953 1625.191868519781
279 1954 1608.5051964858208
279 1956 1684.6541264256646
279 1972 835.8013211732239
279 1981 1384.8888693446422
279 2029 3880.687790090076
279 2104 654.7233102110241
279 2118 407.8064358538703
279 2169 1341.08753079705
279 2172 2687.7626476453224
279 2173 2518.4366732898197
279 2353 1205.6627392212574
279 2831 642.9331728763373
279 3115 1389.2309221943167
279 3127 1549.3116861976027
279 3150 2002.8708614542522
280 282 591.8823860505427
280 288 356.8136303535375
280 566 1402.7366342365847
280 579 1565.7335314200857
280 594 719.5137428049794
280 628 468.12273747548886
280 636 320.2435410702478
280 723 2186.7129083030045
280 731 1567.8437637293341
280 1981 1332.6512045220197
280 2191 223.75345159041726
281 1147 748.2254063180015
281 1232 850.5928290310694
282 287 906.1148319300846
282 288 750.1606155058154
282 294 477.04199267601825
282 295 633.3856046651175
282 301 623.9270695879165
282 302 315.1527050408306
282 303 1143.0025398089974
282 308 888.3069671871147
282 310 688.3119486485253
282 315 950.6955311129142
282 331 837.8957312820027
282 332 1290.6807115162055
282 333 732.3849603414506
282 334 936.6203620209903
282 335 1073.596156575139
282 340 1101.1715249816766
282 343 763.5371860930042
282 353 820.5362810058817
282 368 1152.1702905325906
282 371 965.2012183420168
282 376 9687.09998160063
282 381 9017.310380887622
282 409 7859.891522396086
282 433 6849.256916761601
282 457 8214.564973782548
282 476 3066.211234618144
282 478 3221.4113516840443
282 479 3182.778803585854
282 480 3005.889042230613
282 481 3223.921797715918
282 487 2704.9110758755833
282 492 2327.105298220634
282 493 2524.8715640236724
282 497 2026.9605466107566
282 503 4640.365280353273
282 507 4729.515262700883
282 523 3287.309270777579
282 540 6486.887881774974
282 546 7345.038141817296
282 547 6901.256965937228
282 551 6357.96991710288
282 555 1753.2832260876917
282 557 2991.6306881505825
282 558 2937.793439196452
282 559 1480.6998598528598
282 564 1098.85119976914
282 566 1613.1543613678302
282 567 1807.8951732328617
282 569 1152.5126688377727
282 570 1241.1379585350408
282 573 1167.0424995569467
282 575 1516.6640081266507
282 578 1460.655923649045
282 579 1883.6599100900733
282 586 1481.1160342587075
282 591 1852.0709185460846
282 593 923.6933288206417
282 597 997.4675773841553
282 612 1194.0336374007413
282 613 734.4075782857832
282 614 732.365668537666
282 618 986.8104778103706
282 619 978.8657825569127
282 628 398.27033320195
282 639 733.267711574465
282 640 560.6433901740739
282 642 465.6741240012521
282 647 2007.6487484258732
282 648 2265.275327157797
282 650 2480.93826304285
282 652 2286.3666359313006
282 653 1993.0561511125907
282 654 2164.152070348612
282 655 2451.9589853993607
282 657 1827.5001121362047
282 663 2300.7313443496923
282 664 2230.9672957708285
282 665 1931.070624564294
282 666 2540.9016002314297
282 668 2411.3107883949892
282 670 2364.301013457879
282 671 2400.0212736178028
282 674 1904.810522628604
282 675 2045.7727556389705
282 676 1169.2131617296138
282 678 1538.0468595900309
282 681 1732.6406443504052
282 682 1834.8760086188654
282 685 1698.65980898434
282 690 1318.9419343475206
282 691 796.6435792503993
282 693 817.9997703198069
282 695 831.0827456611761
282 699 988.4655326562598
282 703 889.0275484058227
282 704 936.9106557034461
282 706 1296.8225596176699
282 708 1461.0889857703914
282 709 1045.7127477262484
282 710 1058.3320414317957
282 712 974.4299927844672
282 716 705.00895445239
282 718 3311.9965754921873
282 723 1982.8510148691973
282 725 733.0805455191019
282 728 959.4808399322939
282 731 1969.7716235099108
282 735 2857.157910132255
282 737 1594.9749840024951
282 739 1846.2997101355468
282 750 1783.2061545438062
282 755 681.9939945226213
282 757 631.2222700693854
282 758 602.8337311587474
282 762 2654.814680006791
282 764 2672.9711458247193
282 768 2795.436892648122
282 770 2210.077013159034
282 771 2326.8904530218592
282 772 2554.136011057579
282 783 1410.2168665429149
282 792 7244.719249954133
282 793 7293.8120422702295
282 803 7898.432258146686
282 832 9206.29766651221
282 853 8280.90974522966
282 864 8813.483198125175
282 879 7818.9155156632105
282 880 7596.60759440081
282 882 7750.3596020740515
282 965 4704.773044822184
282 1004 3402.0008405140075
282 1006 4355.285570620774
282 1008 5191.571242261378
282 1010 5168.644172731163
282 1049 9442.527532361735
282 1051 9318.793769288975
282 1067 9108.698350897786
282 1181 9559.703878419105
282 1183 9774.929662802746
282 1246 9834.216116272437
282 1250 9552.011942754589
282 1303 7524.43174500244
282 1310 10519.92730212025
282 1360 7878.423566141747
282 1361 7792.356215698276
282 1362 7834.08780644909
282 1364 6933.212225080758
282 1370 5256.026313076436
282 1394 1818.65016231053
282 1401 1773.4358116870199
282 1404 1556.246930339475
282 1428 2144.3524370490554
282 1438 6859.523709464598
282 1478 9274.437924674134
282 1486 6363.463094200188
282 1595 10236.653089951125
282 1600 10513.92799338219
282 1635 7827.110785448462
282 1639 9139.758860695132
282 1652 9317.202569928335
282 1655 8922.042229499564
282 1664 7942.070863092696
282 1672 8910.464655172307
282 1692 5547.360765203264
282 1705 8785.533014827348
282 1708 8955.963071544944
282 1714 5868.470582557126
282 1737 8049.303188606941
282 1746 7442.825899802548
282 1747 7840.009438389334
282 1782 6323.613278313085
282 1793 7900.115950043037
282 1802 7065.799314572634
282 1822 6207.104620794097
282 1827 8028.82490353724
282 1846 5997.058482512002
282 1862 5847.530991905588
282 1877 6611.87217346827
282 1893 6684.899256175599
282 1910 9207.564738192219
282 1934 8551.993747556591
282 1943 2181.750462219136
282 1953 1333.2394669811954
282 1963 3219.959183939806
282 1974 11462.180005543612
282 1975 3535.454461559056
282 1977 9241.293239911054
282 1981 1426.9745876808433
282 2031 6677.449332028677
282 2052 2783.506841670605
282 2105 7257.882088353119
282 2172 2444.2372608407786
282 2173 2246.49081091744
282 2182 4075.5863109039697
282 2200 3370.3851348412427
282 2376 2022.5091284546993
282 3047 1859.401156369132
282 3178 4923.099104947587
283 285 251.68350363418608
283 481 3158.173655761555
283 566 1489.667411356821
283 573 1027.9410000380901
283 650 2326.5397442480726
283 678 1375.6407148201772
283 687 1539.3137014709255
283 731 1889.7912263111837
283 737 1543.1143354619392
283 762 2518.378330981434
283 1981 1284.9927342418769
284 285 202.93091559640803
284 286 85.7178143404319
284 288 818.2045218959544
284 289 993.214757835732
284 295 667.4457963772948
284 334 934.5394431721915
284 335 1023.2196468372762
284 336 964.5281631012663
284 340 1072.8851659630877
284 479 3137.350140802732
284 480 2957.133389982984
284 489 2119.335080266802
284 493 2463.772207235614
284 555 1669.9367582637778
284 566 1535.7652927245304
284 570 1156.6212873614934
284 573 1080.1909093452896
284 575 1432.7153972327833
284 577 1596.083402014106
284 578 1400.2585187597815
284 579 1818.7048672818246
284 582 1189.816962467863
284 586 1405.0569989623816
284 591 1793.8976528559804
284 617 944.1119195146038
284 618 890.8385201284684
284 619 877.2712547112322
284 657 1730.8515882006925
284 666 2452.2779287071176
284 668 2315.7016771169383
284 676 1096.8199339216155
284 677 1250.2525530848172
284 680 1538.726942681374
284 682 1731.2308098398632
284 687 1605.1920107185688
284 688 1223.5241247668018
284 692 716.6609410168919
284 699 885.2484967932869
284 700 816.6845669423182
284 704 836.755184372277
284 705 1205.0908255977306
284 708 1358.3525413238483
284 709 941.5113747288879
284 723 1878.7047678909478
284 725 635.1981327104639
284 731 1918.53104758598
284 737 1560.2902101354887
284 739 1804.4607581155308
284 746 1425.3269430285413
284 750 1711.98507968304
284 762 2571.3731534976055
284 772 2467.133351504504
284 781 1620.8287646708666
284 783 1327.3068558689447
284 1943 2088.9934755386253
284 1953 1348.5264150491448
284 1956 1372.228658896648
284 1981 1338.6606929039456
284 2172 2356.3362674382784
284 2173 2169.3998052953457
284 3115 1050.9181691102194
285 479 3330.7453538026853
285 573 1279.536923495047
285 650 2455.1322456193466
285 731 2115.1327630941464
285 762 2598.951335203246
285 1981 1536.6626585149756
286 493 2479.856863028775
286 563 1286.262672343634
286 566 1569.3091240147405
286 570 1198.753441633104
286 573 1125.309509934243
286 575 1474.0563179575572
286 578 1415.6438552910165
286 579 1838.729903323646
286 586 1437.1104013244783
286 594 843.8183059950561
286 619 945.6099764215668
286 621 932.5611521790383
286 643 993.3878081203517
286 650 2472.2365892400185
286 666 2537.318870430861
286 676 1176.2674092531108
286 706 1273.8635154141662
286 716 716.6309184702977
286 728 964.74818621122
286 731 1924.9674095224702
286 762 2655.143520372724
286 770 2214.1576269361335
286 772 2551.8292519996835
286 1981 1385.5745400514847
286 2172 2441.2254589850227
286 2173 2251.0111213219097
287 334 1809.873267296027
287 341 1750.6944562591655
287 476 2638.7365785897264
287 479 2720.007886034046
287 480 2580.917566207928
287 481 2730.3294499064136
287 566 1629.04392219087
287 570 1420.74004332664
287 579 1715.4626976427396
287 619 1480.3128586390253
287 628 841.9333519614597
287 731 1649.1943137992114
287 739 1453.0675206381507
287 1956 2246.902346403036
287 1981 1617.0170848468358
288 290 258.55262851639736
288 295 1241.5488197015702
288 302 959.097640145568
288 315 1285.5951309569462
288 325 1235.685754532674
288 334 1615.7568417403745
288 335 1820.9261861968548
288 336 1758.2877502527258
288 337 1545.585041207116
288 338 1967.6347858392928
288 339 1395.2113582196318
288 340 1825.4961640218205
288 341 1589.583124923603
288 368 1624.7534037920327
288 476 2844.945946044804
288 479 2931.2136262796344
288 480 2786.488867739005
288 481 2945.315357983008
288 493 2429.784642933983
288 553 2754.194401418902
288 559 2171.987580879907
288 561 1738.548714201715
288 565 1881.1386041373876
288 566 1739.1513077528048
288 567 1867.8275599449285
288 569 1152.024872456578
288 570 1485.2135842556238
288 573 1445.932674341254
288 575 1719.1466461280174
288 577 1789.540597032773
288 578 1454.2234126178505
288 579 1867.1583836128286
288 582 1473.6660018294544
288 585 1180.950270126316
288 586 1610.0493318039291
288 589 1125.7366252574068
288 591 1779.7249011321858
288 593 1036.696190113503
288 597 1223.782183256727
288 603 1159.9533398828835
288 605 1186.9993844224039
288 614 1181.4266215066925
288 617 1297.8350495348134
288 618 1393.1050197362806
288 619 1466.3395128538648
288 620 1365.5705498880327
288 624 728.7358763538538
288 627 829.3578782292439
288 628 784.9688792144128
288 639 771.1971496605048
288 640 1168.5874592384391
288 657 2500.8251492216573
288 668 3087.0003033713956
288 676 1914.8657041978802
288 678 2193.0194134178623
288 682 2414.158390260727
288 688 1792.854542710829
288 691 1381.7353206499852
288 692 1433.5081078133403
288 695 1426.7721811316685
288 699 1610.8364961574548
288 700 1581.0279048654743
288 703 1522.5203963575404
288 704 1600.6404543141764
288 705 1904.867754801544
288 706 1885.5699477725723
288 708 2074.3072287055156
288 709 1628.7964362554667
288 716 1454.7483709441697
288 723 2532.00798090508
288 728 1702.4478275778395
288 731 1829.0613859238115
288 737 1365.5346829881935
288 739 1642.4773348325962
288 750 2529.944362855557
288 755 1191.3042912533044
288 758 1237.3195987715856
288 770 2949.1766720438504
288 771 3044.537344955414
288 780 2579.270551506995
288 787 1741.146576805436
288 1008 5940.7886279761815
288 1010 5918.536385505168
288 1692 4802.873497266994
288 1705 8183.022670340525
288 1714 5124.4721085480805
288 1802 6322.911247362804
288 1822 5463.910199557325
288 1846 5252.876813919552
288 1862 5103.029768704519
288 1877 5895.33000336628
288 1904 5973.239935540393
288 1906 6541.450301661115
288 1943 2875.695803126607
288 1953 1942.6115786540945
288 1954 1966.5600198711536
288 1956 2048.0720424225697
288 1972 1305.924955280518
288 1981 1686.29496008982
288 2342 225.10401023063912
288 2353 1605.5052771947621
288 2831 883.2750091884118
288 3115 1796.7143667111168
288 3150 2433.510128090454
289 480 2802.978364080924
289 481 2944.8075172298904
289 566 1847.823255482378
289 579 1945.137168359932
289 731 1879.8821810795962
289 1954 2111.4127717448578
290 566 1694.4201403503919
290 731 1690.8415250900114
291 335 1999.6821106588156
291 341 1770.0965414124826
291 476 2726.926882299431
291 480 2669.4322431345463
291 481 2813.55939767747
291 566 1728.1823466885112
291 579 1815.2748979683247
291 595 949.3784528996102
291 619 1556.9237512293623
291 624 850.2730009899466
291 731 1745.9797724243701
291 1692 4646.011876694014
291 1714 4968.05855214394
291 1862 4945.971106001789
291 1972 1451.9519746218025
291 1981 1711.5975106846429
291 3115 1984.6740830512156
293 295 147.73883471299376
293 301 99.89506259950939
293 315 425.6241777945707
293 343 181.89410304591985
293 369 550.2419050361817
293 579 2457.7459992453755
293 1981 1949.6584272128287
294 295 220.09401137100252
294 296 44.48631899842839
294 300 1171.272620962136
294 301 156.38375810746572
294 308 556.5392302348499
294 315 499.78658843930225
294 333 407.5119989448088
294 368 677.7200843769492
294 481 3698.389196396121
294 565 1365.9980800292399
294 566 2071.4674738524586
294 573 1606.7541218452986
294 579 2356.1305966213085
294 617 1476.105936378854
294 628 871.1438374655881
294 657 1961.740294964888
294 668 2519.2155734453427
294 676 1155.89028182876
294 688 1681.1362304516208
294 692 1120.0000905141246
294 700 1142.1633295649538
294 705 1570.0666703146326
294 709 1343.521467150913
294 723 2247.4751589376765
294 731 2446.811790590323
294 758 921.1372651246116
294 762 2651.1649519264433
294 770 2176.643997821513
294 1953 921.0817559356313
294 1981 1861.1516048665383
295 297 232.41383479273836
295 298 146.61522278565673
295 299 195.34998163012227
295 300 1344.0690131611498
295 301 238.28039188551125
295 302 795.483932930901
295 303 856.7267366123152
295 308 679.5049826203726
295 310 399.4455409940962
295 315 509.60874206800565
295 316 607.6090511620484
295 320 849.2391322825401
295 331 421.95269669136803
295 332 877.1266368787864
295 333 555.8847887610021
295 334 395.27143675943927
295 335 779.353956105485
295 337 447.7031289188644
295 340 665.6009965681998
295 341 574.9538512997723
295 343 228.54229590062332
295 368 546.7549418512806
295 371 359.996296526421
295 479 3804.5472913368335
295 492 2925.6878354335836
295 493 3120.3099751086966
295 523 3197.2868476194185
295 553 1801.8441969925314
295 563 1368.0677756409402
295 564 1123.7183298921982
295 566 2164.5431963803603
295 570 1768.57562295409
295 578 2060.2536115704747
295 579 2471.547674825051
295 603 1688.095889803346
295 619 1385.2761599740493
295 628 1003.7018705035496
295 629 1036.6016777357634
295 640 959.6754084447141
295 668 2398.612810709333
295 674 1840.9170795193452
295 676 1017.6487107026694
295 682 2026.4076781934157
295 691 1144.1114523217534
295 695 1155.7511999067917
295 699 1236.112545901911
295 704 1124.6738242059985
295 706 1536.7492517702917
295 709 1336.7820483113705
295 710 1317.0419673605113
295 712 1052.1000708624322
295 716 622.8090593866174
295 718 3143.5035622656023
295 723 2201.6134734764373
295 728 876.6421384511706
295 731 2584.227780592957
295 739 2471.8076775668605
295 742 1372.2217356013748
295 750 1552.0855134341803
295 755 1138.2528215478103
295 758 949.619685088752
295 762 2489.085528412403
295 770 2009.1373429060275
295 771 2208.645819597486
295 783 1316.6610926205499
295 785 1570.963979317505
295 1010 4818.388729230441
295 1020 5420.77882602058
295 1027 5165.909771670023
295 1051 8712.058568105756
295 1401 1140.1095199667877
295 1428 1539.8392090838533
295 1600 9967.650039082917
295 1635 7194.317767071751
295 1672 8277.124681811581
295 1705 8807.150048478472
295 1708 9028.543071036522
295 1714 6206.8267663777615
295 1729 7811.78928086419
295 1822 6539.266883488296
295 1862 6188.686502265216
295 1877 6853.7251438806925
295 1910 8636.967677793942
295 1943 2139.457735103013
295 1953 712.6731985497582
295 1955 528.5827014122393
295 1956 809.2444081739396
295 1981 1930.6124307444206
295 2173 2037.8407950915198
295 3109 2610.7940351448606
295 3178 4609.676223608863
300 308 696.8827171877679
300 333 789.7058492463472
301 315 343.82064589258545
301 333 317.68020212856555
301 368 549.3446895556541
301 566 2226.113423074842
301 570 1842.0919403551375
301 579 2506.8463446855535
301 770 2247.1782903592075
301 1981 2017.4664578955403
302 368 1341.7816409581417
302 476 2903.635105209904
302 479 3029.9033167613406
302 480 2843.614036026373
302 481 3081.0149874249923
302 487 2513.7406381858586
302 493 2327.3769994576855
302 503 4495.589336923712
302 504 4551.33846600187
302 556 1794.8587489032782
302 559 1214.7973482160126
302 570 979.7730352792585
302 575 1255.1262779683934
302 576 1738.5676213358356
302 578 1272.2125359403828
302 579 1677.5854338532256
302 609 825.6785490663484
302 610 814.0918655602568
302 611 930.6809571684939
302 612 879.4251026996002
302 619 667.7328245717548
302 628 273.41724423449654
302 650 2211.2790027126684
302 655 2200.5162712912197
302 657 1550.628944125781
302 666 2292.702339286555
302 682 1526.3599015329119
302 689 1175.0486339728723
302 691 482.50357873628946
302 706 987.272184374689
302 708 1158.0466196384193
302 723 1670.7109574150334
302 728 775.9341228284746
302 731 1804.787883594559
302 737 1484.1338444401572
302 739 1710.9212948265308
302 755 376.48863409302135
302 758 295.61597948229155
302 762 2424.935936474334
302 770 2001.7440363387554
302 771 2085.7199452001796
302 1981 1152.7187563885607
302 2052 2670.555998271744
302 3047 1544.8022116842933
303 308 256.8211965285943
303 315 377.73952252022445
303 332 262.00676409712815
303 334 1155.179474412152
303 566 2737.621575864998
303 1953 1174.5641911966459
303 1956 1408.5850533151383
304 307 236.56524460277106
304 312 91.6181888784594
304 330 116.50477191335237
304 2142 90.92691848380429
305 315 1233.5404565093263
305 319 251.14154773821014
305 322 61.71741783543523
305 330 173.76177543743572
305 2178 79.02265193961742
305 2180 202.5583167929072
305 2181 246.01394596526578
305 2351 94.62728993257733
306 307 222.65639936920323
306 308 674.4667895420026
306 315 596.7246229765806
306 329 56.30661392213276
306 332 231.21509297425143
306 2345 137.90446670037986
307 308 894.3815570487172
307 312 166.8408815400888
307 315 811.1703194220569
307 321 172.8219719363588
307 329 168.21623299379755
307 330 326.2640634774333
307 332 452.66900644890075
307 2142 148.27409116420836
307 2193 181.345304462804
307 2343 103.26013491657882
307 2345 100.70418785338835
307 2347 100.84490841478441
307 2350 109.06732989879907
308 310 283.74265712435545
308 314 143.843522663437
308 315 322.67901613241514
308 316 105.42558875796296
308 318 342.11731023895607
308 320 293.30182662567955
308 327 273.00869763967336
308 330 1220.5422826788013
308 331 307.979446536272
308 332 461.4525523027948
308 333 159.29041830314688
308 334 1028.6865097630453
308 335 1458.1045518880396
308 336 1393.7639759634362
308 368 709.1724027105588
308 479 3919.201307863795
308 559 2160.2140963689535
308 566 2480.897022774459
308 570 2123.206042614734
308 579 2715.513596908996
308 619 1854.5732985510272
308 629 1299.2155807883987
308 668 3068.4447307135783
308 706 2111.2737445620946
308 716 1267.7087295084032
308 762 3167.4113099884407
308 1862 5603.8135858253045
308 1953 1144.2958834514866
308 1956 1347.6229066879462
308 1981 2312.8008945232373
308 2190 214.7170159998338
308 2349 141.75521949829354
309 2178 222.09129950334744
309 2180 83.18318030701474
309 2181 59.78766544371855
309 2194 38.58251649716789
309 2352 57.201501551999456
310 315 271.94978079572195
310 332 603.942505284785
310 333 160.50764777326575
310 334 767.7701995547793
310 566 2301.451241886326
311 315 1054.0104230508693
312 315 968.5079513029675
312 330 159.59605580015193
312 332 616.7456661471678
312 333 1195.4915817286478
312 566 3519.3169772585748
313 315 138.43088801049112
314 315 364.4270844209124
314 318 223.01158737053512
314 333 302.88722705401295
314 2190 86.14982734253812
315 316 338.4534638682483
315 318 373.6171812877447
315 319 1377.0288417835857
315 320 354.3807040432736
315 323 404.9592916015354
315 324 273.6934063832896
315 326 2021.581152704851
315 328 319.84105285888586
315 329 652.7993490869932
315 330 1124.0225218830724
315 332 371.09504584751966
315 333 335.2090868671795
315 334 778.0096342369982
315 335 1244.9475526242559
315 339 763.2842522794799
315 340 1074.5289870468023
315 343 282.30728020288205
315 353 414.0605019428052
315 368 386.5295793391826
315 479 4096.906997383333
315 481 4129.121727370995
315 493 3469.1464647928256
315 553 2247.816557572305
315 557 3243.643127394806
315 559 2013.0389050143451
315 561 1703.9420374854842
315 563 1877.3439826890235
315 566 2561.8735692334308
315 569 2093.223843841253
315 570 2181.7356995689856
315 577 2622.093174708467
315 579 2832.1285188035918
315 612 2029.2690942359607
315 619 1848.6103726955996
315 628 1348.7184637398566
315 629 1383.2357086119691
315 668 2891.5045043243526
315 676 1508.1156556983751
315 691 1618.5287032192084
315 704 1627.4673667358509
315 706 2038.7933828464083
315 709 1828.2587650346009
315 716 1132.4053844655189
315 723 2709.1560847217424
315 728 1381.9529828224943
315 731 2901.603171659324
315 739 2760.5467466713785
315 755 1577.3535636657807
315 758 1416.6166098534436
315 762 2937.915587359544
315 770 2453.4268691996735
315 783 1809.3859288028464
315 787 1386.6997982060482
315 1020 5551.485609248051
315 1027 5291.2268424827
315 1394 1651.2354215990063
315 1401 1066.248358847087
315 1428 1606.290574380596
315 1714 5933.110145234816
315 1729 7581.253299354103
315 1862 5917.357897475439
315 1910 8674.979359902485
315 1943 2628.9469457390655
315 1953 828.362599065934
315 1955 748.3821123543436
315 1956 1045.552195071756
315 1981 2359.276350745507
315 2190 351.53918632397557
315 2348 327.378863966331
315 2349 242.3257177607744
315 3109 3051.014714136068
315 3178 4955.527125877863
316 334 974.3203386501032
316 565 1827.7317596463643
316 566 2377.756884395268
316 579 2615.9267372961426
316 709 1776.7209738218064
317 330 151.17261192332438
317 2178 60.45186662009034
318 320 49.75054775168666
318 332 159.6258497455086
318 333 485.386414142167
319 322 191.7239489060477
319 330 422.6546737385762
319 2181 37.79276897706436
319 2352 82.5710807997876
320 328 343.99052044110437
320 566 2771.1038527627284
321 329 38.97607765578053
321 332 280.71621624966275
321 2344 164.70823206950163
321 2345 80.98309299589414
322 330 235.45995966175522
325 334 725.0553361641122
325 335 1182.3558825816783
325 337 859.6434425311094
325 338 1254.2116752914126
325 341 997.2321951737623
325 561 1624.4087193386647
325 565 1725.8039481427977
325 566 2480.4145172587505
325 570 2099.240453162454
325 578 2328.337569395577
325 579 2753.3198732469327
325 622 1855.626554587448
325 624 1235.6754621279808
325 655 2770.942467724718
325 657 2290.8073462182247
325 666 2842.0789565552254
325 668 2823.3555781335785
325 674 2262.7014146145916
325 692 1525.6225138602165
325 699 1650.863227243153
325 700 1529.6419444640396
325 705 1958.734768497276
325 723 2629.0991300985047
325 1953 818.7765743303615
325 1954 937.6019065609374
325 1956 1021.1663311396863
325 1981 2276.196612882397
325 3115 983.5181829346463
326 330 957.6214957118774
328 333 103.14924316352179
329 332 287.3838386695863
330 332 775.8184257774318
330 333 1355.0748087781994
330 368 1116.4191740260276
330 566 3677.9248786774942
330 1402 553.2315785106732
330 2142 196.84191049789948
330 2178 210.4836119881037
330 2181 419.6013738917392
330 2351 79.42167964076567
331 332 476.24425038896976
331 333 266.57162414421606
331 334 731.061896209175
331 336 1119.3690908484045
331 337 856.0639053144475
331 339 684.9771169874859
331 340 1027.2318657512456
331 341 991.534362927114
331 368 436.15888987691704
331 479 3989.242064539532
331 559 1928.9180553032334
331 566 2448.869468431267
331 570 2068.9035891675617
331 579 2719.8731153693902
331 619 1739.060082886237
331 688 2067.7653655805025
331 709 1723.8592638411333
331 750 1943.9910450266805
331 762 2884.5460405499834
331 783 1735.067222211702
331 1953 843.3310883486029
331 1956 1040.000432283186
331 1981 2246.831648454357
331 3127 1181.6029278952137
332 333 582.5194880086481
332 334 1096.8458249124694
332 335 1579.2686498202966
332 368 561.8192910381762
332 559 2371.3389370806035
332 566 2902.760947755952
332 579 3155.7256019651822
332 619 2214.2907729877447
332 762 3243.4557356388173
332 1953 1020.1154863734358
332 2344 117.23156533579701
332 2345 360.1313758765936
332 2346 153.88191561282105
333 334 928.2748303786221
333 335 1333.6254844810128
333 336 1268.1641291002418
333 339 819.6722565906176
333 340 1215.0623465161186
333 343 410.9995834997827
333 368 702.1844704089701
333 566 2332.556452968146
333 570 1970.504649768482
333 579 2575.645111749906
333 628 1114.973527670935
333 1953 1101.1451706871517
333 1956 1281.4177138230416
334 335 486.4657475439597
334 340 296.8577161809605
334 341 379.3515508620506
334 345 556.5293158895198
334 348 499.59234365863813
334 351 349.4882604962968
334 570 1890.946766025268
334 624 1244.1438277778018
334 692 1150.6598493917118
334 706 1471.617485394528
334 709 1324.7778968142902
334 758 1034.464331624918
334 2331 1274.9505042246367
334 3115 258.5661615896776
334 3127 450.6141309896256
335 340 246.39380471522998
335 348 986.0322893947528
335 368 1071.1713814959257
335 558 1994.940652223039
335 566 2074.3065843068393
335 573 1592.9733464018482
335 578 2103.1620325541085
335 579 2445.6303345203464
335 624 1268.1614857633706
335 628 1246.2904804752068
335 640 937.4569799613058
335 655 1588.7395944955397
335 687 1471.6553924443226
335 689 1469.6519826150625
335 692 896.0771177703349
335 699 887.8647192334664
335 705 1074.2330195791196
335 709 1006.0207323190052
335 723 1638.048047725462
335 728 320.353276511317
335 758 872.1288831462635
335 1428 1343.5669702294974
336 340 229.2647473136639
336 348 934.8507283413371
336 351 679.5611437678347
336 566 2055.8413527864946
336 570 1658.605695090868
336 624 1216.2354202894958
336 668 1710.8897794541576
336 692 876.4870925762514
336 705 1085.3493253089719
336 708 1128.6139897043017
336 718 2430.276258551074
336 1398 804.6298632129764
336 1962 2008.167835615145
336 2331 1410.9173488890704
337 340 282.9994216761849
337 348 708.0661386240367
337 570 1663.196658315965
337 573 1575.4244877231004
337 624 1080.241517956317
337 705 1223.1628632712109
337 2331 1197.60970487189
338 340 240.0691905583229
338 624 1426.8429668685678
338 706 1191.8286876023258
339 340 436.3684990736509
340 341 305.4171324525109
340 345 850.7123929321262
340 348 779.1529155268635
340 351 622.6334134034969
340 368 853.6066428138486
340 555 1068.6744368206757
340 557 2169.487206195452
340 559 1086.9198522156669
340 563 1020.0224559867474
340 565 987.5342381905907
340 570 1869.6911248796318
340 578 2271.135686472948
340 579 2631.9601427240086
340 619 1390.4834838030533
340 624 1354.4630785460668
340 628 1342.494967785111
340 676 540.6200386656922
340 691 1149.9816095466088
340 692 1092.4796224617119
340 695 1133.959749087828
340 706 1327.0509129278819
340 712 811.878580709982
340 716 521.012872240448
340 718 2508.28861283055
340 728 548.9273932117044
340 739 2748.9644298600324
340 750 924.6745389348555
340 755 1261.272728127832
340 758 1030.9951054925498
340 770 1379.2931012344059
340 783 818.4115126027936
340 1010 4155.80595883581
340 1394 719.266009865954
340 1399 334.9586022012915
340 1400 948.7758473477685
340 1401 1025.076985809282
340 1404 509.25626411836794
340 1428 1150.1848926312996
340 1635 6943.811136286844
340 1862 6847.765409667801
340 1877 7518.9078115502225
340 1943 1599.0663893545282
340 1953 563.2826554984215
340 1956 396.49450700911245
340 1957 2228.872594122499
340 1962 1957.5437186230206
340 1963 2148.1339807970166
340 2331 1478.0206204732765
340 2611 1097.5523672422148
340 3178 3944.176496782114
341 566 1973.588448298904
341 573 1483.8256774058923
341 579 2331.384681272076
341 624 1063.7595162961013
341 628 1047.644133249717
341 668 1826.227825716183
341 692 802.7515609562998
341 699 840.8003227150997
341 705 1084.9697381103672
341 723 1706.0483780463474
341 758 726.8435863245048
341 2331 1242.006044326889
341 3115 299.2980239998604
342 368 407.59045513301686
342 369 378.10727852370263
343 358 611.6355231556325
343 368 393.8628141034738
343 369 378.68544309539215
343 370 358.2060848170377
343 563 1595.2038448880983
343 566 2348.2414226676615
343 570 1958.3143843537025
343 579 2639.6199846801446
343 614 1415.1651071180324
343 619 1596.5007502338972
343 628 1156.164169013011
343 706 1763.836779828206
343 770 2195.7759903179885
343 1953 706.345192373261
343 1975 3328.5826688737166
343 1981 2127.687337912782
343 2182 3780.779942938206
344 352 140.3925533193158
344 368 306.20584272242644
345 373 384.6301914436805
345 565 1538.5191239240974
345 566 2347.5932061388626
345 579 2636.027985438075
345 618 1659.7148321931302
345 624 1124.641166381652
345 676 1252.178216888242
345 688 1923.16545382493
345 692 1353.6179267221391
345 705 1777.1102950200209
345 709 1570.1802264207379
345 723 2444.70899195507
345 781 1887.6459161331584
345 783 1552.7653625081837
345 1981 2129.9156825696627
346 369 341.91315651807406
347 354 121.28208665529998
347 368 237.25648716111974
348 558 2911.1805337527394
348 562 1517.3616806162147
348 565 1635.8650881593737
348 566 2600.116705382479
348 570 2203.4332592108435
348 579 2906.142781135287
348 603 2119.9607516240994
348 622 1954.9979776925509
348 624 1410.7373719204772
348 666 2618.010173138166
348 668 2639.740434539817
348 674 2075.6659839114395
348 676 1272.5398605973737
348 688 2107.8755835799884
348 692 1536.57438709867
348 700 1495.1333631983425
348 705 1912.871718639709
348 709 1737.8306614868836
348 723 2556.0181017697737
348 781 1899.4980762624048
348 783 1570.3701637449326
348 1981 2363.0064507560933
348 3115 742.4996140088681
349 368 472.7531328642054
350 368 343.41145199516967
350 369 312.32252069285767
351 365 421.91223036530727
351 368 531.4192384914018
351 369 504.5898812218423
351 373 385.14607658078387
351 579 2493.3095904942006
351 676 988.3918258819352
351 781 1623.2955925045048
351 783 1288.4530800618143
352 353 119.10063405609361
352 368 444.479051201646
352 369 422.46022026050207
353 368 355.49099799695085
353 369 329.01436606140476
353 566 2356.8236507177444
354 368 326.7416897622579
355 356 475.8359157570733
355 360 79.33400166023299
355 367 186.02069664028406
355 368 843.9769805958567
356 368 377.78014532976647
357 364 118.85920511517226
357 368 546.0237318490472
358 367 405.12397349359026
358 368 320.83313090798623
358 369 353.91947998234525
359 368 421.5205252087511
360 368 916.0574868554601
361 368 576.6278067426745
361 573 2781.2363603446765
362 367 213.54152067645236
362 368 476.80435134746716
362 369 508.65415557678426
362 566 3155.494195547604
362 2354 294.4446098426698
363 368 550.7574053887545
363 2359 159.00460721935116
365 370 135.8875398172002
366 566 2663.2406978654058
366 579 2963.0603369889436
367 368 689.1895372176701
367 2855 193.8658596026956
368 373 222.55547899658055
368 479 4334.937517265333
368 492 3467.9353139212026
368 508 5900.191668370821
368 557 2981.6603026623984
368 559 1900.529679884112
368 561 1662.6887473076508
368 563 1795.0466084147247
368 566 2711.296614064826
368 570 2314.9254938089935
368 578 2601.3520844485315
368 579 3015.836489498653
368 612 2068.3281427138973
368 619 1919.9583617079697
368 628 1539.1579265957794
368 629 1572.8401998452607
368 654 2528.3044002274314
368 668 2719.670500510495
368 674 2156.2267363686674
368 676 1361.8625630557694
368 682 2475.242362273944
368 685 2412.4160407686404
368 690 2165.00365012644
368 695 1681.022669851396
368 699 1738.7481548718738
368 704 1615.9902612691524
368 706 2023.089084871597
368 709 1847.0545856079123
368 716 1087.1031391065378
368 718 3320.5301817739314
368 723 2657.455175702022
368 728 1286.3429456826655
368 731 3119.7460387268243
368 735 3910.3461101372486
368 739 2998.310347116806
368 742 1760.139096695732
368 755 1682.7040753619715
368 758 1486.4270508187155
368 770 2209.3152819107704
368 771 2463.4809523572076
368 783 1657.156090933954
368 1010 4785.115963915522
368 1401 691.1613612120445
368 1404 887.7181957765393
368 1428 1219.7661647332213
368 1635 6690.968356441655
368 1693 8586.486959172364
368 1708 8863.047574232767
368 1714 6307.192723568817
368 1729 7962.143430040581
368 1862 6291.98654039361
368 1877 6855.696014544747
368 1910 8296.21902096564
368 1943 2452.2913357400134
368 1953 465.7194585367429
368 1956 712.476719091234
368 1975 3202.869352471086
368 1981 2474.765928046039
368 2080 3510.323521114848
368 2173 2229.5418419561247
368 2182 3600.470426949707
368 2354 433.70039576953974
368 2355 245.85729318285667
368 2356 259.14718905089524
368 2358 477.92095735916865
368 2539 3325.9605648289676
368 3178 4618.111127574457
369 373 189.55847042480033
369 2354 464.7554856354369
369 2358 454.3310709139111
374 762 2366.3880862643427
374 1981 1751.471309986897
375 376 908.4657968712015
375 377 470.44422318973875
375 381 380.14706162005285
376 377 1277.0322527929882
376 378 861.2195315237752
376 379 348.27147400634857
376 380 1609.7252573419344
376 381 1271.069825537972
376 382 819.2713531829564
376 383 1265.1049924369697
376 385 646.8013298313829
376 390 668.4779688576302
376 394 1627.182301866959
376 395 1263.3829100431844
376 402 4117.511372206774
376 433 2845.2471133327817
376 446 1613.6749561840652
376 1010 7643.582852345603
376 2062 1281.8314258268497
376 2360 1537.2325814941064
376 2885 1280.88156335782
376 3178 7452.129871529197
377 378 492.47727544859356
377 379 958.9165448720253
377 381 478.6068154098462
377 383 515.4858423495309
377 385 711.4998855231605
377 402 2856.2145599703863
377 409 1611.5570059710435
377 446 434.86579476978574
377 457 1299.0553480899123
377 1010 6626.57198333941
377 2360 470.4956598121721
378 381 767.9182318579892
378 385 230.36430554141518
379 381 1040.5667653620783
380 381 343.7947174525424
381 382 453.4353507733196
381 384 563.2009540597148
381 385 908.2305892597195
381 386 381.8958868735348
381 387 443.8948263835436
381 388 282.8336820817097
381 389 477.1812062623712
381 390 734.6039982836528
381 391 602.6870335433937
381 392 559.2500246155813
381 393 976.6756871714475
381 394 844.0832501575816
381 395 292.8050965241038
381 396 2799.5741639305015
381 397 2941.0577365406334
381 398 308.1509023757727
381 402 3065.9185920735804
381 408 957.9281388430744
381 409 1202.0321082968576
381 411 1461.8806239421763
381 414 2834.948600167557
381 416 2135.095796561692
381 433 2490.260465526158
381 441 3581.4974031931565
381 443 980.6956813204604
381 444 764.216098481558
381 446 432.95779534555606
381 447 1678.6754580092372
381 448 1944.575204871942
381 450 1247.7252422894326
381 451 851.0324698066288
381 452 3756.42023463514
381 455 681.7746518917415
381 456 928.0273988709746
381 457 958.5179041125227
381 458 1356.1717093925909
381 459 1489.4881869692058
381 460 375.7524973513278
381 461 2776.3948649607437
381 470 1619.3912203616162
381 500 6716.702853943596
381 508 4068.0123152429687
381 523 6264.996554629297
381 540 2695.260989020556
381 546 2436.1551718459755
381 550 2502.346422060796
381 551 2945.843398313633
381 628 8737.53306492344
381 718 6504.294203557836
381 758 8419.000828867811
381 770 7463.210692187066
381 970 5445.696393492503
381 1008 6298.568158581264
381 1010 6413.1101135668905
381 1183 7439.23488670083
381 1438 6964.008237426045
381 1478 10674.63329040239
381 1600 8655.919762292484
381 1626 8309.6468662486
381 1632 11023.838695045559
381 1635 11707.987674334874
381 1802 13582.60663884214
381 1862 12831.344372935315
381 1910 8996.191953096348
381 2031 2912.0206875511963
381 2062 1164.7186417487505
381 2360 298.44576645176215
381 2885 1418.843283946837
381 3178 6242.541493456501
392 395 409.85285881547316
393 394 299.6226303332272
393 395 751.5758304903516
394 395 570.1781935790655
394 456 328.02717405996816
394 2062 677.6808564754645
395 409 1059.2652794794124
395 457 910.7876197164913
395 2031 2841.8791062589876
396 397 378.3933717561925
396 404 1105.0218416348755
396 433 558.7876388869782
396 441 833.9206981422637
396 461 25.952009631425533
396 492 4824.095036718135
396 508 2996.110865671935
396 540 1672.1267580277672
396 628 6049.099839087779
396 2031 2428.9701024209635
397 404 1010.0805804327531
397 440 573.8029206812283
397 441 647.7129374134082
397 492 4715.064300557121
397 508 3354.460471059118
397 628 6053.569597936717
399 404 976.7786782132292
399 492 4205.687354666486
399 628 5185.829477560164
399 2102 776.2255198016596
400 401 239.05758405193166
401 404 115.5497692874058
401 441 374.8152363314942
401 492 3701.745589044565
401 508 3373.959397737199
401 578 4264.096035211804
402 403 597.536158780977
402 414 231.75605992148627
402 415 254.69925268553294
402 416 1083.997327795907
402 452 1767.5033559168362
402 628 9447.014953002554
402 629 9436.224063145424
402 691 8849.516055713544
402 706 8348.610098231995
402 1010 5085.903794596922
402 1430 8670.874610764642
402 1438 4695.339891829383
402 1478 7733.657064039767
402 1486 5833.571554069025
402 1506 4332.974116866885
402 1513 4455.830048078369
402 1595 5446.542255171998
402 1626 5886.033045042088
402 1635 9076.637312764104
402 1672 8922.224448796569
402 2031 3098.0036061933697
404 405 874.0402333525287
404 407 716.7048793094918
404 441 395.93589657066076
404 454 1076.33208940462
404 461 1129.2780460621677
404 492 3725.8683597605846
404 500 3209.825689521176
404 508 3258.533612705076
404 628 5050.447112808475
404 770 4531.8111024118625
404 2031 3080.929241231065
404 2102 205.87607508449832
405 2102 805.450487757429
406 454 555.175862704368
406 2102 461.07743373920493
407 454 360.30736469580626
407 2102 655.6253148256146
408 409 394.03187649556753
408 457 557.8313620849912
408 2031 2199.6858071303536
408 2360 1002.280394372723
409 410 440.44073914565433
409 411 260.3925113509668
409 433 1803.5753023894624
409 457 403.4306566146173
409 458 699.8016169599699
409 459 598.496522210069
409 508 2933.5601549429334
409 1010 5372.716528194114
409 2031 1814.4595204585694
409 2062 1401.3346067829864
409 2361 486.86469343914143
409 2362 16082.277413237362
409 3160 638.6081262925306
411 470 199.1187761175572
411 508 2687.7429329737924
411 2031 1585.7102908802162
411 2362 15937.136886007575
411 3160 409.78364379995935
412 413 260.1287114100024
412 414 1668.5396705216472
412 416 925.0831366338289
412 532 926.9315166004139
412 546 683.6476667893583
412 2031 1334.1960467670922
412 2073 2566.5237038498785
413 414 1410.6866201948492
413 416 706.5320577060958
413 420 438.1864569274713
413 423 338.5066730881777
413 424 333.41428859558107
413 546 936.6651256601255
413 618 7458.36729514569
413 629 8035.186857640007
413 2031 1574.0915886011214
414 416 871.4645608628572
414 417 732.2429685206354
414 418 711.651016361429
414 420 1157.2526126746902
414 424 1137.1601286122084
414 618 8800.754710889558
414 628 9369.407472043978
414 629 9357.495202357059
414 1513 4631.306192016204
416 417 311.4007095357633
416 418 215.837533056132
416 419 370.261467912546
416 420 742.7297434814739
416 422 519.2803328453103
416 423 368.06623401747765
416 424 616.3844432062062
416 425 441.2672766878412
416 426 578.7440936522344
416 427 696.079176897271
416 428 641.3708946147615
416 618 8151.665597821227
416 628 8748.304853407235
416 629 8733.31599045996
416 1910 6862.100567298413
416 2031 2258.2979061579745
417 418 121.51511618135412
418 421 220.10196130617067
418 422 359.68194409660566
418 425 298.8657589948903
419 428 349.88244513687187
420 424 150.58760183212235
420 426 234.83170838943
422 425 83.4344379063041
425 426 138.98124717032047
427 428 375.47253375071665
429 433 308.8334991641592
430 433 380.45155732776936
430 437 63.811664560836284
431 433 518.880713415997
431 435 295.029835085989
431 2364 470.9388694493106
432 433 566.0141804777278
432 2364 533.4113881987613
433 434 346.241853151627
433 435 808.9235969809721
433 436 795.5767292882538
433 437 316.65135983215515
433 438 675.5814175623058
433 439 797.7623161138716
433 442 1255.5007960215275
433 446 2787.060525609078
433 457 2177.178702945755
433 461 554.1460694028364
433 492 5185.866313155226
433 508 3456.99378235528
433 578 5749.914400686181
433 628 6519.117379366167
433 737 6005.267761193652
433 739 5780.690235108808
433 879 10963.870739613494
433 1010 5931.49353085298
433 1181 6200.354669739341
433 1183 6534.196490380444
433 1635 11774.251927293632
433 2031 2753.1959735074493
433 2062 1580.8179391562849
433 2363 403.5864954847004
433 2364 948.0850809946426
433 2365 721.6508448168395
434 436 452.0088728649904
435 2364 343.2285432200893
438 2062 934.7760693559858
438 2364 326.0599684293382
441 461 859.819969809178
441 492 4067.4199251684463
441 508 3388.4060479860964
441 540 2320.141382826814
441 628 5438.8128319150865
441 770 4911.040716861952
441 2102 433.94663728877487
442 739 4565.601500532985
442 2377 3691.8064426523442
443 446 721.7484753722846
443 447 697.9923393080015
443 448 964.8344156485782
443 449 298.64621459906186
443 450 431.8175348983934
444 446 365.3393247270271
444 451 206.83024769876585
445 447 478.37360045387356
445 450 360.08969056479026
446 447 1390.0812521932933
446 448 1660.6148817683577
446 449 1000.1589913357149
446 450 1097.0822467083958
446 451 515.5472199655342
446 508 3938.5467445969566
446 739 8400.239973739823
446 2031 2775.0398234638333
446 2366 757.847228167256
447 448 270.5557271634562
447 450 614.2979201128724
447 2031 1554.6014980174164
448 546 695.0283569633248
448 2031 1357.0066694569944
449 450 394.70921882351524
452 453 43.72764526658309
452 1008 3237.96505594007
452 1010 3327.7941700154133
452 1430 6907.48513705554
452 1456 3007.7177505325044
452 2031 2097.8499937194297
454 508 2620.4663706730257
454 544 1929.2072464682383
454 628 4259.119908332748
454 770 3477.486924839414
454 970 2772.1937605424773
454 2102 1010.6488463279425
455 456 361.85764147014345
455 457 348.5639147557695
456 457 555.841065705355
456 2062 999.3343010214628
457 459 542.9512623078932
457 508 3109.5868358671037
457 546 1511.1484883039855
457 2031 1954.0595745030625
457 2062 1507.8804828957345
458 459 246.1910879361
458 508 2773.914927295887
458 2031 1611.0576330292317
459 508 2591.477594329464
459 546 970.4930602923665
459 2031 1429.1729430515593
461 462 583.1832560617688
461 464 1225.155526578318
461 469 1173.2859892302142
461 470 1552.6222720466665
461 472 795.9439487926594
461 473 920.0234150127795
461 492 4847.276119240665
461 508 2985.0262514690817
461 628 6067.558464026948
461 770 5224.281252441232
461 2031 2409.7895669361274
461 2369 634.676895129924
461 2370 894.5933925292002
461 3180 758.5488970289998
462 463 393.41123924603284
462 3180 286.0468060753323
464 465 361.3840972211075
464 468 495.3303111698798
465 466 324.41451992141634
466 468 376.09229756066236
466 3179 137.9526190351905
467 468 85.53202163221353
467 469 328.4795849274042
467 3183 398.01565451742783
468 3179 251.09078244673825
470 472 842.4183121758922
470 473 747.8521065786011
470 508 2604.5135564311927
470 2031 1542.5911386554592
471 3183 255.7437227364433
472 2369 194.5528586027189
474 492 2316.9265367535113
474 500 1059.5743600938163
474 501 1072.71604353945
474 508 5116.068871224832
474 628 4169.843810894962
474 629 4135.419793384595
474 739 2920.9737119788047
474 2031 5186.422754302657
474 2103 699.8500497616792
475 479 1628.0641387315661
475 484 646.475579102282
475 492 2408.7870976366294
475 500 180.17866902125448
475 570 3599.888959784369
475 2372 193.62656004314348
475 2377 758.4459174812868
476 479 160.07994933561028
476 480 60.32303061761911
476 481 269.1706188786259
476 482 242.21387026794338
476 569 1919.5987021541916
476 570 2031.8949838239694
476 578 1633.8312754321519
476 630 2841.237404914339
476 639 2334.9763593148314
476 640 2816.244622104266
476 691 2750.998381814226
476 692 2815.5908797137654
476 703 2875.3439275950223
476 706 2782.4290593246446
476 709 2742.9623910630075
476 727 3155.8533187531416
476 728 3401.4067744441645
476 758 2865.441360339745
476 2118 3064.519443510413
477 479 246.125990545517
477 481 131.65145995419473
477 482 168.75441531001573
478 479 244.49532511362122
478 482 139.0361835527028
478 578 1845.835991497767
479 480 207.45944373282265
479 481 117.11451276829544
479 482 111.83194465087101
479 487 638.2016227660423
479 492 959.4280927960359
479 493 818.4156266697977
479 500 1482.8966057258713
479 501 1071.5624436489961
479 502 795.7822788296209
479 566 1793.6439449443144
479 569 2042.3717050543326
479 570 2174.4978412454466
479 578 1764.6866483485385
479 579 1409.5479168403979
479 585 1778.2079492246921
479 586 1879.8636332979843
479 589 2010.4399199645936
479 591 1377.5399793485913
479 628 2800.8832137274003
479 629 2768.165381031435
479 640 2950.153177402115
479 692 2957.3620652855893
479 709 2890.139491920543
479 716 3511.7984143477956
479 727 3296.103191533848
479 728 3544.0957245093373
479 737 1601.5416383387994
479 739 1337.9134674018442
479 755 2771.1184538019234
479 758 3001.1805427306954
479 2052 546.4257312741009
479 2104 3066.5982754817246
479 2118 3185.479505006054
479 2373 471.6985517696051
479 2375 230.62566689863607
479 2377 1670.7823276692227
480 482 271.7568479955002
480 568 1759.5869151653142
480 569 1859.3677738896438
480 570 1974.1289691207294
480 578 1574.0840570898242
480 585 1619.2573913706744
480 589 1831.0696352853688
480 590 1812.5567935205956
480 591 1183.3373067874131
480 624 2640.326047439848
480 692 2757.690545214356
480 699 2795.7128315862224
480 727 3097.6339006658236
480 728 3343.7612441205747
480 758 2806.3983419908395
480 2104 2875.4219852028305
480 2118 3004.2639121242064
481 566 1870.8603043710643
481 568 1966.188626400313
481 570 2245.150733571282
481 578 1823.1160077755767
481 585 1806.9137288259674
481 586 1951.941868319322
481 588 1733.144193770485
481 589 2056.2809105304154
481 591 1441.667065881108
481 593 2335.069789655198
481 624 2862.467390426202
481 628 2846.538327338222
481 629 2814.2826209460136
481 630 3001.3247752524817
481 639 2490.674991938326
481 640 3009.586953300864
481 691 2959.080774048394
481 692 3025.9870976613415
481 699 3072.6251177053236
481 703 3090.092788470236
481 706 3018.1477130200774
481 709 2965.832061290726
481 716 3573.1625917201036
481 724 3482.6463003771682
481 727 3362.558903325527
481 728 3613.385232786794
481 737 1634.2359313536554
481 755 2832.3461727534204
481 758 3062.6199974119813
481 1394 4674.178610542778
481 1401 4977.1592887717825
481 1428 5243.209149827092
481 1953 4507.4207862269295
481 1972 3199.592682811687
481 2007 5259.516125564591
481 2104 3123.358198618093
481 2118 3230.9690397046365
482 492 995.3205141681665
482 500 1532.728515811961
482 569 2038.492917017026
482 570 2194.5058790237263
482 578 1770.7048637000253
482 579 1433.5612308801283
482 585 1753.270096408135
482 586 1901.6512608723538
482 591 1390.1427801836187
482 629 2760.7882535418694
482 1333 5619.824941265498
482 2371 99.25350351559177
483 567 181.72461682866742
483 574 224.67029421745295
483 578 579.7821060349347
483 579 208.17399924981865
484 485 373.0247444409726
484 486 409.59603830180936
484 492 2811.6817547778337
484 500 825.871400577565
484 628 4726.086323206493
486 492 3030.6808215553397
486 628 4909.512036482459
487 492 379.59544931326815
487 493 193.77343162197005
487 614 2124.494367330045
487 618 1948.6899624943771
487 628 2310.0407728398263
487 629 2275.956125666641
487 630 2478.726148131132
487 2373 977.62561071042
487 2375 511.99397637102373
488 492 644.3171378457132
489 492 249.6585961205068
489 570 1027.7295601373964
489 616 1513.0485401579526
489 618 1377.0941265094864
489 621 1321.9792532809154
489 624 1822.1377252742884
489 629 1754.1590024938698
489 639 1497.5401539248178
489 644 1360.6500844094257
489 692 1805.1862748731496
489 709 1712.921127292102
489 2118 2159.2014526013804
490 492 545.1026911893385
490 614 1352.4653832448696
490 618 1141.6078056148158
490 624 1663.920320610837
490 629 1589.5336360887995
490 630 1800.3597014909983
490 2118 1977.8808513110519
491 492 108.62501075177248
491 573 1205.5174855595883
491 578 767.5205432875116
491 618 1469.430267063042
491 624 1860.7991934729464
491 628 1831.6793743474293
491 629 1797.416408565063
492 493 200.19535212722874
492 494 277.5198808145982
492 495 399.01964134706805
492 496 323.39686776873566
492 497 303.81053810230964
492 500 2299.175470659063
492 501 1870.692715931261
492 523 3683.7382378791085
492 537 2602.0155531726073
492 538 1933.0188136249647
492 570 1226.517331838347
492 578 867.0534286534544
492 579 463.0456825009831
492 586 930.9279630214448
492 593 1404.3864293084237
492 597 1379.8284476614258
492 614 1747.2172561243253
492 618 1577.7325038271858
492 619 1718.2346122403249
492 621 1513.6182726200989
492 628 1931.5227044688413
492 629 1897.3666045878824
492 639 1613.4383206685004
492 642 2107.99877832489
492 691 1947.1916258370093
492 692 2010.0872771048994
492 693 1851.8025489039233
492 697 1804.2615464260614
492 699 2042.6911603619196
492 700 2168.044483542165
492 706 1976.2289318770215
492 739 617.7832798068102
492 755 1843.1380089506233
492 758 2070.940549096532
492 770 3308.7467669527396
492 970 4747.453960949792
492 975 5295.181521070484
492 1007 3960.471882028051
492 1008 6052.780641613725
492 1010 6080.505586430361
492 1183 7539.748338028394
492 1428 4243.425197730108
492 1862 5794.973755980238
492 2102 3848.6372130891345
492 2103 2716.2791528162047
492 2173 3349.8357018698853
492 2372 2524.560932815435
492 2373 1346.0896367865284
492 2375 877.1449948718754
492 2376 456.66467718146953
492 2377 2602.0234042338157
492 3158 1273.37560677104
492 3178 5734.444176205819
493 570 1404.8235667844924
493 573 1492.5933481200047
493 578 1064.2521077055387
493 591 675.2850410130233
493 593 1601.551351055464
493 597 1570.0168639765602
493 606 2064.3711259602546
493 614 1933.9649378663855
493 618 1755.6552731706076
493 619 1891.33889263139
493 624 2157.373303359565
493 626 2167.426236689051
493 627 1910.553649992896
493 628 2128.631964901547
493 629 2094.3921731623277
493 630 2298.8705248680462
493 639 1813.1465381202408
493 640 2212.9913661659857
493 642 2296.9350703197374
493 691 2125.0917096828207
493 692 2185.948183174441
493 705 2151.8357941265162
493 709 2097.714624461063
493 739 803.9711401913931
493 755 2029.0700140862568
493 758 2255.4360561452977
493 2118 2506.4498934633693
494 629 2126.844235382032
495 496 142.00296339359812
497 570 930.6761367373285
497 578 566.3515950554234
497 618 1281.0953345186047
497 624 1659.6432618600302
497 629 1596.1697449997394
497 739 443.24078557392687
498 499 53.660958091805874
498 500 275.73315078065025
499 500 272.746184275508
500 501 428.80061132805855
500 570 3504.102711454303
500 578 3163.886393981553
500 628 4225.968305828524
500 629 4192.123702652204
500 691 4219.622632192568
500 739 2795.779528148911
500 770 5319.329237401554
500 1010 7617.602671561495
500 1822 6400.537120892168
500 1862 6120.203337879871
500 2103 712.1396579741504
500 2372 373.5634905204117
500 2377 645.6025348551699
501 502 312.09646117018036
501 628 3797.192424109505
501 2103 1003.7857357234896
501 3158 613.2927576512565
502 3158 511.12095421762024
503 504 67.57072822767725
503 506 143.2559587366813
503 507 224.41756920502837
503 628 4263.19286323227
503 731 2691.9354167502534
503 739 2794.542608259229
503 2377 210.24701546765812
504 628 4320.269798969766
504 739 2852.372439514582
504 2377 149.52574607277813
505 2377 39.55827598169987
506 507 86.46457741068228
507 628 4359.133564468505
507 739 2889.4261854747806
507 2377 270.0801676214655
508 509 352.87051397681273
508 510 574.7646099734535
508 511 334.16797840284556
508 512 342.8490620312294
508 513 475.27212598237594
508 514 421.1404405817005
508 515 262.4152603149354
508 516 333.8489461312107
508 517 505.58961691280547
508 518 476.3018795564079
508 520 583.6137260753765
508 523 2473.5440736392725
508 532 1449.6309697585395
508 540 1549.9957861951061
508 543 916.2320335108315
508 544 1000.2141954160268
508 546 1763.6755781063598
508 547 1392.8148988938542
508 550 1690.8133495615036
508 551 1217.6061320670026
508 628 5580.733772789647
508 706 4481.400590856942
508 718 2592.8143410553607
508 770 3691.696721161735
508 960 2292.2157211076965
508 965 2264.1886948623105
508 970 1412.884419291179
508 975 1963.9587124506243
508 1006 2446.29701195408
508 1007 2783.1185784559093
508 1010 2518.9618311105237
508 1014 2633.1448555653915
508 1438 3834.7004637895207
508 1478 8106.603476633296
508 1486 4552.471029661514
508 1635 8329.37466880295
508 1639 8038.085995705225
508 1672 8830.832297691953
508 1822 11563.15520534225
508 1910 6757.844282822711
508 1970 932.030668281974
508 2031 1163.614226018826
508 2073 556.0431812396234
508 3045 453.212486652125
508 3178 2262.523298486808
509 515 200.04313993738026
510 516 242.53395804675438
511 516 185.0665044624976
512 2073 257.01533952902787
512 3045 120.49064354076413
513 518 210.14523065949135
514 516 178.58680783765445
519 540 176.15397739707598
519 551 510.62027593526756
519 2031 874.2754180136571
520 521 134.5135845532632
520 534 971.949817596917
520 1010 2116.765320392113
520 1012 2132.662040699282
520 2031 1442.5922595345992
520 2073 247.44366365202129
520 2381 845.1360210081491
521 1010 1984.9011551529563
521 1012 2000.7005787753455
521 1967 271.5174068053854
521 2073 233.25187382601823
521 2380 470.0382866690601
521 2381 932.097541267448
522 526 215.52482157736327
523 524 402.08652443986085
523 525 511.1510802446144
523 526 698.8419828573404
523 537 1082.1525735149755
523 538 1752.5665870536875
523 543 2807.738512125379
523 544 1620.1689244172426
523 546 4197.543750775787
523 551 3346.497511836675
523 557 567.9863819212544
523 570 2906.1556969560515
523 578 3349.6503360552633
523 628 3210.461091880923
523 676 2187.628863367187
523 691 2616.7793781453292
523 706 2150.780969054247
523 718 392.48723531058926
523 728 2365.388774119992
523 755 2824.4034999472183
523 758 2744.7465703295275
523 770 1229.4021345843596
523 960 1929.8004783506715
523 961 1743.4979202149648
523 965 1843.6749458398328
523 967 1283.3139770905868
523 970 1216.666423574322
523 971 1026.7699942148606
523 975 1611.721101079941
523 978 542.1364286830445
523 979 1325.3462250389855
523 982 935.458173613367
523 1004 472.3691723566665
523 1006 1601.908667182078
523 1007 563.3531545744394
523 1008 2377.975321885766
523 1010 2415.448575183262
523 1012 2427.3955770163475
523 1014 2756.074535990818
523 1428 2913.0880722436473
523 1438 4341.429313414186
523 1582 8948.88321138152
523 1635 7532.897413023541
523 1639 7991.474416482294
523 1675 186.10268406245447
523 1862 9016.478356086456
523 1910 7279.778858059862
523 1943 1107.178684910557
523 1959 1818.4481285796473
523 1964 2516.448997071556
523 1965 2246.6037160779133
523 1966 2078.7345727677753
523 1967 2379.2795012112465
523 1970 2088.5274601538
523 1975 1350.4282056096501
523 2007 2858.506842856292
523 2029 375.8808001790371
523 2031 3544.812875560149
523 2080 1262.0519168139342
523 2117 595.9772374198262
523 2383 344.12131473182
523 2392 1325.540112409985
523 3096 421.5152514889635
523 3178 2057.568817498335
524 640 3216.442342678208
524 727 2916.5292435518677
524 728 2764.1188671959367
524 755 3223.482670535702
524 758 3146.390319146591
524 770 1600.779771459064
524 1422 3919.9361762432427
524 1428 3214.862736262583
524 1430 3171.670031200052
524 1675 576.0596959754484
524 2007 3156.515037277937
524 2029 106.48645041519067
524 2043 4978.926618119303
525 628 3675.5401524217245
525 970 792.5044190501908
525 975 1408.0423437495992
525 1006 1555.7262510004546
525 3178 1896.3538151693397
526 970 697.2467377340852
527 528 78.68810778742797
527 530 304.95579704202333
527 2031 268.3264444751651
528 2031 280.3081708975427
529 533 328.09316547416626
530 2031 515.1473347125633
531 533 467.09295083169667
531 2386 141.1417734134979
532 540 1074.6594980175275
532 547 287.57320926256864
532 550 246.61946898426112
532 770 5123.697739976715
532 1010 3674.7526505779506
532 2031 422.9401663163519
533 534 498.1180673082076
533 547 236.1339002477645
533 2384 154.99938388832288
533 2385 672.8032498557675
533 2386 422.31550259731495
533 2387 142.27105509048752
533 2881 220.9534789918786
533 3046 201.06311723066568
533 3083 450.4114776793387
534 2031 488.8129212669392
534 2381 580.2034448366143
534 2382 990.5654024323345
535 538 885.8854616561606
536 537 929.5415528544955
536 538 1368.3495532403933
537 538 670.5552052854792
537 723 678.0773748913919
537 770 1246.7427350539697
537 970 2196.933140543982
537 1004 1483.453723325845
537 1675 902.9493109605811
538 539 429.8517615653043
538 578 1723.1282695857258
538 706 1019.206143614074
538 723 375.2459896496229
538 770 1668.2472629437302
538 970 2836.4147732613046
538 1004 2147.108458969499
538 1010 4160.454801251083
538 1675 1573.3840646373503
538 2388 370.0327672895337
538 2389 1014.1060529748114
538 2390 823.5672362112007
540 541 147.44205667366188
540 543 777.7833437040042
540 546 1143.2144622992362
540 547 787.2008995573099
540 551 340.0199489347057
540 770 4777.217451312811
540 1010 4067.242373500364
540 2031 757.9578208463538
542 544 808.141785610828
543 544 1196.2631070937919
543 551 545.1188618542924
543 1010 3399.3883295917753
543 1959 1407.4345328832321
543 2031 907.7928350276377
544 770 2845.8633831427355
544 960 2217.713836707088
544 970 970.5686683892984
544 971 1244.8922411346523
544 975 1803.8730069598382
544 1004 1827.4638387728558
544 1008 2504.9899915662177
544 1010 2603.236293244778
544 1012 2620.553332847572
544 1959 682.1849755251337
544 1970 1249.7851793306313
544 2031 1940.6768583910543
544 2391 909.4836188451632
544 2392 654.95143374062
544 2877 1110.469629561988
544 3086 2570.6266053838117
544 3178 2254.7474774273524
545 546 483.0130386798777
545 550 427.9879060736925
546 547 450.09146750566947
546 548 399.6144366486484
546 549 851.8504885320091
546 550 72.99556023572197
546 551 1074.4007941886816
546 770 5426.031428107529
546 1010 3977.680652829991
546 1014 3971.7706894400303
546 2031 667.5892742432823
546 3161 671.5461907319637
546 3178 3818.654337827822
547 549 472.7961371194546
547 550 391.38810995892305
547 551 643.340306781754
547 770 5008.5410936658855
547 2031 235.20583869123257
549 2031 461.28221776914796
549 2393 174.81650297236735
550 1014 3908.0284814745532
550 2031 601.7682989862162
551 770 4566.416495266304
551 1010 3731.346756685344
551 1959 1838.4921058554175
551 2031 521.0710048728686
551 2381 1446.51741571547
551 2394 375.00472804107835
551 3048 259.6647293023812
551 3178 3480.105861560685
552 678 249.23834943083392
552 691 1001.414966795119
552 692 934.9602539073696
552 693 1062.2032799504068
552 694 946.008952744594
552 699 768.2284621813708
552 703 838.9293367484976
552 704 748.211725891075
552 706 623.3203775410688
552 709 804.1620142863186
552 712 681.0191569044491
552 728 784.7972815511235
552 770 762.1002416433606
552 1943 529.2672551096024
552 2173 804.3942197637253
553 555 335.98002672778745
553 556 77.8715827656477
553 1401 1925.1055951812625
553 1428 1650.5571541878064
553 2007 1612.509787620808
555 556 363.9957593387932
555 557 1239.236289852919
555 558 1184.7527654416765
555 570 1765.0495089142978
555 578 2247.430457359849
555 579 2467.7694255194733
555 586 2026.715402059691
555 624 1798.4372550173464
555 628 1754.2820694789189
555 691 1213.842329926183
555 692 1140.3432549270929
555 699 996.0995184297805
555 706 924.316703951051
555 716 1080.1847535602244
555 718 1559.1684892858475
555 728 804.1339968248698
555 750 299.53008601088766
555 758 1278.9882988088316
555 770 486.64571950337995
555 783 343.0831048167179
555 1428 1783.9273715087027
555 1943 531.243525750722
555 1981 1761.8229347767183
555 3086 3506.005657627281
556 728 1027.5659833729278
556 783 626.0096180628987
556 1428 1572.8166825483788
556 2007 1534.9913184970815
557 628 2981.359511056872
557 640 2580.7219386353822
557 650 769.6715204258169
557 674 1126.801767977388
557 676 1836.507775846301
557 691 2413.1842710067763
557 718 339.25988935708585
557 723 1736.8705955825658
557 728 2036.4313793690958
557 750 1254.9645008886775
557 758 2505.178275630468
557 780 1396.3636748622546
557 783 1581.867171820987
557 960 1884.5820247554873
557 1004 413.88022989699226
557 1007 207.3796872495178
557 1008 2332.8752316962764
557 1010 2342.590579824993
557 1394 1734.3149124585264
557 1395 1506.529838453435
557 1398 1745.4856298302127
557 1399 1837.6720683053682
557 1400 1308.093691420037
557 1401 2782.2798655564334
557 1404 2158.1299248482132
557 1409 1223.8287822214013
557 1422 3174.994983355662
557 1428 2363.642096712629
557 1943 930.2193744412334
557 1953 2557.1421630469754
557 2007 2306.738360544353
557 2611 1687.4128708246255
557 3178 2028.325163270569
558 667 1059.6582960139397
558 668 763.2740480204686
558 674 1056.5040045433102
558 1409 1280.0465763061216
558 1430 2349.696698477718
558 1943 844.2442779870967
558 1954 2342.687390227227
558 2007 2338.054024003579
559 560 325.5064890633191
559 562 418.2468292213795
559 563 193.49425167165998
559 564 394.853600063249
559 570 1344.5893325622196
559 628 1410.208711769853
559 629 1408.5753403832418
559 630 1457.7956312310082
559 704 574.9479029469439
559 706 503.85082109938344
559 728 631.0867390007717
559 755 1047.5455094833724
559 758 937.464557874794
559 1943 704.3297395291347
560 563 292.3001392430783
560 564 215.5205957173629
561 564 192.58045211935843
561 565 142.77763111527895
561 624 1024.9917900952883
561 2007 2053.9450014548775
562 563 231.65144050765
562 564 130.6510051283549
563 564 245.74387554612824
563 614 919.4121627939362
563 628 1216.7576205021967
563 630 1266.4581001111608
563 640 817.098103394685
563 706 384.005863430733
563 716 745.8691693840686
563 728 508.7519885544953
563 755 856.1970122897127
563 758 744.5751163280108
563 783 350.03024590865107
563 1943 895.4379877296524
564 565 190.44059416157927
564 570 1229.443577931142
564 628 1079.1144124791572
564 676 307.684795446945
564 699 398.1689826313053
564 728 265.9751928638608
564 742 278.16522221098376
564 758 605.2329742790753
564 770 1156.861740592129
564 781 612.1125443611628
564 785 530.1498161411444
564 1428 1868.2020488319877
564 2101 277.486347887536
565 618 815.8469055191789
565 624 1167.555393416559
565 2104 760.7763347254186
565 2118 1078.1285532272184
566 569 592.1036751757073
566 570 403.8536777368859
566 575 180.26944943311958
566 578 354.88647454457214
566 585 838.0619339313477
566 624 1260.390764861156
566 629 1184.686022701168
566 640 1225.0988170539265
566 692 1179.3627859045273
566 699 1206.1750151854467
566 706 1156.119040462429
566 755 1040.1062138369819
566 758 1260.3840115263663
566 1954 2616.100599596462
566 1972 1387.3903175388884
566 1981 318.230097148006
566 2007 3424.933527785811
566 2104 1357.191612199787
566 2118 1570.5767356582855
566 2356 2551.330179995539
566 3115 2270.3768650672264
567 570 626.443993427616
567 578 416.4836130154889
567 591 318.7551893137881
567 1981 538.3461665942972
567 2118 1772.8486038162494
568 570 711.5828483753314
568 578 399.8112104215884
568 579 776.9958912660985
568 586 646.9628523250458
568 591 683.4648654900823
568 628 894.669290815394
568 1981 854.8223929105583
569 570 466.8115029627678
569 572 442.2966911038017
569 575 609.1863595477311
569 578 319.184100909814
569 579 749.0838981071705
569 585 449.1025051833623
569 586 469.7349222203906
569 588 481.4187318498557
569 591 701.1550557492152
569 628 761.2975296391701
569 629 727.8917589730506
569 691 958.2519329638413
569 704 1234.990904897195
569 706 1250.375776223148
569 739 724.2910333795589
569 755 782.7359545464175
569 770 2612.7661408310782
569 1981 628.756024423877
570 571 802.4536883246466
570 572 887.677729037227
570 574 680.1377802099852
570 575 276.15445777345974
570 576 865.7258800173216
570 578 482.9308828597888
570 579 765.9674576272312
570 580 241.04955377945316
570 583 635.9017583995467
570 584 391.85667660888305
570 585 883.253506910161
570 587 578.7816378880606
570 588 893.3427702415308
570 589 539.2350626979955
570 591 809.2793310471277
570 593 453.469208645393
570 597 265.8476643864851
570 614 548.6332552318446
570 618 351.24814502147507
570 619 496.2972051557355
570 624 907.0554628993063
570 628 858.739197643162
570 629 826.0976295071899
570 630 1033.279888634392
570 631 944.9135797726641
570 636 810.8947806339293
570 639 714.2362067199095
570 640 822.2379502365213
570 676 1522.1900795995214
570 678 1226.7019408080043
570 682 1193.2707701043112
570 685 1002.6861474841904
570 691 720.795265287506
570 692 783.8426898730847
570 693 625.8263765452565
570 694 650.5311779758703
570 695 741.9706067351768
570 699 831.3213734691102
570 700 947.863821768458
570 704 951.7512810685649
570 705 876.389173274353
570 706 846.8790062386494
570 708 1023.6097631901085
570 709 731.141884900449
570 710 797.5518001439415
570 716 1358.0307489771571
570 718 3081.6855907761314
570 723 1234.2074924360363
570 728 1369.6898930043294
570 737 898.6621860272892
570 739 994.001706075484
570 746 1824.7105068845901
570 750 1980.474543045447
570 754 1626.417903393226
570 755 637.4477063979294
570 757 759.375939807806
570 758 856.530874376479
570 770 2230.410681635432
570 1004 3188.6372683762493
570 1010 5175.716230166806
570 1020 6377.165597900962
570 1027 6152.367400496297
570 1183 8764.89663874897
570 1257 8513.406954627402
570 1394 2429.175823965477
570 1398 2400.151938774128
570 1401 2821.929298250124
570 1404 2375.0410464332876
570 1428 3017.4261795879725
570 1600 10899.390111246592
570 1714 6176.625882780764
570 1746 7544.862406924536
570 1846 6299.921089584487
570 1862 6150.2356771101
570 1943 1904.510347144432
570 1953 2337.08153108242
570 1956 2258.079290987905
570 1974 10480.871121212656
570 1981 201.96720528313324
570 2007 3028.703340675308
570 2173 2272.836301736945
570 2376 831.1740701380044
570 2869 655.3399508367661
570 2870 486.6199115797405
570 3115 1869.3126418642778
570 3178 4861.51311403081
571 578 329.5961562153544
572 578 507.67406906486104
572 591 687.2134858318509
572 739 506.694672405448
573 575 356.6114152865337
573 580 257.6741751200067
573 624 841.3980528913419
573 674 1693.643032193152
573 679 942.3894334500986
573 680 1274.845514463509
573 687 940.0543252406584
573 688 483.16543008855126
573 689 607.5038955012172
573 692 697.1931586988303
573 709 653.2671430467118
573 723 1214.9293293831058
573 787 1329.2851585943445
573 1398 2315.5492127097277
573 1399 1853.2151499980398
573 1972 896.1892979994652
573 1981 261.2370654900375
573 2104 870.0383113193462
573 2118 1108.7672494933072
574 578 365.5514944166332
574 1981 625.682921785499
575 578 458.2459666276156
575 579 570.9113906504058
575 580 268.21063793870684
575 585 935.7623298865593
575 586 173.93528561689237
575 618 601.1846306991935
575 629 1098.2660716414273
575 640 1089.2258390668985
575 691 964.0512980850747
575 692 1019.5387268992996
575 699 1035.0995485491937
575 705 1004.3654690547396
575 709 923.3927351418844
575 755 905.7695732767083
575 757 1023.1324163129896
575 758 1117.5395293391775
575 1981 139.78734521942638
575 2118 1463.0757317522148
576 578 467.7806986589123
576 579 139.3650587529807
576 731 172.1422991272396
576 1981 829.8581693615662
577 578 382.3372021240448
578 579 429.97948719332817
578 580 664.4289568762649
578 581 301.0970390561775
578 584 352.6528304004718
578 585 484.695313168836
578 586 284.32595552066823
578 588 465.69986095785123
578 589 329.28901617644743
578 591 394.8478810366565
578 593 537.3738677138745
578 597 537.1375787260022
578 599 421.1307989784708
578 614 912.1977103553056
578 618 797.2550056582962
578 619 956.7979317945806
578 624 1093.291818750379
578 628 1064.5143609019738
578 629 1030.3326451866308
578 639 759.1844193902186
578 640 1186.4780615658242
578 642 1259.2843635292845
578 676 1974.8418039390108
578 682 1641.521897871391
578 685 1452.792220172973
578 688 1000.869524580886
578 689 1084.4526163782666
578 691 1149.864220017512
578 692 1220.8703680708845
578 693 1053.2781760350933
578 695 1180.211136796093
578 699 1296.3004610589287
578 704 1407.109401760893
578 705 1359.1372183031356
578 706 1329.632236273754
578 709 1204.1562649256296
578 710 1270.9033694526129
578 716 1750.4114417470262
578 718 3543.8433012089326
578 723 1654.9994802891138
578 728 1805.9600978667897
578 737 438.97256247481624
578 739 512.8846487919395
578 746 2289.3431618535155
578 750 2457.978047567457
578 754 2095.9678733499836
578 755 1009.9415866116318
578 758 1240.1778561245574
578 770 2713.267273549445
578 791 6624.494379914097
578 792 6570.366244269813
578 794 6689.925321121016
578 796 8709.02665191792
578 832 9066.900905871551
578 853 7961.529059172893
578 864 8157.331627032335
578 868 8500.119162428657
578 871 8666.043470347144
578 877 7109.347326619987
578 879 7462.270285116905
578 970 4515.808182072435
578 1004 3651.6727812756576
578 1010 5648.838196517284
578 1181 8146.406446553751
578 1183 8377.597041489944
578 1216 6932.243496114194
578 1234 10718.426031480747
578 1246 9013.88616670061
578 1250 8737.344098932177
578 1257 8031.388751886714
578 1263 8302.818079443878
578 1283 8031.807156484726
578 1301 8916.650694807466
578 1310 9526.200606583763
578 1321 9946.531658005015
578 1333 7006.042543609343
578 1394 2873.29344278663
578 1428 3420.327844584805
578 1430 3401.807113411296
578 1635 9205.353543790201
578 1692 5474.390679100873
578 1708 9386.99314775594
578 1714 5789.6856368421895
578 1746 7107.261925358478
578 1793 7973.907392119826
578 1802 6961.62862161043
578 1846 5910.71430595385
578 1862 5762.18818765856
578 1877 6745.839660284365
578 1910 10193.423647023548
578 1934 9965.211081941936
578 1943 2377.1360682736517
578 1974 10085.315334619578
578 1981 546.2073049727912
578 2007 3437.4099528264583
578 2173 2755.6876739551753
578 2455 244.1200919929312
578 3178 5329.9064717474175
579 585 768.2329105211561
579 586 470.6265285955248
579 589 753.0252592611623
579 593 960.7092517711931
579 597 919.3478162530456
579 601 1056.8376530342832
579 614 1284.5992897745355
579 618 1116.701978667047
579 624 1517.6652609345902
579 628 1485.820118468917
579 629 1451.38433014325
579 630 1658.5430921771117
579 639 1189.1638755035297
579 640 1563.6377393415403
579 676 2283.6115910927533
579 691 1485.7761569819
579 692 1549.759749429528
579 699 1589.5439149316762
579 700 1711.5477687497287
579 705 1575.2154213942388
579 706 1546.851377386247
579 716 2116.1494106901782
579 728 2135.4745009924814
579 731 310.7779624534333
579 739 470.1787586576284
579 755 1380.3054076283704
579 758 1607.9178992118948
579 770 2907.199955912461
579 787 2180.6349171772877
579 1428 3781.213854035597
579 1430 3760.013800418761
579 1972 1740.7341716466901
579 1981 709.1261875188937
579 2007 3793.5492342481616
579 2104 1688.6329853407606
579 2118 1859.9923890623627
580 586 404.3528354129813
580 1981 131.2258605063216
582 1981 221.84896346781022
585 586 763.8431847489836
585 591 645.6791822752882
585 628 1084.9468618608764
585 640 1349.8450326871691
585 692 1471.6148437065833
585 755 1207.037736775779
585 1981 1003.2503964561423
586 589 518.6609630846953
586 591 524.369156177854
586 618 646.8063135401515
586 624 1126.8442440883593
586 628 1085.90484927232
586 629 1051.675759022128
586 639 857.0421865831045
586 678 1470.9227577142078
586 692 1079.437328035147
586 699 1121.1082666139148
586 700 1241.335579555874
586 701 1338.2980729732164
586 705 1131.5644500158705
586 706 1102.4335545423266
586 709 1016.4549414468058
586 716 1651.1574731830776
586 728 1664.853445901775
586 737 721.3546325894104
586 739 750.2716588124463
586 746 2111.3893951306623
586 750 2254.8292468441487
586 754 1910.2949801512036
586 755 922.1380870228251
586 758 1146.186989922285
586 770 2480.76352300417
586 1398 2693.5642458434404
586 1399 2233.1053463813278
586 1981 276.3069405365555
586 2007 3324.2499350243143
586 2118 1440.8389040365232
587 1981 683.6173393409777
588 628 1148.5503995248337
589 591 690.7774514385491
589 692 1098.9513981509
589 705 1353.1653854234064
589 1981 695.4325856220069
589 2118 1175.1682548014962
590 624 899.9389938588396
590 692 971.2859248084645
590 746 2041.2973775668456
590 750 2214.85700629556
590 1981 396.3190527155558
591 593 930.658222174402
591 597 922.9506430943159
591 614 1296.4263227454353
591 618 1153.0692196781415
591 624 1484.296833969055
591 629 1423.4319342314777
591 639 1137.9155788263897
591 640 1573.6165116215468
591 678 1987.2680108471718
591 685 1667.2507789633448
591 692 1585.3168135320936
591 699 1640.5530295325286
591 705 1653.2280354594786
591 709 1538.6049601581362
591 739 321.68280548351504
591 755 1393.7526979557256
591 1981 787.5147066316802
592 604 152.5477349248412
592 629 523.9837428393156
593 609 857.5183272428814
593 610 805.8916223418973
593 611 876.936153079125
593 612 833.7037371868918
593 614 464.2949445211018
593 618 498.2084388917797
593 619 644.7747842073197
593 628 527.1426132576637
593 629 492.9831684434425
593 630 698.0888417815052
593 631 491.71800380438884
593 636 368.75814470066285
593 639 267.60237383216764
593 640 704.3525204191094
593 642 757.8298679251399
593 650 2428.4902553606794
593 685 1364.3129242803625
593 690 940.592521312175
593 691 744.4634197418155
593 699 948.7777424364697
593 704 1026.078663175413
593 705 1126.8084661602409
593 706 1099.415322480576
593 710 954.2115109730934
593 737 759.4772457797151
593 739 968.1469597218294
593 755 553.9989108475305
593 758 770.9712432899771
593 1981 651.9500151461377
594 602 47.5742613130312
595 612 851.7348129930577
595 614 379.96744723149
595 2831 123.83627870308493
596 614 302.8487349757415
596 619 535.7420784560873
596 623 365.01766812224076
596 629 330.6898934548579
597 608 703.3923847912997
597 609 669.8443694884241
597 612 635.8302983605214
597 614 375.0719025329816
597 618 311.65786631897157
597 619 470.8034105502103
597 628 605.509494881887
597 629 571.8107439841826
597 630 781.9468352270013
597 636 548.8712562339497
597 639 455.4482984227072
597 640 650.7557162790931
597 641 498.1604270069831
597 642 728.4837331093596
597 691 623.5169555647393
597 704 894.3226463888227
597 706 910.7330195878625
597 723 1412.701053358124
597 739 1029.410646566496
597 755 472.80926590141604
597 770 2266.210361576313
597 792 6980.5388391034985
597 1943 1996.3838312520882
597 1981 467.5645456878374
598 614 507.700129632362
598 618 455.55527182422566
598 628 666.5750368910627
598 629 632.0551076913476
599 629 643.4484959799387
599 692 818.8681107229218
600 611 854.6151856423954
601 612 684.1572760282359
601 629 415.18696143546447
602 629 409.5372530642282
603 614 580.3486883775951
603 618 544.9232053487061
603 619 704.7640107805754
603 628 691.5581518498193
603 629 657.3265283399645
603 630 862.6969929636822
603 642 903.5342776118563
603 755 676.0266849968806
604 612 561.8942649188467
604 629 574.5905263701644
605 629 479.9195087166884
606 737 1294.8339690534583
606 739 1496.5666978711097
607 629 418.437807374932
608 614 372.67457125095575
608 618 621.3924731520336
608 619 596.5712259413684
609 614 497.7466015058386
609 616 531.0989342165574
609 618 360.3435039958334
609 619 221.37674777832115
609 628 896.4590053390642
609 629 880.0252994777477
609 630 1015.291940561395
609 631 1263.5250330689
609 639 1011.7885370238683
609 642 681.0157503221002
609 755 489.6159010076912
610 618 307.8033622898844
610 619 179.71753823892544
610 628 868.2455264164225
610 629 850.1417732194858
610 639 967.1886468516807
610 727 672.2649602998104
610 1972 618.0355923006788
611 618 384.06625931988947
611 619 285.13382741717817
611 629 959.8581983850495
611 630 1108.5321079290304
611 639 1057.041207572869
612 614 517.4303088800172
612 618 337.7632013268967
612 619 232.32867584543004
612 621 435.73506702938835
612 623 386.6827115014164
612 628 926.1714931778871
612 629 906.9434850006783
612 630 1055.704548111422
612 631 1262.1003309435728
612 635 1079.6211235414314
612 639 1008.2659397170731
612 640 638.026832023596
612 642 741.2263910991426
612 690 128.60739961132634
612 755 525.7182899593429
613 614 148.48505840516916
613 619 397.6898999385007
613 628 361.73685789021755
613 629 331.92866421564077
613 737 1079.1136865288236
614 618 254.46617093473907
614 619 285.12615704334877
614 621 254.83157105709984
614 625 564.8341676043976
614 628 412.18284884671124
614 629 390.7567104915219
614 630 557.858500923973
614 631 779.6545243011077
614 634 687.1586036325151
614 635 565.3710462279414
614 636 579.473306224611
614 639 536.5848684670569
614 642 367.3021422366233
614 650 2044.7941517372813
614 682 1236.1269025268923
614 691 283.51028442061835
614 699 504.482599528757
614 704 565.8403594702481
614 706 721.2670180394124
614 710 528.1132441033855
614 716 838.4856122769014
614 723 1350.6095051534364
614 728 910.9612805659987
614 737 1214.703652565827
614 739 1398.7172193848633
614 758 327.9943482890676
614 770 1982.092549618241
614 771 1993.8441763264057
614 792 7270.240987732744
614 1010 4987.557852514358
614 1943 1780.4813443463786
614 1981 712.6482026826512
614 2325 1113.7712960187368
614 2830 1061.8253224176517
615 629 426.10445377603105
616 737 1150.3257402425245
616 2173 2082.1765124847216
617 737 929.9692779336135
618 627 565.5453276587596
618 628 652.8198469514226
618 629 626.9987910335658
618 630 808.4352463718284
618 631 929.2977691139652
618 636 745.3239177093965
618 639 674.9494111627633
618 642 596.6162363474131
618 650 1930.3366390416577
618 668 1841.0132109254405
618 682 1064.0605832598983
618 685 883.1286080855223
618 689 564.841973590906
618 691 369.56628601976087
618 704 610.3713392008408
618 705 630.0348735272677
618 706 602.2051901255854
618 716 1009.7932658771433
618 718 2881.132471706895
618 723 1155.5973716119793
618 737 1166.8231878237966
618 739 1307.3688288618434
618 755 318.9803097005155
618 770 1955.7043079165142
618 1428 2666.2449607471935
618 1943 1688.4720298404357
618 1981 479.1238815349563
618 2173 1998.03979814016
618 2325 859.8130034762644
618 2374 1871.8621774305493
618 2376 1176.8525094360825
618 2830 807.4543264440084
618 3115 1519.1647097513294
619 628 694.5198081526531
619 629 674.8032587220401
619 630 828.609538334467
619 631 1042.241088960299
619 635 848.517037178337
619 636 848.1934889725685
619 639 790.4168987805874
619 640 437.85167854809464
619 642 543.548997508456
619 690 360.55577746341044
619 704 455.54698614538194
619 706 459.25828935194266
619 708 658.3894374594116
619 716 893.4726471865209
619 718 2735.2068099730513
619 728 876.1031293741468
619 739 1468.0996691915525
619 750 1506.4106202152698
619 755 299.77653349231207
619 758 435.76531461557425
619 770 1795.4198647207616
619 1010 4783.893983580261
619 1394 1932.9124561477734
619 1401 2371.268661892735
619 1404 1890.6671136887453
619 1428 2532.18131158763
619 1862 6406.8501711405515
619 1953 1884.8424985883466
619 2007 2540.9357535268027
620 629 666.3604385973413
620 639 604.051559409594
621 628 614.1626191620804
621 629 585.1550113562118
621 630 779.7475113642482
621 639 589.4811709385446
621 640 525.4292241511471
621 642 619.8393078251437
621 706 704.3072908689113
621 2376 1127.6706844497726
622 624 688.3122651006128
622 2118 943.9472873362807
624 676 1281.8865792513807
624 678 1467.8823390963405
624 679 1214.2082086149169
624 680 1576.9057505542128
624 687 1527.6698698708224
624 688 1093.6054021664836
624 689 1260.3287677382143
624 692 707.3487056110408
624 699 884.0831814339555
624 700 865.9089428799277
624 701 940.4916885489229
624 705 1176.3941812912126
624 709 900.27993411143
624 731 1603.0256107031971
624 737 1240.2048662622358
624 739 1484.8015357448612
624 746 1622.8322991956695
624 750 1887.679982141291
624 753 1686.7615181320593
624 754 1491.8665372203263
624 780 1996.9144795010122
624 783 1465.2568610458263
624 787 1112.9606191162873
624 1956 1676.8824934837405
624 1981 1102.239171966847
624 2376 1662.2656755910168
624 3115 1336.582889442975
626 737 1310.9169602181303
627 737 1014.9096243409977
628 631 514.7639546403319
628 636 332.3733257529197
628 639 371.78334166513326
628 640 400.74207767146646
628 650 2389.847739562649
628 666 2494.527890149501
628 674 1859.6882930528568
628 676 1247.8723101988132
628 678 1414.4312403642243
628 682 1631.4417720242068
628 685 1470.9366583506737
628 690 1054.7290704405002
628 691 598.2518943056698
628 693 573.0038939473278
628 694 700.5009907176844
628 695 644.0793717389186
628 699 830.244310772242
628 703 746.7303880113585
628 704 835.343363244979
628 706 1100.6955098131953
628 708 1289.6075912362753
628 710 879.3473737244514
628 712 943.6454682770952
628 714 1127.6188004089079
628 716 852.3721885810297
628 718 3284.2288443706407
628 721 3452.778113901424
628 723 1755.4352000772312
628 728 1035.0927081871089
628 731 1581.258306726289
628 737 1231.1406628600103
628 739 1469.9661629165287
628 750 1850.1355741079606
628 755 407.7426788700021
628 758 476.3098816941613
628 770 2235.6881302502065
628 771 2295.369541976362
628 783 1423.2455438115414
628 784 1488.8311204298031
628 786 1450.6472879701437
628 792 7078.85656857351
628 793 7144.5029679546615
628 794 7185.109169312409
628 832 9198.932823645951
628 853 8218.83130165351
628 864 8660.269633011738
628 879 7743.958158311571
628 960 4821.757300902693
628 970 4427.109534887319
628 975 4650.723781220343
628 1004 3381.2436038136857
628 1007 3187.0836269839274
628 1008 5251.863574292227
628 1010 5238.628563149584
628 1014 5578.405708317765
628 1020 6152.909835415917
628 1027 5909.421540780493
628 1049 9785.7029056749
628 1051 9709.942321662693
628 1095 9706.840703664566
628 1162 8756.31386089601
628 1181 9184.301994124573
628 1183 9405.210732356692
628 1234 11672.866065982325
628 1257 8644.706139411925
628 1310 10276.046170128226
628 1333 7632.511512842973
628 1347 6869.67736156701
628 1349 6769.622588027335
628 1364 6739.012098448523
628 1380 3803.281632141049
628 1394 2032.4077615998378
628 1401 2132.872031715875
628 1404 1835.5010700780715
628 1422 3877.0150884854734
628 1427 5133.4222328397445
628 1428 2453.633235321129
628 1438 6993.6359204270075
628 1456 8482.839520315618
628 1478 9590.07142205215
628 1486 6565.381617717295
628 1506 7824.863426110279
628 1535 9157.52915273453
628 1538 10104.892772508156
628 1595 10441.977523149622
628 1600 10724.613678754193
628 1635 8188.757016824821
628 1639 9456.217097437682
628 1645 8865.015325795956
628 1672 9266.452631988433
628 1692 5534.275557612071
628 1705 8962.22265533435
628 1708 9102.51832419352
628 1710 6669.715327219357
628 1714 5856.576219614194
628 1731 8153.207096176845
628 1737 8071.357372759446
628 1744 6275.778393002403
628 1746 7371.482187216809
628 1747 8049.166159030725
628 1782 6359.075722771836
628 1793 7944.067741770769
628 1802 7055.73620717876
628 1822 6197.554409586118
628 1846 5984.141833192102
628 1862 5833.657834206258
628 1877 6664.21713819618
628 1893 6774.763229018609
628 1904 6701.092673335589
628 1910 9448.260320914134
628 1934 8926.618432680276
628 1943 2108.6551813059004
628 1953 1672.0921528537572
628 1956 1673.65198070868
628 1957 3409.622459538696
628 1963 3366.283794833041
628 1974 11100.517574508889
628 1977 9625.592251042723
628 2031 6495.145657028044
628 2073 5591.5661687037955
628 2102 5107.942413713791
628 2103 4635.523168010843
628 2173 2275.4366054097636
628 2377 4469.776216224804
628 2638 4504.219505417508
628 3178 4969.19529054568
629 631 500.79958456138013
629 634 443.9288728291844
629 635 212.58107352431722
629 637 428.98317048523353
629 638 490.7766837464917
629 639 344.656709134649
629 642 386.20361389730067
629 643 689.9114708621671
629 650 2384.203047345978
629 676 1259.7908252553007
629 682 1616.6140483298686
629 685 1454.0765987994325
629 695 636.4689441105342
629 699 823.5765395478962
629 704 834.3147849849879
629 706 1088.2984316099228
629 708 1278.8806631138712
629 709 832.4258895002297
629 710 870.0930569779473
629 716 872.0618276334186
629 718 3283.3002096000937
629 723 1738.0327975922953
629 731 1547.9616903777744
629 735 2560.9534914412134
629 737 1200.8978687061237
629 739 1438.1135164244145
629 755 393.5074491909524
629 762 2642.727642828388
629 794 7172.233366431534
629 873 7352.667219309305
629 877 7501.391290132032
629 879 7738.450017097123
629 1304 7086.229336542846
629 1347 6851.564690891761
629 1349 6752.39744815466
629 1364 6723.19040405751
629 1430 2468.950887361346
629 1714 5857.019388804729
629 1862 5833.93580725865
629 1943 2105.042192200167
629 1981 1020.2402681016977
629 2052 2390.8928234177283
629 2172 2402.9454021006927
629 2173 2280.4947444087493
629 2182 4206.4085768547275
629 2325 1477.6300565767417
629 2374 2176.783708466912
629 2830 1415.4483175620765
629 2831 390.1426314739168
630 639 511.5498086052627
630 642 397.42237840715813
630 650 2451.8016017864848
630 657 1789.653288323293
630 666 2537.479577716329
630 704 888.1887495884478
630 731 1744.1126270516434
630 737 1375.8047496496592
630 755 530.0586014301765
639 640 689.5971724127845
639 642 705.9843347024977
639 650 2577.5145229464383
639 685 1557.9857041596922
639 690 1127.435944668022
639 691 810.1467766164174
639 704 1086.0930849539982
639 706 1247.1755057699177
639 708 1446.0953657278096
639 710 1064.5372973947974
639 716 1208.9683212395646
639 723 1829.6833131421345
639 737 864.6195685600604
639 739 1113.0368342510346
639 755 597.2163719802745
639 771 2529.857081877973
639 792 6760.372723418674
639 1943 2316.566522677663
639 1981 915.1124875680691
640 650 1995.8907620963887
640 655 2000.1510620652275
640 666 2094.5410443348505
640 674 1459.1089559366524
640 676 880.5041072651896
640 680 1132.048652276712
640 682 1282.4990411434142
640 689 935.2929656701451
640 690 760.6397004518303
640 704 435.4918374420328
640 706 743.3368376320459
640 708 918.9257481790768
640 716 565.8557113306689
640 718 2883.6834994761466
640 728 676.6855841873021
640 731 1728.055125910988
640 737 1463.829602521831
640 739 1663.0810951503406
640 762 2241.1651301213747
640 770 1839.3699790716742
640 771 1894.6587294531332
640 785 1195.9682658977622
640 1981 973.0893570882486
640 2052 2628.173590804444
640 2173 1879.5501857944066
642 685 1233.1599839652567
642 706 831.4772180246697
642 716 510.89976926474367
642 737 1514.3681642387364
642 771 1936.5311976300902
646 672 627.2463948543343
646 1943 367.7649148013837
647 671 392.3736015522182
647 728 1107.2607264595028
648 664 88.72455477111416
648 666 275.64096537836934
648 674 364.20713173083203
648 1943 197.31067941121597
649 1943 333.82359676529745
650 655 235.87328516061373
650 664 431.9560664975197
650 666 287.38261205220164
650 674 607.6525718561222
650 691 1795.3154208179822
650 716 1863.619933136194
650 718 970.8672152015068
650 724 1528.1085268456172
650 726 1695.019811939279
650 727 1711.263725120782
650 728 1587.299492527473
650 755 2002.7672387282055
650 758 1926.6469761074784
650 1394 1731.0301505751042
650 1401 2744.6138552080947
650 1428 2474.933801296233
650 1430 2432.8696009536143
650 1943 309.06906738425386
650 1953 2401.7399804854513
650 1956 2145.4581459163637
650 2007 2434.030884899954
650 2111 280.61729471391385
651 1943 361.25264194629983
652 654 124.95658649472263
652 675 250.61833079783653
652 1943 202.29070239991032
653 657 172.47434013396395
653 665 92.47178267070758
653 675 53.08750233217883
653 1943 302.3302758618185
654 674 392.41979379251285
654 728 1305.6642842045246
655 666 98.70172658421247
655 692 1751.5946910920375
655 1943 305.78240687103505
655 1954 2033.3727922978774
655 2007 2225.4838081377966
655 2112 23.193741538315223
656 658 21.38493702756099
656 666 138.35000912963437
656 1943 399.5962311058473
657 665 105.15302669809188
657 674 279.6193827986352
657 705 663.1645065743585
657 728 983.0500248201726
657 1943 395.590460755926
657 2007 2203.3881328902917
657 2118 1705.2664251206877
658 672 76.8418990260951
659 1943 336.0476927866685
660 1943 318.1088039345989
661 1943 265.21903048374185
661 2110 77.14345102978528
661 2112 27.60601991409503
662 664 151.04203860479373
662 674 203.6783888843853
662 1943 246.96284503365422
662 2111 266.44309110931505
663 671 115.77597493366345
663 691 1651.4912117336123
663 728 1384.4374944190074
663 755 1863.038469102259
663 1943 135.50658368080482
664 666 322.53219316003424
664 674 349.9965183448415
664 1943 262.3884721280118
665 672 627.6803368010751
665 728 1075.4449139381122
666 670 176.8254061676138
666 674 638.2468971081973
666 692 1847.4720539064417
666 716 1883.659784248958
666 728 1606.243519472277
666 1394 1566.2473335567845
666 1401 2606.079331551334
666 1428 2286.381988881468
666 1943 404.4840059407765
666 1954 2086.042678273819
666 2007 2240.3861639927263
666 2116 136.76847309543106
668 674 564.1530594669342
668 675 381.755762242283
668 692 1656.2982760538064
668 700 1508.1425381795689
668 705 1219.787378137243
668 728 1531.3976125078757
668 1943 268.0152468034727
668 1956 2125.8949868337154
668 1972 1796.9830531894693
668 2118 2288.7744240838356
668 3115 1901.476191173528
669 1943 143.1846103391864
670 674 463.18637469924437
670 1943 262.08014554066716
671 704 1493.3242353615349
671 728 1492.1309770401692
671 1943 218.42190787470844
672 1943 358.56611352741845
673 674 215.84585298029714
673 1943 124.02056456319015
674 676 823.4631810495428
674 692 1218.0063277375693
674 705 879.653629439661
674 706 909.0308803207557
674 709 1094.4272930285535
674 728 984.974386513132
674 750 517.6171572066748
674 770 494.7947805952979
674 783 525.1264934470669
674 1395 1440.6972459588349
674 1401 2202.796131337868
674 1409 1411.2255381201146
674 1413 1557.1831516955913
674 1428 2014.9088339428674
674 1943 299.23518588790336
674 2007 1985.1846021004815
674 2104 1489.2015702711656
674 2118 1782.1582316370075
674 3115 1338.3558668070798
675 728 1203.7689552749944
675 1943 269.49252218572065
676 678 727.1730541147998
676 682 1159.6001201049874
676 691 829.5080789785351
676 692 755.884245575132
676 700 575.4007539138015
676 705 818.1368307571383
676 706 836.4337784380369
676 708 828.2270808995802
676 709 805.6506019775289
676 716 471.5964282031774
676 718 2165.0802502198558
676 723 1346.084703841144
676 728 214.89055303628882
676 739 2480.2390090326594
676 750 615.1852737514456
676 755 1007.9837511971532
676 758 804.8846857749851
676 770 1044.8776948829384
676 783 301.38615569988247
676 1380 2564.0010994613885
676 1398 880.9089151193958
676 1404 945.7033607786805
676 1409 1549.9241739573151
676 1413 1548.8500825150602
676 1428 1562.8641851472967
676 1430 1533.7961863714006
676 1943 1122.3407435213496
676 1953 1102.7843881348715
676 2173 1079.9703970620492
676 3086 4023.854852195783
676 3178 3755.6047678707055
678 682 433.5350713119307
678 685 455.1340790578854
678 689 687.0850480116557
678 691 818.34722850132
678 692 760.5351218090136
678 693 865.1999213387634
678 694 741.6458046278141
678 695 771.5449870576673
678 699 584.3161043188672
678 700 622.3073996308431
678 701 584.8414772238898
678 703 670.543591467536
678 704 602.2213006418125
678 705 354.7317399912239
678 706 383.80738885724395
678 709 594.2286446864083
678 710 543.7035650442035
678 716 1015.1594787099903
678 723 619.898488893205
678 750 849.7981470416286
678 2104 1088.5969007196747
678 2118 1417.205767369968
679 689 557.529721988085
679 692 507.7552647049448
679 695 516.0450927583224
679 2118 1186.3441943325915
680 691 929.1723907311482
680 692 869.8541081461237
680 693 977.6915210616035
680 695 882.1723474069296
680 699 694.560235504527
680 700 724.6718993349821
680 705 465.1547604463612
680 706 493.8695882244595
680 709 707.2907810700511
680 755 1137.5974324014405
680 758 1064.7423139751468
681 682 190.1302986610063
681 691 969.4044507224124
681 692 924.3180936874375
681 693 995.5816988256274
681 695 925.6635743544641
681 699 748.6200341180224
681 700 820.1391304803121
681 704 800.5276713217864
681 706 467.5534165752988
681 709 721.5289117371848
681 728 1023.8772966493418
681 758 1136.6489612540238
681 2118 1614.6692102485642
682 683 309.56356812854006
682 685 190.5850606110688
682 691 1049.0749523750599
682 692 1015.1845022969712
682 693 1058.7136981048288
682 694 932.2880638761567
682 695 1009.1996259972723
682 699 847.2628565146609
682 700 940.4389750137301
682 703 947.607974062846
682 704 921.8429035920104
682 706 539.193719355358
682 708 386.0265341259657
682 709 795.7377131875884
682 710 776.7122641589577
682 723 186.49560905770878
682 728 1189.7799299221892
682 750 1214.0290969207174
682 755 1223.7293227753923
682 758 1232.4787122891985
682 1428 2646.886639656583
682 2169 698.745532099269
683 685 300.7493756741738
683 704 1112.9995107442544
684 685 180.69437515795812
684 687 130.10339132095405
684 704 966.6799905495969
685 691 903.7781975869634
685 692 879.3305392943281
685 693 901.8748025701437
685 694 779.0112886988629
685 695 867.6357280533551
685 699 722.903642206537
685 700 834.1838656653213
685 703 823.2105434097801
685 704 817.2681250823985
685 706 409.48165366172105
685 708 318.41327712384617
685 709 652.9535596222887
685 710 646.107498902988
685 728 1139.8074810924256
685 1428 2675.665679778461
685 2118 1588.3677185127817
686 693 1033.674242569843
686 695 974.9212648503812
686 704 870.51804889535
686 706 506.4571907486936
687 689 333.5683015714977
687 692 893.3153111503308
687 693 904.5920067948841
687 694 784.6928318017689
687 696 790.0730059378421
687 697 842.1830056847007
687 699 743.3294105244545
687 700 860.658833839593
687 701 883.9753286967417
687 705 432.4226472290673
687 709 665.6001181560471
687 711 576.4949333353323
687 723 288.89153629793753
687 787 1203.0080400664285
687 1954 2087.675327352282
687 1972 1135.2644619059436
687 2104 1259.3614859680554
687 2169 638.6045709945253
687 3115 1736.0934299596904
688 691 556.9380052054848
688 692 572.2005193281166
688 693 510.68804189513855
688 695 541.1349430506647
688 696 494.07768693975015
688 697 438.72992283433143
688 699 498.5329658755952
688 700 641.2436889249517
688 701 713.7693375839274
688 705 382.6473575624341
688 706 354.82131989663975
688 709 380.98262096026
688 750 1517.3088185637541
688 787 1096.2031598236645
688 1972 832.5171418638433
688 2118 1230.888973225802
688 2169 533.7276947630228
689 691 709.8276050576917
689 692 716.1192643092904
689 693 671.5363322784341
689 694 574.2471697850885
689 695 688.9396302603766
689 696 628.1004233837568
689 697 600.5989595721571
689 699 615.8966938872165
689 700 756.3601627654954
689 703 699.5936331812975
689 705 412.0230243833054
689 706 390.80206859074457
689 708 481.1361371683432
689 709 505.29955120589517
689 710 537.5181398492631
689 711 516.1754865554865
689 755 813.0938624090392
689 1954 2075.1035581744304
689 2104 1062.288459924562
689 2118 1391.7385702558624
690 691 530.0252868692266
690 693 501.836367269496
690 694 394.7396849082022
690 695 505.91366452182183
690 699 429.4590704587767
690 703 512.2398070840579
690 704 561.2919570511427
690 706 248.27586059188167
690 708 401.1706410604322
690 728 976.7274100143615
690 755 653.9901140429138
690 757 688.122698577371
690 758 734.1625149317221
690 1953 2061.8788785983625
691 706 510.7772008590921
691 708 693.3676493985173
691 716 645.6698704201265
691 718 2705.951475876161
691 728 656.3758296935948
691 737 1484.0798008232343
691 739 1651.709369009739
691 750 1364.7044922490954
691 758 204.40120291642228
691 770 1700.4619433223136
691 780 1554.9705797300762
691 783 910.6802525030171
691 791 7605.013587982971
691 853 8771.13581206306
691 875 8330.298251030808
691 879 8289.493820377462
691 880 7998.337607826429
691 970 3833.273738973759
691 975 4084.728752635791
691 1007 2620.236242551769
691 1008 4713.720796230805
691 1010 4707.413897762554
691 1014 5051.261066718285
691 1020 5752.908284835957
691 1027 5519.235552421114
691 1051 9748.517055874567
691 1180 7200.6039318502935
691 1183 9485.503904103412
691 1380 3367.8631575957506
691 1394 1723.4314531234884
691 1401 2122.404141449995
691 1404 1654.3300233061555
691 1427 4795.509922109483
691 1428 2296.6866050204267
691 1430 2274.807012421483
691 1478 9357.366851672543
691 1518 7735.012840497699
691 1600 10309.125314171552
691 1635 8091.781814560874
691 1672 9144.100622503192
691 1714 6436.356189167699
691 1746 7920.02462030432
691 1862 6412.7552915659
691 1910 9079.606036745452
691 1934 8875.999680840978
691 1943 1520.3518219562445
691 1953 1635.9572018175063
691 1981 834.501118740958
691 2007 2307.9834668856256
691 2029 2988.6777865883478
691 2173 1741.8893122623417
691 2182 3712.8786491960923
691 2638 4130.437181982448
691 3127 1202.7338407628774
691 3178 4422.7671340026
692 716 597.839213876433
692 723 1162.6409578472458
692 737 1559.2093253450141
692 741 698.1175943332365
692 743 894.9137489510754
692 746 1081.13690730813
692 747 1123.9786060566187
692 750 1288.7766867462406
692 754 902.1311659240787
692 781 1040.109196266611
692 787 633.8329562517713
692 1398 1623.3241519442843
692 1399 1158.4155386705618
692 1943 1457.0605143049343
692 1953 1589.850984927043
692 1956 1485.67458275295
692 1981 887.1607289110333
692 2118 709.0590554995678
692 2173 1668.3030885970359
692 3115 1095.1306483057756
693 706 528.9695626718749
693 708 721.6764210296255
693 723 1187.3735732954008
693 748 1548.6085813077202
693 758 261.0310333310682
693 770 1775.9346132548462
694 706 400.76366988733935
694 708 593.6819767028298
694 770 1672.182050068029
694 2007 2388.202584486807
695 701 328.91219942044586
695 706 470.13907720651235
695 708 649.6159426127651
695 716 637.4057831783116
695 723 1152.195969751967
695 728 629.1135037864223
695 750 1322.5380398258883
695 3150 1039.4539653761292
697 750 1459.5915918017624
698 706 523.2426378692201
699 706 313.7364220096007
699 723 1002.0052391803943
699 728 567.6099041893029
699 737 1662.9166687687768
699 739 1807.4296052883547
699 746 994.2448798065558
699 748 1295.8615008987583
699 750 1170.8196478462178
699 754 799.8329697720632
699 770 1481.3227923939046
699 780 1391.7924924901906
699 1428 2229.5687592345253
699 1981 896.7026796968422
699 2118 873.3925740053149
699 2173 1523.1875655176327
699 3115 1116.4793004253902
700 716 518.4469175752176
700 723 1105.4226942141847
700 746 892.3348886579146
700 750 1095.2417343596296
700 754 709.5568413788563
700 780 1291.3788078808218
700 781 859.657204858168
700 1398 1452.3476984324684
700 1399 992.5551956966768
700 2118 797.0044975864149
701 706 458.594130056039
701 708 553.4325994168846
702 1409 2098.950065755498
702 2007 2196.220775847391
703 706 414.3004506555856
703 708 572.283388340585
703 750 1196.917985511027
703 780 1396.821964875171
703 2007 2194.49976767553
704 706 412.08031619957603
704 708 537.1061483745923
704 716 530.4487599744473
704 718 2449.0760827229196
704 728 432.25695999997475
704 739 1915.3451461074778
704 755 490.0238268542715
704 758 363.5719141551298
704 770 1422.219689387566
704 780 1282.9121358714576
704 1010 4430.414530507787
704 1051 9583.437911999448
704 1401 1982.954565451135
704 1428 2094.7477827615303
704 1430 2069.5299593460004
704 1846 6818.773001992131
704 1862 6668.250291696628
704 1943 1275.9589878972522
704 1953 1501.1331698357146
704 3178 4149.669734786158
705 737 1767.7799666571937
705 746 1040.9456080030275
705 750 1134.818801674583
705 754 830.6223183973672
705 780 1414.8119411761734
705 787 795.7089430855973
705 1956 1703.3064546481278
705 1972 712.7067538099942
705 1981 867.363375709993
705 2104 852.3233041979764
705 2118 1194.8263708542715
705 3115 1330.1399805704666
705 3150 561.5055220283242
706 708 199.18463811197444
706 709 258.0529062425704
706 710 238.85026979804505
706 716 936.0136465889541
706 718 2279.0333605780297
706 723 688.5995498019843
706 728 779.7051865635194
706 737 1738.3753814262413
706 739 1838.7474930939702
706 748 1355.630914810115
706 750 1162.4882726521068
706 755 695.120887393905
706 758 694.0281505409295
706 770 1383.6763501173732
706 780 1440.543973454486
706 781 776.5829456521108
706 783 733.700512583149
706 784 581.9461025639632
706 791 7934.10132057565
706 853 9183.237928561042
706 877 8389.944014781742
706 879 8694.06291360786
706 970 3362.6142329192426
706 975 3671.3686629000003
706 1004 2383.1472677573697
706 1006 3491.3517295385855
706 1007 2217.6915738525163
706 1008 4340.111232568699
706 1010 4343.6904261701975
706 1051 9906.06678713812
706 1181 9171.042347215016
706 1183 9432.59363180061
706 1333 8334.815967094293
706 1380 3144.213056365251
706 1394 1716.9936917476386
706 1399 1269.4580623882323
706 1401 2351.483714687747
706 1404 1779.082109192252
706 1422 3793.378041226884
706 1427 4658.039264928027
706 1428 2399.0378748098224
706 1430 2369.4962881306524
706 1456 7629.692652306494
706 1477 7320.615961821867
706 1478 9283.262288310345
706 1486 5933.048171682273
706 1600 10052.92017932172
706 1635 8147.524142098781
706 1672 9170.24696273207
706 1692 6568.687169507256
706 1708 10203.071709265843
706 1714 6890.29966884412
706 1746 8329.17844661192
706 1802 8085.357759526788
706 1822 7231.658182874761
706 1846 7016.269362813797
706 1862 6865.7114824321625
706 1877 7741.6122479129235
706 1904 7725.803320616426
706 1910 8877.116470098419
706 1934 8965.565750977099
706 1943 1086.283664489828
706 1953 1878.0272427209436
706 1956 1717.5628786459347
706 1957 2690.1830904063713
706 1963 2698.105665322264
706 1974 11154.783824052201
706 1977 9740.604453844297
706 2007 2395.091538857706
706 2169 221.810411115503
706 2173 1426.0882722282295
706 2182 3424.4942319412853
706 3127 1317.9174712173167
706 3178 4038.7263145718734
707 757 509.9051006487431
707 758 539.6219424883178
707 759 528.0485034517592
708 716 1024.642990538041
708 718 2082.430095752494
708 728 823.2853151602651
708 750 1045.6247250431447
708 755 887.2801252315785
708 758 862.4501526728529
708 770 1218.7386351985108
708 1394 1659.0276282150812
708 1399 1245.1157969508258
708 1972 852.4684516139193
709 716 771.4028532550896
709 723 937.3476961532831
709 739 1716.7901154110616
709 750 1254.4134793534088
709 1428 2346.9764426336433
709 2118 935.900769074845
709 3115 1235.0244561108755
709 3150 824.8475706162483
710 728 632.6121715947314
710 755 482.87438401604635
710 758 455.76671772285357
711 750 1099.5770956773595
712 716 431.3629294138992
712 728 263.6100180635533
712 742 404.71173916026686
712 758 469.941731814011
712 770 1292.321355197783
712 781 742.3868482152374
712 783 481.77917513751953
712 784 574.4501369751096
712 785 661.3912612204426
712 1428 1920.7699641039376
713 1401 1528.4790835070705
713 1422 3181.7536284033204
713 1428 1745.9096206413335
714 716 279.44714000222814
715 1401 1424.2276130651633
715 2007 1600.6934692166715
716 718 2634.62716788095
716 723 1583.8820988913146
716 728 277.9248620111877
716 739 2228.65845058321
716 746 786.2000707765887
716 750 1080.6470993739829
716 755 740.8606243344589
716 758 510.65033308472016
716 762 1974.801136072782
716 770 1516.4240744682947
716 783 742.3313543562567
716 787 303.64800108161734
716 788 529.8052897842207
716 1010 4463.791787054398
716 1370 4700.143017214906
716 1380 2963.30576388488
716 1394 1181.2861161815092
716 1401 1478.2539463941964
716 1404 1030.2020326013987
716 1409 1941.556768659969
716 1413 1892.434706996898
716 1417 3171.4705742945903
716 1420 2812.2727392906845
716 1422 3106.3295309048335
716 1427 4283.697542649907
716 1428 1670.0503739785506
716 1434 2827.7746867038295
716 1435 2470.5634215258256
716 1934 8236.544513819152
716 1943 1555.6317459696775
716 1953 992.012253626664
716 1956 900.9136621895642
716 1957 2587.1328727192545
716 1981 1480.1642388072075
716 2043 4468.223995106974
716 2052 3193.794632417567
716 2150 2063.8923099006215
716 2204 2220.610777019302
718 719 272.5290274369159
718 728 2361.312022978358
718 746 1899.520668127511
718 748 1795.7639990732546
718 750 1591.6184715161419
718 755 2918.5409647791143
718 758 2809.355554140967
718 770 1134.3662561012354
718 783 1902.1705721774701
718 1004 109.31505713708131
718 1380 1649.281037257914
718 1394 2065.0329497232033
718 1395 1802.1378096106648
718 1396 1817.6616832867219
718 1399 2176.7805738101533
718 1400 1642.800312985714
718 1401 3108.9087422273738
718 1404 2492.3707365470723
718 1409 1494.7195254120957
718 1411 1533.7994120338628
718 1413 1773.6361243733547
718 1422 3392.8977268059475
718 1427 3212.264183816364
718 1428 2671.6021862391494
718 1430 2628.5376597001787
718 1438 4046.7481552977156
718 1478 7725.892221443936
718 1635 7140.511004770507
718 1708 12166.586370782199
718 1714 9140.253922052438
718 1846 9267.607318390055
718 1862 9117.055292356914
718 1910 6945.637022941808
718 1934 8038.967937240309
718 1943 1193.6815019163514
718 1953 2894.159317229497
718 1956 2627.0524520676886
718 1963 1396.475986509557
718 2007 2612.378158096102
718 2173 1106.3515363596396
718 3091 1986.0623365373829
719 720 361.2588024759031
719 722 284.4329172862994
720 722 81.032359259671
723 728 1373.2387045654077
723 755 1349.0880329274642
723 758 1380.3800538695139
723 770 1370.4354710845344
723 1010 4056.389990660259
723 1401 2894.2243464007506
723 1428 2827.1921864879
723 1943 872.5564435629668
723 1953 2447.576088531089
723 1954 2248.1040476950175
723 2007 2808.387799082889
723 2173 1406.7704293947543
723 3047 364.27015704441914
724 728 150.5982032275297
724 758 522.7852764937762
724 762 1689.5990627124984
724 1981 1316.892648463086
725 728 402.3501884152421
725 1981 1102.1928079319337
726 727 100.68993872775336
726 728 177.1750432129826
726 762 1847.205412581243
726 1981 1328.9382034112646
727 728 267.83229622584764
727 758 335.8022873769545
727 762 1891.0895090638696
727 770 1463.166844428598
727 1981 1231.3519210847442
728 739 2305.0115505981457
728 742 495.582993634726
728 746 554.8214267545779
728 748 833.6034789563465
728 750 828.8888580374523
728 751 626.38699202747
728 755 816.920721692986
728 757 693.8175031930565
728 758 603.2173225794428
728 759 527.9421451798377
728 760 1578.172734517643
728 762 1701.9358301333002
728 770 1250.740058125185
728 771 1385.8907609870519
728 772 1612.330431301487
728 780 936.4950766614504
728 781 790.1670024576603
728 783 464.6542583229595
728 784 672.9640788251297
728 785 707.5034193274261
728 788 350.3327523041585
728 1004 2448.5564110954633
728 1010 4222.902589893604
728 1049 8968.05882335158
728 1051 9154.048748185049
728 1371 3879.8407388625315
728 1380 2771.7175990741193
728 1394 1067.6613950918124
728 1396 1369.4442764388664
728 1399 571.2188315996104
728 1400 1079.1319503101406
728 1401 1572.014721170779
728 1404 1025.1588900225133
728 1409 1754.4014514316373
728 1413 1739.0055766242504
728 1428 1662.5458440335287
728 1430 1637.543138578398
728 1486 5546.015362039044
728 1635 7451.951387711218
728 1822 7165.313875163913
728 1862 6805.043745982575
728 1877 7566.466040191225
728 1910 8451.051267727778
728 1934 8248.262820037997
728 1943 1278.8964135274678
728 1953 1099.076105565019
728 1956 943.1834871800949
728 1957 2374.588989299912
728 1963 2332.5723266752575
728 1975 2594.51342444219
728 1981 1457.7511002833767
728 2007 1668.1599026312035
728 2052 3264.8765996213883
728 2117 2960.0352312814616
728 2173 1287.0181303840895
728 2177 234.2557301114674
728 2182 3161.1261986861655
728 2611 1447.864865024272
728 3178 3968.5549273737756
729 735 97.46292071065804
729 739 1419.8028893216008
730 733 233.23488610886164
730 734 357.0236762295209
730 735 509.09462162564114
730 2457 24.088926762644565
731 737 474.7889054222603
731 739 221.6703258261867
731 755 1551.6095534321823
731 1972 1919.3739900749242
731 1981 975.30455644571
731 2118 1965.1872105124057
732 734 89.14886562401918
733 734 143.6809139911447
733 735 277.79629374610136
733 739 1697.3200318492732
733 2457 243.32058657288138
734 735 166.34742466125715
734 736 119.51228829063136
734 737 1589.0545259929374
734 739 1554.0548583429477
734 740 94.74492114809229
735 736 256.35762288073
735 737 1508.5399005024613
735 739 1448.6515561075412
735 740 239.66087828165828
735 1692 3844.504678679876
735 2052 984.9203831336645
736 739 1673.1475305458052
737 739 277.01257426570265
737 755 1308.6111402593615
737 758 1529.8518853343796
737 1181 7965.2965368519735
737 1183 8180.129001262169
737 1333 6601.39218322872
737 1714 5360.74906586068
737 1972 1668.6095266596508
737 1981 984.5098575077978
737 2052 1190.7574320648716
737 2104 1556.0222036392893
737 2118 1611.687856397495
737 2831 813.3741244327616
738 739 907.566890849618
739 750 2970.817110655386
739 755 1495.6716750926496
739 758 1723.4939454494113
739 770 3222.0813563651363
739 780 3197.6057973155494
739 1010 6137.803046700515
739 1162 7293.539824921589
739 1165 7439.113879021025
739 1180 5612.3323319380115
739 1181 7715.161966929552
739 1183 7935.286918986215
739 1192 7928.120455592676
739 1202 5643.02895008735
739 1203 8800.51944727358
739 1209 5857.314485549011
739 1216 6497.838384378479
739 1333 6501.807069995836
739 1394 3372.381404041055
739 1692 5124.087691677473
739 1714 5433.277400078472
739 1746 6677.17590815621
739 1846 5550.6986044926825
739 2007 3913.3246678753085
739 2052 965.1390854629842
739 2377 3001.8946243640476
742 770 916.3744307715863
742 783 192.24563978266042
742 2173 957.9340189969557
742 2458 148.90401233914645
744 750 398.0379104113823
745 770 377.37230224593554
746 750 308.7449917524475
748 750 313.33851080193375
749 750 423.69050952516017
750 751 206.52461957207123
750 752 426.60967017190615
750 753 247.88669983757268
750 754 396.61214852311264
750 755 1566.277999598659
750 758 1388.512657254989
750 770 457.49517894434456
750 780 342.630818859999
750 783 457.2839726817817
750 1004 1667.984329740616
750 1007 1441.9380791367505
750 1010 3394.5420845408785
750 1428 1497.638009349994
750 1943 759.0581559425515
750 2173 485.8103810369223
750 3086 3409.563499143971
750 3178 3140.5089383113664
755 756 217.47825022116288
755 758 230.28157656587922
755 762 2288.5755047576426
755 770 1911.7121363932224
755 783 1115.8324632012964
755 785 1251.5535626643475
755 970 4040.4056682790865
755 975 4298.136312426386
755 1004 3018.433110401848
755 1007 2833.6922156862197
755 1008 4926.32944472436
755 1010 4919.429027941345
755 1394 1880.1139014953712
755 1401 2187.0257929176933
755 1404 1770.4927600996018
755 1428 2410.8971466397775
755 1635 8200.319770630224
755 1714 6224.948660802702
755 1822 6566.313349378039
755 1862 6201.217893251113
755 1943 1731.2885156140715
755 1981 792.3621839197023
755 2007 2427.496364095713
755 3178 4635.890935182733
756 758 164.70802049638726
757 1981 904.447473827742
758 762 2165.574137074164
758 770 1761.9419239670924
758 771 1819.933363310707
758 781 1198.2997600007443
758 783 951.5124467851981
758 784 1014.7387675074627
758 785 1120.2241004363734
758 792 7525.916830276071
758 879 8216.894415859402
758 1004 2905.8058094870785
758 1010 4767.9199975389265
758 1014 5108.934688370751
758 1051 9594.622607711193
758 1183 9609.005945987079
758 1394 1657.7015323831274
758 1401 1965.5729127118675
758 1428 2180.6461879544045
758 1438 6539.65768873708
758 1478 9279.796708247282
758 1486 6147.852037333175
758 1600 10305.62205685188
758 1635 7970.755403309803
758 1672 9031.306838052666
758 1692 6010.001896883279
758 1705 9375.725941374916
758 1708 9534.112392301535
758 1714 6332.289994116502
758 1746 7845.036319923447
758 1783 7835.386553401882
758 1802 7531.521039124025
758 1822 6673.183952738028
758 1846 6459.933884940194
758 1862 6309.477963047546
758 1877 7130.729343807973
758 1905 9171.921872327075
758 1910 9054.149451921085
758 1934 8743.114531913232
758 1943 1639.4885162052653
758 1953 1480.55168192388
758 1981 996.1889467013913
758 2007 2197.236819335398
758 2031 6083.766147106676
758 2052 2688.0900386065973
758 2117 3337.4458775586977
758 2173 1802.062934654812
758 2458 728.856320587457
758 3047 1275.9350922559101
758 3178 4494.978179460858
760 761 402.2744078663824
760 762 406.66648171285294
760 763 526.3421249428462
760 765 493.8916757719628
760 770 365.5495852791058
760 771 542.6947150234292
760 773 566.9213617331812
760 774 670.0750221880784
760 775 558.8552330657556
760 776 695.9428871736031
760 777 581.8610477388091
760 778 907.8919995765259
760 779 742.5893122786525
760 783 1162.0760962208399
760 957 3237.56417209882
760 971 1841.4873082498477
760 1380 1444.3511619423996
760 1430 1747.835064931711
760 1975 1050.7544675554677
760 2080 1258.0385949680012
760 2172 562.364444251735
760 2173 323.12822224427913
760 2182 1676.123632277885
760 2454 554.7711751354334
760 2459 858.5277898909944
760 2460 447.63541867397737
760 2461 856.954034969004
760 2462 543.1838047458003
760 2867 737.0717318295091
760 2887 558.2735413398575
760 2888 759.5500978175974
760 2890 442.74622598255473
760 3049 507.55081166813494
760 3109 430.0504557647829
760 3140 925.7581838541636
760 3141 591.8522132864505
760 3146 667.0769012021003
760 3178 2390.761936619628
761 762 398.21729342135853
761 770 713.5619341313952
761 771 729.7259681348584
761 777 592.2700133992271
761 778 726.9214520995891
761 970 1742.0934743842115
761 1975 779.1415793697089
761 2173 675.2395602102077
761 2454 258.8575400495272
762 770 484.8753846617504
762 771 356.4195686650721
762 777 900.3057676710387
762 1394 1495.1813285906017
762 1401 2546.8355148285973
762 1413 1395.288454033297
762 1428 2178.244683040484
762 1430 2134.867453913988
762 1432 2501.898828024374
762 1975 1176.870871401097
762 2080 1286.2136493434346
762 2173 463.09232246938063
762 2454 310.40941632969276
763 770 872.2567412521723
763 771 920.7997636524914
763 2173 831.627947824081
763 2454 409.72351369595
764 770 463.118156399583
764 2173 428.2058684010895
765 770 858.4554931143979
765 2173 816.1849829173223
766 770 563.8111761742146
766 2173 522.3992913793322
767 770 696.840106112687
767 771 857.9761424878566
767 2173 654.4820312909262
768 770 620.454482721185
768 771 727.0000453804188
768 2173 578.6230966093264
769 770 362.9416226781564
769 2173 347.7877844009946
770 771 330.516687709284
770 772 474.11717061152666
770 773 932.4387592891262
770 774 1035.2683316882926
770 775 918.1333763778063
770 776 1050.472935706943
770 777 920.6211120384196
770 778 1270.9577708438994
770 779 1108.1352651771108
770 780 661.7652907664793
770 781 609.0609443393663
770 783 813.289571475524
770 784 808.5868983068254
770 785 668.7465400567871
770 957 3588.633623316872
770 959 3331.92423480657
770 960 2586.0693130903933
770 965 2511.428250432978
770 967 2133.6455838156
770 970 2355.660870004247
770 971 2086.8800198651334
770 975 2430.7593343742965
770 979 2432.223576025678
770 982 2059.627647187001
770 989 1770.4384210884032
770 991 2236.16092601587
770 998 2493.2508563817537
770 999 1523.8326069672526
770 1004 1212.3024612922015
770 1005 1382.523749507432
770 1006 2169.692398165333
770 1007 989.6074021237391
770 1008 3017.842518952532
770 1010 3008.367333424393
770 1014 3351.3197293183016
770 1019 3957.4180893766306
770 1020 4171.274314305717
770 1027 3958.2139441321424
770 1030 2051.1038197381336
770 1051 8996.503680479746
770 1183 10549.0047445489
770 1370 3927.9224421268364
770 1371 3423.6764183467544
770 1373 3732.5007220136667
770 1374 3662.464569346594
770 1380 1785.7773281249977
770 1394 1054.0402184836714
770 1395 1058.4548437834603
770 1396 958.7100878245037
770 1399 1052.6003981950328
770 1400 624.1610253226255
770 1401 2095.4626743094577
770 1404 1436.2270072209533
770 1409 954.3265299164962
770 1413 1141.9907114662606
770 1414 957.0686817513808
770 1422 2880.614514816856
770 1423 2545.1745061244064
770 1424 3400.8424092233768
770 1427 3358.773028361432
770 1428 1780.660132052316
770 1430 1738.0880345533506
770 1432 2205.692072077163
770 1434 2497.954507605666
770 1438 4819.955655480162
770 1477 5957.859198481078
770 1478 8008.971290799948
770 1486 4558.524214264478
770 1502 5301.458113256006
770 1518 6042.148712740181
770 1595 8376.616705589324
770 1600 8669.284591387985
770 1635 7071.6431618842425
770 1639 7885.51700070967
770 1668 4722.076993007556
770 1672 8030.027291697245
770 1675 1121.3277725335827
770 1708 11034.250516089374
770 1737 10258.79762531648
770 1822 8413.0304999792
770 1862 8051.755361482347
770 1877 8813.94652224168
770 1910 7506.23681291543
770 1934 7937.098682658257
770 1943 537.5504047141884
770 1953 1807.0000965854224
770 1956 1540.8105021391523
770 1961 1069.4683292139603
770 1963 1348.038619769636
770 1967 3504.876107269107
770 1970 3200.6622979589956
770 1973 546.0794243583679
770 1975 1415.4630267023688
770 1977 8759.753436480996
770 2029 1532.421152339421
770 2031 4774.206394493705
770 2043 4176.668199763838
770 2073 3560.04843697386
770 2080 1610.3603660379827
770 2102 4487.495246742295
770 2172 426.05324705309545
770 2182 2040.9816296805939
770 2183 2715.282550103562
770 2200 1952.7765059585674
770 2207 1850.7372292680302
770 2454 765.9292438275004
770 2459 1203.813580448303
770 2460 797.7667859675794
770 2461 1212.4820913226572
770 2462 904.4675666272627
770 2463 371.8571128862171
770 2539 1558.220838250916
770 2603 1469.8030264888514
770 2604 1427.6631038278522
770 2867 1100.668082634524
770 2888 1123.016034655027
770 2925 2345.1969150527198
770 3049 826.2278583417791
770 3054 1710.6942255715762
770 3109 601.7098297410504
770 3140 1277.2375175767174
770 3141 952.3891901875936
770 3142 235.47759441636788
770 3146 1031.0833740320163
770 3147 418.7220580279003
770 3178 2733.518125441519
771 773 1056.509280680379
771 774 1141.4129306862205
771 777 1121.4671330411193
771 1943 283.8078321668881
771 2172 124.12775620635918
771 2173 343.46536356976884
771 2454 663.7783850432137
771 2867 1189.460953135733
771 3049 834.4920980102764
771 3141 1033.9924208693262
772 1430 2194.3720118394626
772 2007 2190.1948523966616
772 2173 467.5529690329709
773 2173 890.0023293565099
774 2173 992.9255963189462
775 2173 875.958228398621
776 2173 1008.6334196330693
777 1414 273.30769305738727
777 2173 879.7693988679649
778 2173 1228.602492912406
779 2173 1065.7174143981877
780 1394 406.4237813896638
780 1401 1434.0199926905414
780 1414 945.5352215178185
780 1421 3223.3281349590443
780 1943 1079.7234249837677
780 1953 1161.6024931825868
780 2007 1129.8004241493938
780 3086 3371.810913845711
781 783 334.88055693861844
781 1010 3600.8873654683366
781 1972 1116.4532613627828
781 2173 651.5026530851737
783 784 286.37181475095184
783 786 297.1942378822384
783 1008 3828.703830156358
783 1010 3816.466542750329
783 1428 1725.4093656357197
783 1943 822.9373678833341
783 1972 847.9214895968996
783 2173 852.5710160700809
783 2458 237.66823275392574
784 2007 1979.1111644474772
785 2173 710.955382732267
786 1401 2088.355359700116
786 2007 2001.0828375904773
787 788 302.2723934433322
787 1981 1500.6601872713486
789 790 81.42990415599814
789 793 285.17129074865113
789 794 460.1774208783924
789 795 314.9558698053687
789 802 636.8817306774431
789 872 227.02535860242241
789 873 355.12342638133293
789 898 642.879628351435
789 899 343.94207687873353
789 1356 751.7065744410322
789 1692 2292.5915346843535
789 1714 2111.30466332297
789 1746 930.5284961804114
789 1793 2731.915766103339
789 1802 1778.5158739530254
789 1846 2032.0519391348892
789 1862 2102.6639524855855
789 1904 1716.416938188607
789 2465 121.78501408338798
790 2465 40.7375790783143
791 793 226.89544218814
791 1356 306.9535487741007
791 1360 672.0060170442625
791 1746 1427.2371623838853
791 1862 2510.7414128084924
792 793 266.9018261628244
792 794 138.51287356079908
792 803 1006.734269264295
792 864 1589.5763622514785
792 1234 5783.460220046031
792 1257 1664.851570739951
792 1310 3534.172323262533
792 1333 898.0027489567658
792 1344 713.3565541711537
792 1356 249.4281015485704
792 1401 8700.722948124294
792 1428 9243.381107750985
792 1692 2657.8273704969415
792 1709 2844.7239970565206
792 1710 2766.712101010592
792 1714 2521.8259582879537
792 1729 1470.770476807791
792 1744 2688.667411504919
792 1746 1466.2981930397946
792 1782 2986.0959284871387
792 1799 3089.0439302887507
792 1802 2313.4534623788627
792 1822 2429.6836876454477
792 1842 3167.6770634625245
792 1846 2459.124775739483
792 1862 2508.2163494950237
792 1877 3192.0934999291176
792 1886 2427.166756525782
792 1893 3722.0779086131365
792 1904 2227.52852335312
792 1974 6026.824726998754
792 2007 9296.617970380876
793 1344 970.446055286512
793 1356 501.86564976130427
793 1714 2352.786279309976
793 1746 1200.7613324294266
793 1862 2341.896738023414
793 2467 102.52153152100685
794 802 753.9813794722035
794 864 1476.7363894282128
794 868 1824.8748441407672
794 873 277.1501760989469
794 877 669.7493052304195
794 879 1418.0025560593988
794 1181 5409.854822411925
794 1183 5292.4533413585195
794 1257 1602.1481779312826
794 1310 3483.1595634398755
794 1344 846.1676916987471
794 1347 1017.4308275721231
794 1349 896.4298251039824
794 1356 386.8340910842419
794 1362 698.096108118415
794 1364 694.1149214575472
794 1692 2664.4019216967677
794 1714 2512.537854331774
794 1729 1372.3308415817623
794 1746 1365.5637139909882
794 1802 2238.1964191384436
794 1846 2443.528986020392
794 1862 2500.672804489385
794 1906 1624.9264952490128
795 864 1487.558523402167
795 1356 495.9272788156778
795 1692 2553.11701686522
795 1714 2391.098448779296
795 1729 1227.307939009277
795 1746 1221.1372355483657
795 1862 2380.3241505352703
796 798 295.8810229857166
796 800 470.4631542502537
796 801 361.34353307832185
796 832 1056.3654310061568
796 852 199.56503524416544
796 859 544.1430202849309
796 864 1358.3710026001852
796 868 855.2283432223752
796 871 203.34341285607783
796 1257 2102.9979815891575
796 1708 3531.492806861219
796 1714 3307.3879589836943
796 1729 1672.2593173153493
796 1737 1782.0847810781202
796 1746 1640.008603753778
796 1793 2140.0789810786555
796 1802 2205.9336107803388
796 1822 2995.908928973773
796 1862 3320.751384638087
796 2002 268.6231833351488
797 798 119.10654586759668
797 799 127.79648461910818
797 800 72.95032391856022
797 801 191.0369439739348
797 884 703.7308733535314
797 2076 41.31219310154033
797 2469 333.44342545740943
798 800 177.96441798997185
798 801 172.38552409535876
798 832 1262.4334523036184
798 864 1167.68450011383
798 868 728.4466780423267
798 871 254.7477306715813
798 900 235.6038721581056
798 1714 3104.97888974748
798 1729 1429.8651630221004
798 1737 1784.6590782791347
798 1746 1396.6196026839125
798 1802 2052.2421581256995
798 1862 3116.1744189005694
800 801 261.67112860267207
800 871 419.91174204182965
800 900 233.52536455641504
800 1737 1765.3195978951128
800 1746 1235.7953806468838
800 1793 2124.972067551693
800 1802 1937.2835876834092
801 864 1017.6011295222552
801 868 558.1292488416034
801 871 210.19845621816242
801 1737 1956.9090510878516
801 1746 1491.1692257576042
801 1802 2194.8517648386
801 2469 393.0112843624823
802 803 134.6488501770025
802 864 1024.765729158156
802 884 504.6614526099738
802 898 792.9617046811418
802 1344 1591.9104974304523
802 1345 1929.2076876361348
802 1362 1055.4534697346007
802 1364 1446.3637006311058
802 1367 1852.8149707228588
802 1729 968.8607137767061
802 1746 945.3872921490811
802 1802 1904.4378101405525
802 1862 2540.959227999935
802 1906 1254.6685601732984
802 2165 2378.4763760036794
803 864 1060.7454004390056
803 880 303.9609584241018
803 884 372.8072971589949
803 1714 2493.0550089675794
803 1729 872.523216810709
803 1737 2175.0897353944956
803 1746 846.6524407398174
803 1752 2492.4078291544597
803 1782 2685.974541987897
803 1793 2488.7447548353175
803 1799 2552.4809186180314
803 1802 1802.9443839799442
803 1822 2273.3454285192506
803 1842 2751.6929092727705
803 1846 2389.839471520079
803 1862 2492.8977889589746
803 1877 2776.328201623137
803 1886 2301.7218731490216
803 1904 1881.94931150645
803 1906 1156.550424425711
804 832 306.5061330452716
804 833 1003.80004431856
804 849 2464.1931522131013
804 851 287.5708355748441
804 1737 1537.7657176903028
805 832 421.7042164225348
805 833 505.6842268050717
805 849 1881.680011538807
805 853 1599.9658938724538
805 1708 2081.8085670043997
805 1737 1154.6916177356884
805 1793 1348.7506749314416
806 832 504.32512163121766
806 1737 1582.7758306772646
807 832 769.3390065516895
807 1737 1309.790029557845
808 818 636.4230292793413
808 819 597.7646047168547
808 825 302.24953338705154
808 832 1048.5587819022085
808 833 749.2978080577282
808 845 290.2381282805147
808 849 1266.175188649193
809 832 1134.4758238017898
810 818 1010.9389625877852
810 819 223.68421452368872
810 832 1408.8182289835433
810 849 894.2145112015414
811 832 898.6659161710397
812 813 329.19225558254794
812 818 1274.2786710682788
812 819 525.42495595514
812 832 1543.2051620089678
812 833 896.4808085320255
812 849 997.7110391566015
813 818 948.3320968799071
813 819 496.70573082509515
813 832 1244.852017741501
813 833 664.0394623244472
813 847 430.50148272596226
813 849 1135.4871500609363
813 853 2102.285140175571
813 1737 1039.146959532228
813 1793 971.2916193377921
814 832 474.61992304587403
815 832 1274.7728290323084
815 853 57.3874396080978
815 1737 1349.2023924450516
815 1746 896.1307273999449
815 1793 1701.4121821315346
815 1802 1478.8986539179443
815 1845 2733.466346032185
815 1904 1735.2311153992646
816 832 767.336477585427
816 849 1533.8041702726514
816 1708 1732.685928355637
816 1737 1118.2865329266613
817 832 640.4317756343636
817 849 1721.6949270649436
818 819 1231.572144052559
818 823 823.1012732414498
818 825 825.6968021018226
818 828 1420.2196180602084
818 829 1791.7707980049977
818 832 459.1077523272034
818 833 669.9634806571902
818 834 423.25292214961513
818 838 538.4161321996123
818 841 202.9996944550873
818 844 800.9265503338726
818 845 723.2458277017031
818 847 561.2393001980982
818 848 1170.1341003485077
818 849 1902.3911896120712
818 851 413.0391533262397
818 853 1708.7153781675697
818 854 1136.4671408885079
818 855 760.5975320168163
818 864 2864.4680220752325
818 1693 2641.0782375169138
818 1701 1673.041979065207
818 1705 2643.883342553145
818 1708 2105.68917281695
818 1731 2398.0476272351693
818 1737 1321.6927562624137
818 1770 1114.1118413011843
818 1793 1509.634519718585
818 1802 2363.8521001404765
818 1804 2406.9072878511015
818 1835 2059.134714406096
818 1842 2779.5535254131905
818 1843 2595.468634431765
818 1870 2673.643317165653
818 1877 2789.382954043829
818 1900 2048.6767405114774
818 1905 2078.5252735270356
819 823 426.05811816547265
819 829 560.8998260531723
819 832 1618.9368846760449
819 833 1140.422661103602
819 849 682.8541091144025
819 853 2588.034326328542
819 1701 491.02434937913284
819 1708 881.1087294524962
820 832 472.92608239115714
820 849 1988.5756011903766
821 832 705.9825426648791
821 1737 738.3115518200397
822 832 367.9795073606042
823 832 1239.8137760568181
823 834 399.948787487068
823 849 1080.2529616113475
824 832 305.21599009480354
824 833 550.221433716666
824 849 1999.0768827382074
824 853 1515.3492289580877
824 1705 2730.337127742282
824 1708 2199.1450489212198
824 1737 1173.8258151458228
824 1793 1394.4834637455338
824 1802 2188.5213348263414
824 1842 2646.0609298420263
825 832 1274.1969447130614
825 833 1051.040332247655
825 834 429.41394435842074
825 849 1141.7789119523334
826 1708 1114.9015920689885
827 832 721.9160715363637
828 832 996.4320094382977
828 833 1194.1916393709648
828 853 288.8868656807341
828 854 465.3687873551595
828 900 403.509544744774
828 1737 1156.0746250680431
828 1746 1097.5676470329324
829 832 2177.0132054918363
830 832 209.6215245490768
830 849 2121.634540884983
830 1705 2856.407595623078
830 1708 2322.8773876173764
830 1737 1263.7134881686304
830 1793 1503.7422249380973
830 1842 2741.0349517841505
831 832 495.5188934433839
832 833 713.1656731051328
832 834 852.4366974151674
832 835 891.8525596533298
832 836 367.0891932850262
832 837 212.506693298867
832 839 1032.710383713361
832 841 660.2949286449552
832 842 448.08040101201124
832 844 735.936138841852
832 845 1177.6242202232222
832 846 368.09046841194305
832 847 814.4278653504698
832 848 714.96992792255
832 849 2300.996328112832
832 850 341.82530847557473
832 852 879.3766303704152
832 853 1284.3597630096438
832 854 677.820386481613
832 855 304.4775645448165
832 856 537.146828660507
832 857 324.12158428810295
832 858 576.7482472985861
832 864 2411.072194422483
832 868 1910.4277201014784
832 871 1258.5855661948722
832 879 1770.7286871665003
832 1051 11253.74626257078
832 1183 7433.097853950716
832 1234 6596.582492009267
832 1250 3135.7800389150734
832 1257 3158.911086246841
832 1310 4244.993277168894
832 1333 3575.6906143316196
832 1701 2016.6474452796379
832 1705 3028.4248434851274
832 1708 2500.004987425228
832 1714 3342.715227231661
832 1737 1231.6805852880616
832 1746 2050.7107527678622
832 1770 1124.42744329743
832 1782 2932.779386662766
832 1793 1510.336458875791
832 1795 1204.5607672302397
832 1802 2143.397466304778
832 1822 3002.180696589903
832 1833 2330.139690577358
832 1845 2333.4748028808967
832 1862 3365.341373338362
832 1875 754.2450082202521
832 1877 2718.7114366456735
832 1900 2442.1572904047907
832 1904 2498.5869817568746
832 1905 2427.4730520270464
832 1906 2060.1575823715852
832 1974 7397.383163866743
832 2470 238.51917834738111
833 834 687.793507330414
833 836 1036.814761678655
833 838 757.4146608386629
833 841 773.0971653818012
833 843 573.9567318666043
833 845 1015.6149224765044
833 848 1260.0630496258727
833 849 1798.8935356874738
833 850 449.0969861247791
833 851 718.3998363077471
833 853 1448.3468107092438
833 854 1145.8611406124778
833 855 840.1643190598702
833 864 2869.792062072573
833 1737 661.7460463561007
833 1770 447.59388640615856
833 1782 2383.394509968781
833 1793 845.4452859594588
833 1802 1745.2455679590485
833 1877 2119.523976248954
833 1905 1832.1557999221202
834 849 1479.86591194692
834 1701 1272.666479497747
834 1708 1683.6004146547543
834 1793 1410.0386146337828
836 849 2667.1719186644673
836 853 1128.1430781211684
836 1737 1450.6600749477313
837 844 606.2277951148435
837 854 566.8754413861683
838 849 2376.0441061675706
838 853 1218.0146347638517
838 1737 1242.029944427303
838 1793 1533.4267958789048
840 849 2084.455150676854
840 1708 2287.5420907349276
841 849 1756.8893575305528
841 851 612.7306142300474
841 1701 1567.0785887826235
841 1705 2503.604605290643
841 1708 1961.7809416098528
841 1714 3680.151785756032
841 1731 2324.552391965141
841 1737 1434.843049644859
841 1793 1582.9564428671442
841 1799 2462.891917339222
841 1802 2505.7179342568647
841 1833 1786.5964711882748
841 1845 2133.615216746986
841 1877 2872.6297487542397
843 849 2126.502399023499
843 853 1383.5728287459458
843 1737 1149.4172336203078
843 1793 1400.5000862889283
844 853 1281.835777000945
844 855 791.3355252204009
845 849 1263.2298271657098
845 851 1134.283452220614
845 1701 1165.0503669712643
845 1705 2010.8815179696544
845 1708 1468.1045039620628
845 1714 3842.790102520083
845 1731 1972.4274936032607
845 1737 1617.4039693003856
845 1793 1647.937756373791
845 1802 2724.9595921597565
845 1833 1292.6718982366253
845 1843 1963.7152340317327
845 1845 1917.783891147091
845 1877 2909.175289329168
845 1900 1414.4369261805014
845 1904 3083.5579229568375
846 849 1949.3306072700293
846 853 1458.2907811785035
846 1737 1024.4015015264486
846 1793 1243.7319488298942
846 1875 514.4342089912348
847 853 1760.5692608298439
847 1737 933.0695654033502
847 1793 1022.4279586999932
848 849 2990.925342551909
848 853 815.7811998216255
849 853 3234.6809801621175
849 855 2549.7712513369415
849 856 1765.1756416010726
849 858 1936.0745199676544
849 1051 8953.75753079954
849 1672 10619.064689502713
850 853 1143.9112714679416
850 855 391.3953098985534
850 1737 891.1433569906455
851 853 1337.2990821628669
851 857 277.81444713732986
851 1729 2124.5778598587717
851 1770 1139.206740166123
851 1905 2405.482216134901
853 854 708.2876136062931
853 855 994.5351701619651
853 864 1553.9230189214347
853 871 875.6526054578926
853 879 509.16902588089454
853 880 1097.2431996335245
853 882 603.225366624301
853 900 416.879415069546
853 1234 6288.354149007418
853 1257 2277.752851987002
853 1310 3827.575851981316
853 1430 10006.510177886159
853 1692 2796.183988708182
853 1697 2163.506442851984
853 1701 2830.4172406969524
853 1705 3871.2337483425404
853 1708 3406.6258486773095
853 1709 2314.3951799332044
853 1710 2013.9507283924877
853 1714 2493.3358887176705
853 1729 884.7750513491679
853 1731 3227.16552621658
853 1737 1307.1970774820527
853 1744 2252.7166532402684
853 1746 854.9611306773445
853 1752 2077.9513230350176
853 1770 1498.7446769490762
853 1773 1828.0963682740633
853 1782 2377.599011443735
853 1793 1657.1947677187245
853 1795 1484.3092966050372
853 1799 1997.631679186498
853 1802 1421.6595776964934
853 1822 2185.0688704327085
853 1824 2438.207848410706
853 1842 2308.702045111165
853 1845 2689.260281889929
853 1846 2367.8013395157523
853 1862 2506.343135694239
853 1877 2330.6470408154464
853 1886 2239.5514193111394
853 1893 2714.630993084981
853 1904 1679.4625699882422
853 1906 995.6141785253731
853 1974 6894.656789858834
854 855 377.4668900528373
854 1737 1357.2364069837079
855 1737 1208.2053696382409
856 1708 1963.4061854899921
856 1793 1242.1952142685725
856 1842 2517.3932499688563
857 1701 2051.286378325178
857 1708 2478.707550441208
857 1737 1510.3283658881319
858 1708 2141.240381859753
858 1737 1522.2333799275455
859 864 816.2420445683687
859 868 320.5353934934421
859 871 344.82945249553075
859 1729 1672.2360279424422
859 1737 2198.08881922473
859 1746 1638.247895537859
859 1802 2396.6781247649
860 861 31.826174320036873
860 863 298.6809406483245
860 868 226.57677965981256
861 863 329.2850427655192
862 863 323.0594200909324
862 868 263.9571365920837
863 2471 223.32898398975615
863 2889 11299.199529255373
863 3082 237.33668175705884
864 866 695.8608092368513
864 868 538.9815859281591
864 871 1161.0330491018642
864 873 1304.791995699652
864 879 1580.810768616861
864 898 1787.0864218990353
864 1126 4773.672747739917
864 1162 4437.347864656865
864 1165 5021.6829476594785
864 1176 2530.7548814759034
864 1181 5295.022120442023
864 1183 5085.958011258292
864 1203 5288.388378752947
864 1209 5282.985117150428
864 1234 4808.616841721397
864 1246 1249.8142678139518
864 1250 1029.3425961319488
864 1253 4490.290482417037
864 1256 715.798829648452
864 1257 755.0520459345851
864 1258 543.0634473002677
864 1261 766.3444172632395
864 1262 450.7086877168264
864 1263 698.4589408833456
864 1279 621.249509920693
864 1283 543.095795141711
864 1287 465.97215686486453
864 1301 3465.661524436648
864 1310 2358.838090884791
864 1313 1580.1719328556187
864 1321 5465.595851803444
864 1322 1614.7595296139555
864 1330 854.9053760406102
864 1333 1368.19874592317
864 1342 1261.507331166
864 1356 1779.8761959546935
864 1360 1091.8747848561745
864 1362 1190.5493213092873
864 1364 2020.1728220286993
864 1367 1984.1249607512764
864 1692 3791.43718418423
864 1708 4845.3647038029385
864 1714 3553.59451547405
864 1729 1892.1950735686646
864 1737 2856.46042945951
864 1746 1861.8520030228779
864 1783 2127.801736924505
864 1793 3210.0409275862366
864 1802 2779.9462939315245
864 1822 3327.3016488868807
864 1862 3553.6087034218663
864 1877 3753.0885788057876
864 1905 4696.207396244002
864 1906 2161.9235035070164
864 1974 5350.859710247564
865 868 186.77459217410038
865 2474 18.650262651497325
866 868 160.6059249502279
866 871 496.043133184317
866 1708 4229.618370884358
866 1714 3528.4485349088177
866 1737 2383.0240481960022
866 1746 1778.262610209114
866 1793 2744.5695110208308
866 1802 2564.8395734113833
866 1845 3761.88977268985
866 1862 3535.3287973435386
866 1904 2777.017692793841
866 2473 42.84653822114836
866 2475 169.18183924695
867 868 158.1669680760966
867 2851 74.85899101641074
868 869 141.5518796489189
868 870 61.84427728449752
868 871 652.1513115640396
868 1257 1255.6454313764395
868 1310 2570.4792256293517
868 1708 4382.033562251352
868 1714 3553.6583355447765
868 1729 1838.1577388943438
868 1737 2504.913077793631
868 1746 1804.6713190636976
868 1793 2865.846160408728
868 1802 2629.0628745557665
868 1822 3288.4302756407474
868 1845 3888.3026314806425
868 1862 3558.989446358605
868 1877 3574.8184990322197
868 1904 2823.82873155557
868 1906 2072.1665066368646
868 2472 80.91129955184364
868 2473 184.3832584520843
868 2474 190.58243410348248
868 2850 71.18970741382434
868 2851 92.64607614392574
868 2914 154.8224276288332
869 870 90.89531454909975
870 2850 127.65599761353256
871 879 1272.2197292110875
871 900 462.68224527705377
871 1246 2007.9556098809
871 1250 1914.7067557170824
871 1257 1902.1803640432713
871 1263 1774.4673429930963
871 1283 1697.7438314338135
871 1310 3122.5275486785267
871 1705 4249.870416198172
871 1708 3734.355415508101
871 1714 3358.3888804196695
871 1729 1683.990318840132
871 1737 1949.6729421240043
871 1746 1650.6616295692427
871 1793 2309.986727106386
871 1802 2293.892555271883
871 1822 3056.5217724243
871 1862 3369.8358141494205
871 1877 3175.1964965782436
871 1906 1849.197008382805
872 873 128.6188209592445
873 1349 1170.0511732911139
873 1364 971.2113019216902
873 1729 1160.2734973087329
873 1746 1148.9006282930145
873 1802 2062.928353062361
873 1862 2457.043669227609
873 2468 243.1513549643169
874 879 422.61444804572545
874 881 165.9947874764351
874 882 324.90980046963267
874 1974 6703.518471390894
875 877 621.1720199917913
875 879 176.583919825919
876 879 500.9306130460882
877 879 758.3966747241192
878 879 816.3492523999686
879 880 674.7428994269178
879 881 258.8050465094953
879 884 425.23278190816313
879 898 551.3075366401077
879 1250 2607.728048029323
879 1257 2218.717046123982
879 1310 3935.5224632171626
879 1332 2372.78271601427
879 1333 2139.2620735923083
879 1347 2435.418586619816
879 1428 9577.292547402627
879 1974 6904.349959542371
881 882 164.40252004002105
882 2007 9586.102225203429
883 884 160.697075579212
883 1746 680.2642111663089
883 2171 21.77752781547487
884 898 754.0783726809221
884 1714 2475.917148700296
884 1737 1843.8342999178185
884 1746 731.0594326708177
884 1782 2555.4744039804923
884 1783 972.848900781745
884 1802 1623.726819769185
884 1822 2217.1823457994315
884 1846 2361.908257650239
884 1862 2480.8799528771256
884 1877 2597.0957553500602
884 1904 1770.8279029359642
884 2171 139.1488683055343
885 898 168.14802441047294
885 1729 309.8314354956461
885 1746 329.9057782124406
885 1820 631.1741611491209
885 1828 300.08766854818333
885 1906 468.2157356503055
886 898 458.187426828184
886 2477 40.157430414460514
887 1729 284.99464740206264
888 1729 98.02466262661787
889 891 196.9044523930184
889 898 229.90131887939734
889 1729 513.7737699153316
889 1746 510.1389656963039
889 1802 1395.6707342299878
890 898 92.43861738173932
890 1729 353.6700847491524
890 1746 363.3307429810584
890 1828 366.290567623551
891 898 117.4716249620737
891 1729 392.86019962447324
892 898 130.9496030759704
893 898 209.04989203077005
893 1714 1625.8927904713685
893 1729 154.96220152810312
893 1746 180.49558564478
893 1761 1224.0419170099767
893 1802 960.5840658917311
893 1849 1543.9332611199627
893 1868 1098.2714320954785
893 1886 1415.5185268715593
893 1904 985.9409917835123
894 897 170.14217659413026
894 898 596.0841057713218
895 898 317.41920362326147
896 898 275.35898546802
897 898 541.1888881773866
898 899 316.7297937200903
898 1357 1752.0770129768177
898 1692 2015.4617728793198
898 1714 1767.2495130239058
898 1724 1536.4752674884367
898 1729 292.9737313178231
898 1737 1844.225100489518
898 1746 295.792064554065
898 1782 1984.5412321857787
898 1793 2090.3197352229563
898 1802 1169.440324072235
898 1828 320.36632797258386
898 1846 1662.3433091958516
898 1862 1768.1346014321316
898 1877 2113.7495548248567
898 1886 1573.6737897401888
898 1904 1179.5359257604548
898 1906 536.3543663981997
898 2476 186.52038515880875
898 2477 420.07312869803343
899 1729 609.2832859783706
900 1708 3502.779716390534
900 1714 2909.068307205987
900 1737 1556.9441170363812
900 1746 1235.696431577255
900 1793 1918.1975203365605
900 1802 1831.3199188566157
900 1904 2096.0364592868045
900 2002 179.50403283767153
900 2153 54.878355929012706
900 3095 6785.807361506626
901 902 263.7689140982664
901 2478 213.88549590707933
902 932 3013.356901789139
902 1632 4984.998818782789
902 1708 7536.262798619641
902 2040 1143.8140962794587
902 2478 222.91627964704864
902 2479 211.0172934363684
902 2480 282.16475871850037
902 2481 266.1460556660362
903 904 122.35068512551982
903 905 867.5644599172055
903 906 2179.3340322202953
903 907 846.2221644266449
903 908 1209.8114162391614
903 930 966.18737561055
903 931 1265.6251795881244
903 932 2156.475999810197
903 934 2898.490518627072
903 1036 3527.550202694077
903 1478 8219.458822645616
903 1603 2710.8619083054427
903 1619 3866.5494552287882
903 1632 3169.7441670108487
903 1708 8891.86244970477
903 1830 5106.856607773765
903 1934 8131.3274791443155
903 2039 2092.939880075039
903 2483 163.27031978414044
903 2485 247.3344310665596
903 2486 308.27737393038194
903 2487 587.6775727842313
903 2488 227.6633856679756
904 905 748.5230906804519
904 932 2140.718616241474
904 1632 3241.2471539378757
904 2042 1060.6247635749141
904 2482 224.59858207116406
904 2483 120.53593455865753
904 2484 277.8420480810397
904 2485 193.9359561971679
904 2486 223.99112746605292
904 2488 160.9645948911274
904 2489 275.00483573252836
905 932 2003.9876036537687
905 1632 3585.373166803109
906 1034 665.2356533995194
906 2041 724.9343183732962
907 931 2101.1898881776924
907 2491 234.2878858686848
908 932 2891.0008059835764
908 1603 3912.366017700446
908 1632 4324.326335115764
908 1830 4200.092174657598
909 1830 4202.747161277542
910 911 214.77549803370948
910 2040 572.7660651105558
910 2909 150.10704134839114
911 2040 646.2903624179702
911 3050 198.2999211160186
912 923 404.4212706698743
912 924 63.9117866840804
912 2040 307.9131043619183
913 924 247.10437026974054
913 2040 452.3023545476017
914 924 180.53788083396594
914 2040 512.8441624014769
914 2492 20.160126830524767
915 927 840.7024545525209
915 2040 1651.8443619398377
916 919 54.35412640788209
916 2040 358.1910632895243
917 927 332.1850036823347
917 2040 641.4565583784322
918 921 36.89801745298974
919 2040 409.1708124156738
920 924 113.87188465096528
920 2040 313.37758981052536
921 2040 598.6904074269521
921 2492 132.70014953292366
922 2040 1406.006504961857
922 2493 171.97509756012522
922 2494 64.01669114045603
922 2495 76.0030640876137
923 924 468.106400568009
923 925 82.25392252801917
923 926 241.38251519567194
923 928 52.61645882818059
923 929 43.376347894723324
923 2040 259.21154194078497
924 2040 355.9343641717268
925 926 160.94461088951118
925 929 47.45333197061033
925 2040 178.5884094438388
926 929 200.17561138729423
926 2040 17.896640291727916
927 2040 918.6278690538024
928 929 89.2252496102629
928 2040 307.15379241537926
929 2040 218.06559596369507
930 931 527.988757549289
930 932 2238.5831193761956
930 1603 1893.832257323429
930 1632 2483.935973707221
930 2039 1281.5428097070971
930 2137 217.24368262123255
930 2499 67.76187666767552
930 2500 164.9536424981816
930 2503 140.29925990148172
930 2504 147.2290537381133
930 2505 125.16839436118012
930 2507 204.50641457012708
930 2508 204.92276647711904
930 2510 270.68661212450974
930 2511 93.15380895165049
930 2512 152.3061349478012
930 2513 101.57307867360623
930 2514 163.69016454183318
930 2517 139.03606481167736
930 2519 164.009213691907
931 932 1860.2971371798417
931 1051 6976.292399535635
931 1603 1450.2939783125591
931 1632 1980.623011578146
931 1977 7078.154737522272
931 2040 4633.773399933578
932 933 223.45239877325534
932 934 745.6915328163641
932 935 1062.676323093794
932 936 334.86418908896565
932 938 106.71390897566097
932 939 209.53952973547285
932 940 254.55629172945947
932 941 228.83561027118196
932 942 495.8837902501199
932 944 375.2282120222193
932 945 433.6173436512175
932 946 1024.856259780485
932 947 181.82096326031257
932 948 144.40700177157302
932 950 507.74548027351483
932 951 212.99657078030503
932 952 480.2643342442646
932 953 143.05972063155002
932 955 329.10654196178905
932 1051 8836.330778499301
932 1234 9652.971463999755
932 1478 9170.1515831922
932 1595 8703.36551490549
932 1600 8408.342428306985
932 1603 2295.4767280707406
932 1604 2216.673250704033
932 1605 3619.482314216583
932 1619 2637.3646822563574
932 1620 3251.3450344230564
932 1626 5336.520223917403
932 1631 1091.4513683797443
932 1632 2159.584118996497
932 1639 9300.103897480098
932 1672 9368.531630713154
932 1705 10508.970956753028
932 1708 10486.571189097105
932 1830 7088.7170858845875
932 1910 9555.39234371857
932 1934 9656.28722856897
932 2040 4093.37090908169
932 2055 328.0349943206529
932 2490 2487.3319836617384
933 952 307.6239620495677
934 935 327.92009367675234
934 937 152.365571283596
934 938 668.2064222830508
934 941 516.8877141062165
934 942 250.12012025819655
934 943 464.48960439355216
934 944 435.0538370783161
934 945 351.48495520289737
934 946 346.7344864293524
934 947 677.6102214207903
934 948 716.8823034590414
934 950 245.0808722529019
934 952 304.32514994674074
934 1600 8403.260289278072
934 1603 2497.8529386589066
934 1604 2406.633905099652
934 1619 2413.6340992084365
934 1632 2125.967415727162
934 2055 574.9516611179279
935 952 631.5989809101375
935 1603 2552.0583052178317
936 952 400.94083467446785
938 944 273.9673371591717
938 952 387.42876944039085
941 952 263.2447683322181
942 944 229.0796943950104
942 952 132.33368827810807
943 952 767.9532831013292
944 952 131.13413622051587
946 952 640.5219945117582
946 1603 2401.22844756824
946 1619 2145.4822375041426
946 1632 1938.9241610400177
947 952 380.46040031620674
948 952 423.59445908003556
949 952 441.20820913148935
950 952 80.80311026333784
952 953 619.3030993970276
952 954 272.2042645519289
952 1603 2510.9705205625482
952 1619 2589.4671036629825
952 1632 2227.6931553461764
952 2055 270.9436532482166
956 957 641.9564713954674
956 1027 1004.8417765111177
956 1486 1543.0295194156968
956 2183 325.4687547320857
957 958 462.69448727603293
957 959 299.030425402976
957 1006 2086.9097919810565
957 1010 1686.3971249001845
957 1024 220.88417779395763
957 1027 373.13487329243185
957 1380 1808.5883225417151
957 1424 443.61702762935874
957 1486 1001.2934873913324
957 2182 1645.6243560849055
957 2183 886.7483347613943
957 3086 1727.9526994788164
958 1010 1238.0205775827933
958 1486 1131.0414195309709
958 2183 777.4298692914514
959 2182 1448.7882534528003
959 2183 678.6316921809735
960 965 86.18565490496896
960 970 1272.1939928605238
960 971 1113.7364083379864
960 975 420.6601364868318
960 1004 1545.7570274617547
960 1006 420.4239922673763
960 1007 1679.4740973024468
960 1008 452.4404018043466
960 1010 487.0583000141121
960 1012 499.96648646821217
960 1014 826.7043167887864
960 1019 1663.281231192527
960 1020 2381.2376333242314
960 1024 2178.6047992865906
960 1027 2307.5508992332175
960 1108 7369.844939369328
960 1438 2412.7301073399944
960 1456 3751.7475303202323
960 1486 2619.787842148466
960 1509 3246.99392458805
960 1510 3142.6874445673307
960 1512 2931.533736752282
960 1513 3415.4751053743475
960 1516 3405.9004666103933
960 1910 5386.277265937804
960 1970 1372.1628840562746
960 2080 992.4091322735637
960 2182 1018.1115924211615
960 2183 1398.742146421423
960 2883 2396.0333333968533
960 3054 877.3963178888441
960 3086 479.0961814592525
960 3178 147.74789037172556
961 965 1172.8044021956332
961 970 529.156490676121
961 971 765.5073738097321
961 975 855.7073146584997
961 978 1283.017196352937
961 979 422.87668972040797
961 1010 1525.2707752020272
961 1012 1542.7925001894243
961 1967 653.0918100933964
961 1970 349.4688736506189
962 970 1126.6388650024983
962 975 282.87783592211196
962 1012 606.3273926871933
963 965 1079.1001399859524
963 970 299.7210644211802
963 975 733.9026694547317
964 965 1028.1489120663923
964 970 406.376984408351
964 975 693.6849706004274
965 966 1298.34987176347
965 967 600.2379639665143
965 969 810.9862859450901
965 970 1203.8935187185198
965 971 1034.7302385545354
965 972 1130.015778988246
965 975 353.1419346897298
965 978 1317.0578669963916
965 979 1091.1075071575608
965 982 1207.1333016795168
965 1004 1461.3500420540647
965 1006 355.24171509611915
965 1007 1597.931776062843
965 1008 537.3399283052084
965 1010 573.1584961079452
965 1012 585.959751984611
965 1014 912.6713340109052
965 1019 1747.1766430088728
965 1020 2452.3592345403486
965 1027 2372.9891061001713
965 1108 7450.742242281057
965 1438 2498.913156711917
965 1456 3835.4084576711925
965 1477 4080.0627353606196
965 1486 2696.9581358347255
965 1506 3259.878003064954
965 1509 3330.842429659769
965 1510 3226.9028087348993
965 1512 3016.323016070941
965 1513 3501.376343116676
965 1516 3489.002034359736
965 1675 2018.8923458928969
965 1965 1538.9255514400832
965 1967 1596.4723312849549
965 2183 1430.849365392877
965 2883 2464.7711930170326
965 3086 565.2153785777887
965 3178 224.82545373121135
966 970 641.6839133724756
966 971 901.9904636170083
966 975 992.2532058402387
967 970 695.8048440640604
967 971 452.5493708341011
967 975 329.1201267398789
967 1010 1165.961327562191
967 1012 1179.995320165347
967 1675 1465.5396576662579
967 3178 792.4969661495168
968 970 1098.1716061815534
968 975 1168.5175261676043
969 970 689.4539097325446
969 975 571.0307448796007
969 1010 1383.6820199647543
969 1012 1396.7741986043116
970 971 324.4384999513015
970 972 712.8596653149923
970 973 1019.7091876579578
970 975 851.8344291358926
970 976 1044.7735493828156
970 977 956.6733115611112
970 978 786.0886995181796
970 981 571.5097186689501
970 982 296.03323665570133
970 985 1436.1730084569704
970 991 1756.0355533571671
970 992 2009.3898174612489
970 993 1954.1004244012959
970 998 1603.6701222426016
970 999 1951.0336925629456
970 1000 1879.3259120513605
970 1004 1159.9069476351945
970 1006 1218.561605699978
970 1007 1397.1518119064763
970 1008 1613.6269715478963
970 1010 1698.9957818087962
970 1012 1715.611385307291
970 1014 1973.087429956102
970 1015 1648.552266589684
970 1019 2877.4624305683046
970 1020 3653.157743047723
970 1022 3349.369831980718
970 1024 3444.7062601187404
970 1027 3576.718137195325
970 1108 8595.195226938356
970 1438 3518.849117954723
970 1456 4653.755733209468
970 1472 5401.743146805003
970 1477 5231.034956676348
970 1486 3879.723619061577
970 1494 4251.007927404823
970 1506 4185.058568295839
970 1510 4084.3957366572768
970 1513 4445.446041065205
970 1580 8335.852379031661
970 1582 7971.485535608059
970 1595 7065.709315283273
970 1600 7359.996002607102
970 1639 7526.12386285756
970 1675 1393.1214622785667
970 1708 13389.838554665985
970 1822 10591.637255340615
970 1862 10225.413842447944
970 1932 8644.779011402525
970 1959 710.7530379329621
970 1964 1331.189076293789
970 1965 1033.4823937108445
970 1966 869.3226529384525
970 1967 1164.58506035181
970 1970 871.8936672524884
970 2029 849.0431946972268
970 2031 2568.7927523334924
970 2073 1204.4457756734482
970 2173 2329.0739161097117
970 2183 2557.429557169349
970 2383 1017.7101017609493
970 2392 320.03849072449634
970 2520 621.2070466161446
970 2521 906.2193043059317
970 2530 1866.2041636685428
970 2540 1195.7728118666735
970 2863 2241.6942621732373
970 2883 3668.0103890562073
970 3049 1656.1938554523551
970 3086 1672.206197740694
970 3096 913.9443937264193
970 3135 4819.9250737596985
970 3178 1330.6314928208662
971 975 707.5493233400157
971 978 523.4420042370925
971 985 1165.525606052531
971 991 1494.0285522534343
971 992 1703.460176013143
971 993 1664.5744002370013
971 998 1390.092616976584
971 999 1631.253234350667
971 1000 1642.6975647465613
971 1004 876.1474483631795
971 1006 969.9325521541391
971 1007 1108.4977500898121
971 1008 1511.683797241702
971 1010 1580.360536151737
971 1012 1595.6644605257288
971 1014 1887.8394714715912
971 1019 2768.4931354177033
971 1020 3477.168645213274
971 1022 3183.08728937897
971 1027 3380.9781425274036
971 1582 8001.190636249125
971 1595 7059.6944091922605
971 1675 1211.9279132554154
971 2173 2057.6337779588657
971 2183 2303.9302223385903
971 2530 1544.3145240408498
971 2863 1960.1312827329757
971 3049 1353.2189207398592
971 3112 266.28512805680714
971 3178 1202.6572734042059
972 975 850.2562590446549
973 975 379.8736184704209
974 975 608.2049109434649
975 976 857.5884226022537
975 977 834.0777868614825
975 978 1070.4529982241977
975 979 738.0171175269935
975 980 1080.469155628191
975 982 877.9199216347126
975 1004 1288.6003537043057
975 1006 491.04775618027753
975 1007 1464.7406444121805
975 1008 805.3827390507178
975 1010 873.0094396067934
975 1012 888.4512090453312
975 1014 1183.7303534372134
975 1019 2061.2762883422624
975 1020 2801.892073915641
975 1024 2595.1235791075183
975 1027 2725.8046497156365
975 1108 7777.661298506552
975 1438 2770.382520592079
975 1456 4040.4810486546185
975 1477 4407.5213744601115
975 1478 6781.620180807168
975 1486 3037.0720349848025
975 1494 3416.847041864556
975 1506 3499.7590182853223
975 1509 3540.2914488693928
975 1510 3441.9706888019514
975 1513 3749.415961091072
975 1516 3688.139470950729
975 1582 7342.060275912982
975 1595 6377.188719726818
975 1600 6674.183194105633
975 1639 6686.486927643984
975 1675 1794.3756435607834
975 1822 10842.357639107435
975 1862 10480.214456824227
975 1934 7491.755125556713
975 1965 1281.678619322362
975 1967 1359.923693581632
975 1970 1085.4457686602175
975 2029 1269.2297149480116
975 2173 2394.061769284296
975 2383 1583.7641933937211
975 2520 237.681226656447
975 2521 843.9118397702613
975 2883 2816.1759681051317
975 3049 1610.4617669967915
975 3086 853.2293736968638
975 3096 1506.1823287458578
975 3112 874.8695590122622
975 3178 495.48952852747277
978 1010 1890.2127377551994
979 1006 1138.6698966539304
979 1010 1568.7884872869272
979 1012 1585.6110570481085
979 3178 1204.8399555704918
982 1010 1750.928509490111
982 1012 1766.358739474861
982 1675 1116.347308133915
983 993 657.4705590391222
983 998 430.22239306215977
983 2183 1243.6801152866215
984 991 353.97472916633785
984 993 605.1672694460168
985 987 737.3986624914298
985 991 331.69089051513845
985 992 670.2187908792954
985 993 538.5572864099848
985 994 868.7687605532192
985 998 417.8659587694604
985 999 790.1296116234878
985 1006 246.75378957614922
985 1010 935.3063192531424
985 2183 1142.3819385248687
985 2527 716.7592681934977
985 3063 584.812219577094
986 993 751.2893916072204
986 998 182.671686792971
986 1010 607.8247600618378
986 2183 1155.6071032519126
987 991 721.7472027751414
987 993 1049.8992980597984
987 994 249.9489956328485
987 998 361.7468954179767
987 1008 242.29861250964763
987 1010 198.04388024672397
987 2183 1205.3092247502375
988 998 399.8876408387459
988 1010 152.13745453260094
989 993 406.7750734015704
989 2183 1151.4100002369744
990 993 392.8690589324873
991 993 330.59446127499035
991 994 753.2319050497216
991 995 555.4350643229932
991 998 363.77813534943175
991 999 785.8260193324743
991 1006 539.5656169867611
991 1010 900.4782257698037
991 2183 811.0668864478491
991 3063 603.1678916399572
992 993 236.60202207690585
992 994 1289.9838800406849
992 998 908.2828737631279
992 2183 900.4048340814209
992 3063 1143.6644836706269
993 994 1056.9098484040305
993 995 799.0730297909311
993 996 793.4328952303016
993 997 147.13917620673772
993 998 694.1989095474859
993 999 526.9005283916363
993 1000 501.96475793469585
993 1002 1430.858356062855
993 1003 1132.6433843135776
993 2183 751.7195234238797
993 2522 373.8778195700536
993 2523 993.5803797704856
993 2524 571.4260606060906
993 2525 568.0131902019434
993 2526 109.16286985101456
993 2528 937.1616094779929
993 2529 389.5093370783989
993 2530 598.628201296097
993 2863 308.17514598539634
993 2864 506.194889017683
993 2865 529.75727540335
993 3063 933.7583326773424
993 3064 555.1371985560178
994 998 451.54245030560423
994 999 1538.7203098421733
994 1000 559.3144211119418
994 1002 445.16402062790314
994 1010 240.79153172828538
994 2183 1048.8559637571286
994 2527 1089.2387499677038
995 998 428.22192352410286
995 1003 391.52682947545264
996 2183 372.6521446808254
997 2183 803.4708658485713
998 999 1120.8086446605366
998 1003 804.6550316485534
998 1006 449.040854786739
998 1010 549.671530690054
998 1012 550.094838845294
998 1014 870.245575985806
998 2183 993.2757497309228
998 2527 791.103567945887
998 2528 271.35088065641315
998 3063 240.5715308439374
998 3178 484.1644114946045
999 1010 1670.4521433767684
999 1380 418.14397675847755
999 2183 1205.1118794585739
1000 2183 689.6885458151156
1001 2183 597.6873671280474
1002 1003 451.35293204624696
1002 1010 504.6417442031748
1002 1014 295.54610399827425
1002 2183 1202.0774076660598
1003 1010 720.9019120916412
1003 2183 760.8331703241773
1003 2863 1023.8849366351179
1004 1005 252.5772204673123
1004 1006 1180.0567604402227
1004 1007 238.04507815539506
1004 1008 1998.1822869351747
1004 1010 2021.5460783732738
1004 1012 2031.8784059472318
1004 1014 2368.3408167251337
1004 1030 1117.695819473508
1004 1394 2113.1502911037906
1004 1438 3937.9232784154497
1004 1486 3945.434036115086
1004 1675 604.7093310979866
1004 1862 9214.775563902213
1004 1877 10013.770912370595
1004 1910 6840.668703756609
1004 1943 1297.103125132307
1004 1966 2015.8624868502213
1004 1967 2294.7230283840963
1004 1970 1989.5980024831172
1004 1975 889.479538985415
1004 2007 2638.054063183454
1004 2029 444.04784087418733
1004 2080 791.4511414525114
1004 2539 962.2963320475095
1004 3054 794.7545809555952
1004 3086 2020.422376476425
1004 3178 1683.6863453320252
1006 1007 1287.353660944145
1006 1008 850.4027005900709
1006 1010 853.978249859908
1006 1012 862.4530536636892
1006 1014 1202.379452466734
1006 1020 2542.6060392790578
1006 1024 2286.2790460064975
1006 1027 2427.6601682245196
1006 1436 2549.5493801419957
1006 1438 2758.3378501718034
1006 1444 3062.5963117609354
1006 1456 4142.096318454712
1006 1472 4434.127247354583
1006 1477 4240.513905379254
1006 1486 2829.880302469972
1006 1509 3636.5287090334937
1006 1510 3529.3938686481
1006 1513 3777.40720099378
1006 1516 3800.3442702673506
1006 1595 6381.329223583066
1006 1675 1766.3448474350962
1006 1822 10559.431444294596
1006 1862 10201.514551551523
1006 1910 5678.475282084632
1006 1964 1625.8738397488803
1006 1970 1576.4883350382113
1006 2029 1331.6622301532834
1006 2173 2129.677459762883
1006 2182 750.3026657993989
1006 2183 1339.7134344951558
1006 2383 1678.7541614272288
1006 2528 650.3119319361599
1006 2883 2539.0270898369354
1006 3054 459.05119340471714
1006 3086 859.3708229708212
1006 3096 1626.6868900984534
1006 3178 567.9591942523155
1007 1008 2128.749837471071
1007 1010 2140.683208791913
1007 1012 2149.537880563215
1007 1014 2489.1585911878183
1007 1030 1201.1113028808186
1007 1404 2306.4566158905723
1007 1428 2467.5947057659964
1007 1675 632.378323974519
1007 1943 1135.2133003449178
1007 1957 1057.6709239080144
1007 1970 2219.997477160138
1007 1975 816.7562957994403
1007 2080 812.7190700827018
1007 2173 957.3341144418939
1007 2182 1442.7531161794454
1007 2183 2209.7401082867864
1007 3054 856.5750809604395
1007 3086 2144.02591965212
1007 3178 1822.6632400799888
1008 1012 132.47720360816885
1008 1014 380.65295210835404
1008 1019 1264.7082466122529
1008 1020 2089.6306947653393
1008 1024 1947.3302016788468
1008 1026 1615.8359037203152
1008 1027 2059.2043271282946
1008 1030 967.8961554170446
1008 1051 8088.445205952564
1008 1108 6984.216910769186
1008 1183 12120.980233810533
1008 1370 2930.394813472218
1008 1371 3288.078561358689
1008 1404 3949.7777349881744
1008 1436 1835.1713310930318
1008 1438 1970.8863094467931
1008 1456 3300.114282639237
1008 1472 3790.681626130664
1008 1476 3748.1472336922575
1008 1477 3617.711400705427
1008 1478 6006.7826986169675
1008 1486 2277.3883729436734
1008 1489 2135.588700406565
1008 1502 3080.7874758930243
1008 1506 2723.1069335774514
1008 1509 2795.140592406682
1008 1510 2690.4555229267894
1008 1512 2479.1027120960935
1008 1513 2965.9478151624044
1008 1516 2955.219901834851
1008 1518 3024.699452180024
1008 1527 4974.2099238306055
1008 1538 5680.195181335695
1008 1582 6574.700997822451
1008 1595 5588.382566863632
1008 1600 5885.759411477361
1008 1619 11651.666665791816
1008 1632 12061.37091452524
1008 1635 5954.88286230978
1008 1664 4871.826898024777
1008 1672 6549.919093067356
1008 1822 11386.806706674552
1008 1862 11031.413158510595
1008 1877 11687.909772634846
1008 1910 4966.16711362646
1008 1934 6837.328775563541
1008 1943 3263.0932724184618
1008 1964 1218.5727839140586
1008 1967 1639.4318299994297
1008 1970 1475.4141934609163
1008 1975 1663.346499585677
1008 2007 3706.7327865699926
1008 2031 3443.166101185139
1008 2080 1410.1895302155363
1008 2182 1266.6832026040552
1008 2540 1122.365842444167
1008 3178 320.9189480500128
1009 1010 129.4933276771948
1009 1011 203.15655683813614
1009 3136 190.89875003290513
1010 1014 348.4796302161336
1010 1015 922.8373561155043
1010 1019 1188.2762332075613
1010 1020 1985.198772728134
1010 1022 1671.4191992719618
1010 1024 1835.3330601842104
1010 1027 1949.0099616979614
1010 1030 958.5344744078345
1010 1049 6555.4168369876015
1010 1051 7979.188349559182
1010 1095 7934.633050459853
1010 1108 6906.0470566362965
1010 1181 11883.883824554116
1010 1183 12217.0797088119
1010 1373 2635.4217884104805
1010 1380 1762.259887744361
1010 1394 3488.6634060279125
1010 1401 4300.614037631609
1010 1409 2635.861070738461
1010 1411 2383.3274730990333
1010 1413 2821.2291227149376
1010 1416 2786.5228649694923
1010 1422 3528.701489068791
1010 1423 1443.8600183315148
1010 1424 1944.4693928672493
1010 1427 2194.1573476600697
1010 1428 3711.6708801383934
1010 1435 3171.1643697836857
1010 1436 1767.4358614818489
1010 1438 1926.1648725543018
1010 1444 2212.77408252743
1010 1456 3288.162848099458
1010 1464 3365.811520552064
1010 1472 3713.5395760587367
1010 1476 3663.931450060583
1010 1477 3536.9381741564794
1010 1478 5919.69227637073
1010 1486 2183.601664493111
1010 1494 2552.1172479740103
1010 1502 2990.5497469477577
1010 1506 2695.1608947564955
1010 1509 2782.5806354707456
1010 1510 2675.454303019002
1010 1512 2459.760392741434
1010 1513 2933.175954804221
1010 1516 2947.106013757017
1010 1518 3040.778213306514
1010 1527 4927.2029206228035
1010 1538 5618.750131894516
1010 1580 6721.3770775172225
1010 1582 6547.092206175042
1010 1595 5549.200432493377
1010 1600 5846.671331425693
1010 1603 11979.205828216622
1010 1619 11645.126729415222
1010 1620 11006.476489755854
1010 1626 9041.542794375217
1010 1632 12043.896153860549
1010 1635 5845.098606981506
1010 1639 5827.2767760649995
1010 1651 4760.205013301234
1010 1672 6448.4288008176345
1010 1675 2589.212107014628
1010 1692 10702.132490152404
1010 1705 13020.089218491144
1010 1708 13400.095537025749
1010 1737 13124.832675411533
1010 1747 11927.667776802871
1010 1793 12919.40647897629
1010 1802 12209.400463792887
1010 1822 11355.277449039844
1010 1862 11001.529712098234
1010 1910 4903.718881723681
1010 1934 6728.936213054874
1010 1943 3271.871071311294
1010 1957 1944.761724411707
1010 1963 2061.3302890280665
1010 1964 1333.026578533316
1010 1967 1755.5320400676594
1010 1970 1589.4536685287144
1010 1975 1634.1914297473554
1010 1977 7577.2580155261385
1010 2007 3641.992291192228
1010 2031 3559.2521432357316
1010 2043 3987.923849834879
1010 2073 1992.3902657786111
1010 2080 1398.0074441055535
1010 2173 2967.504006241703
1010 2182 1199.865224451699
1010 2183 1287.3480628903385
1010 2212 4548.230495901435
1010 2392 1971.5111030233722
1010 2528 286.4605657839934
1010 2539 1495.5835533966786
1010 2611 3196.645168352897
1010 2883 2015.1407213543841
1010 3054 1304.7348153368082
1010 3136 301.04291413244056
1010 3178 377.7332012600379
1012 1014 340.0962389091267
1012 1015 933.5464134685286
1012 1019 1172.851733878876
1012 1020 1967.7168058363077
1012 1022 1653.9918117921995
1012 1024 1817.9404947518844
1012 1025 1248.771618851564
1012 1027 1931.526987585935
1012 1030 965.1146208944933
1012 1370 2798.046651582408
1012 1371 3163.43419264785
1012 1375 2284.5756349925764
1012 1394 3489.23131786954
1012 1395 2968.559065114875
1012 1400 3215.4078890940455
1012 1413 2820.0688270608175
1012 1422 3518.8145200221693
1012 1424 1928.4648635612095
1012 1427 2178.8234223116324
1012 1432 3404.732133373586
1012 1434 3250.2426648303194
1012 1436 1752.7702692675948
1012 1438 1914.0590497653047
1012 1444 2202.763883975025
1012 1449 2446.9132834717375
1012 1450 2038.1554637067102
1012 1456 3280.033854143788
1012 1472 3697.8240934151245
1012 1477 3520.9079630157885
1012 1486 2166.620940673595
1012 1489 2031.6423802238028
1012 1502 2973.7871302237586
1012 1506 2685.0032419540335
1012 1508 2767.2836977962043
1012 1509 2774.430196421937
1012 1510 2666.9913805749397
1012 1512 2450.754673495234
1012 1513 2922.381131289171
1012 1516 2939.537281564695
1012 1675 2600.8025070398567
1012 1957 1944.8867398353646
1012 1964 1347.8958907163924
1012 1967 1771.879457181833
1012 1975 1637.368972098417
1012 2007 3638.8549352788355
1012 2031 3575.191313621829
1012 2080 1403.8300964366265
1012 2173 2973.217445715527
1012 2182 1196.9037998642102
1012 2183 1274.7526795675765
1012 2383 2448.783757890254
1012 2528 284.22573288825663
1012 2535 1560.27170431616
1012 2538 756.4723149081873
1012 2611 3195.819617815001
1012 2883 1997.6195587739835
1012 3054 1311.8679504742113
1012 3096 2378.6998103919736
1012 3178 393.01635806039576
1013 1014 353.05353119699566
1014 1015 849.7572006303363
1014 1017 448.3063767228261
1014 1019 911.5087251261428
1014 1020 1814.1882535701636
1014 1024 1728.926797312358
1014 1027 1822.3869429863382
1014 1436 1465.6722664236374
1014 1438 1590.253118190376
1014 1456 2939.940404114115
1014 1472 3429.350413673052
1014 1477 3262.2431535560263
1014 1486 1956.596662191294
1014 1489 1797.9968317505416
1014 1494 2298.7137969533446
1014 1502 2746.375431438015
1014 1506 2348.655626936856
1014 1509 2434.3383354397793
1014 1510 2327.015415057188
1014 1512 2111.3750242702563
1014 1513 2588.799474397078
1014 1516 2599.6394180005527
1014 1518 2707.450989708809
1014 1595 5209.001409264407
1014 1910 4589.744049021577
1014 2182 1483.6439140664872
1014 2538 547.9521963726692
1014 2883 1861.427614204252
1014 3086 348.1959860993141
1014 3178 701.1250480339306
1015 1510 2445.6410777431065
1015 3178 951.055457633076
1016 1019 917.7606979308922
1017 1019 487.93431615383713
1017 2538 109.31124643237295
1018 1027 279.70750052959653
1019 1020 1021.521508874068
1019 1021 287.3108834645367
1019 1022 723.0918760869997
1019 1023 378.87448936036674
1019 1024 1094.543197794482
1019 1025 594.7323123197499
1019 1026 495.51594682840965
1019 1027 1126.3154916227818
1019 1028 352.743187319082
1019 1438 874.2008605380921
1019 1456 2390.509002320327
1019 1477 2353.6581189321337
1019 1486 1067.4184756800464
1019 1502 1838.6151121043526
1019 1595 4444.740261393527
1019 1664 3658.3737599607452
1019 1910 3726.647058675629
1019 2182 1927.9812006393092
1019 2532 668.6657581570612
1019 2534 519.5812902335249
1019 2535 650.7209790868073
1019 2538 431.751362018912
1019 3178 1565.8673442162349
1020 1022 320.3604107577092
1020 1024 385.39258276736797
1020 1025 726.1376790916761
1020 1026 528.6749952735033
1020 1027 263.0776432605412
1020 1028 687.3847029173946
1020 1486 418.8759851155045
1020 1595 4291.050908729811
1020 1862 11349.871045419757
1020 1910 3337.4619876497277
1020 2183 1458.2029776133938
1020 2532 353.108143165494
1020 2535 412.6359916161666
1020 3178 2330.290362503828
1021 1028 77.07293414008605
1022 1025 430.5529144143946
1022 1027 411.34200483040195
1024 1027 152.2970408579887
1024 1595 4675.75562556031
1024 2531 1882.3300393456468
1024 2533 212.06700559440162
1024 2536 238.84953400405573
1024 3178 2149.1399298390174
1025 1027 691.2222426978495
1025 1029 270.8113109177982
1025 2183 949.7639365180506
1025 2538 609.6148428307981
1027 1028 773.9673470399673
1027 1635 3896.112748580923
1027 1668 1687.3873315279855
1027 1910 3562.580386394784
1027 2532 492.3689944805516
1027 2533 278.88680930353433
1027 2537 293.95634644603234
1027 2883 168.33630550484477
1027 3178 2272.450170005744
1028 2532 338.22673748679637
1029 2536 148.85814185602214
1030 3178 703.0706410402828
1031 1032 117.33863571117655
1031 1033 90.72631417031423
1032 1033 207.80363302747114
1032 1051 2356.432445077872
1032 1099 2789.1860921318826
1032 1635 3958.7837213551625
1032 1639 3517.585084775622
1032 1672 3014.178099727418
1032 1934 3127.4532856639594
1032 1944 2369.1898828752387
1032 1977 2390.0082577576154
1033 1037 1020.4989936207554
1033 1039 1310.7282207266276
1033 1041 855.050619184257
1033 1049 2782.1400890908817
1033 1051 2516.535128745107
1033 1056 3270.714676944735
1033 1067 2664.3528507659607
1033 1078 2608.6560955849914
1033 1092 2768.2961712022307
1033 1099 2889.411722883909
1033 1108 2566.686172930681
1033 1478 3404.080977403155
1033 1605 3378.5477220021494
1033 1830 6109.013956039595
1033 1934 3227.2461243333837
1033 1944 2508.7523159354346
1033 1977 2519.6364298491694
1034 1035 431.15329766704616
1034 1830 3668.10196664878
1034 2041 974.4974104483031
1035 1038 1066.5103268115004
1035 1040 646.0104222900554
1036 1830 2150.7963571515006
1037 1038 704.2398456007122
1038 1040 555.323410195452
1039 1041 455.70443401623106
1039 1049 2424.2634239494146
1039 1051 3213.1874019741217
1039 1108 1675.448291930752
1039 1934 3445.453248674026
1042 1044 289.0773560000499
1042 1045 229.87031036714788
1042 1047 160.45089201457392
1042 1048 330.222287544472
1043 1048 261.38298457547216
1044 1047 132.71282258943322
1044 1050 206.44754933769377
1044 1051 2427.539221397366
1044 1099 1630.098155708408
1044 1104 841.1079753307991
1044 1108 899.9475512980981
1044 1478 661.9653853956719
1044 1500 696.501797301012
1044 1535 1507.3658193744604
1044 1538 1956.4175370253336
1044 1600 2948.6418831236333
1044 1635 1978.2925928711484
1044 1637 1861.8705755895749
1044 1639 727.3831285881645
1044 1640 949.5655148298665
1044 1642 1249.8726367255308
1044 1643 671.2122652325919
1044 1644 1471.3276730327589
1044 1645 1097.2420782488266
1044 1651 1792.6086375629047
1044 1652 314.8294766773039
1044 1653 828.9926994284815
1044 1654 379.82995974448323
1044 1655 850.9501471400928
1044 1656 813.7008435584987
1044 1657 1029.629600557726
1044 1658 1066.7540086039653
1044 1659 1522.151332433994
1044 1662 1580.1658374269184
1044 1664 1855.0304492000498
1044 1672 963.367717473892
1044 1910 2292.2235320318264
1044 1934 1755.8724301409611
1044 1977 1958.9574939176034
1044 2063 1616.170067947777
1044 2093 1305.5362118694632
1045 1047 127.19025460916093
1045 1050 104.66884359613198
1045 1104 738.401121386559
1045 1478 718.5190765207144
1045 1500 755.742709141175
1045 1535 1555.5195019996136
1045 1538 2101.137387863811
1045 1639 750.9652240430785
1045 1640 857.264298727654
1045 1642 1282.8923702965958
1045 1643 717.7145718208335
1045 1644 1315.0622452516204
1045 1652 254.34115437318036
1045 1654 209.29398429345497
1045 1655 663.5135683965906
1045 1656 624.0422292541028
1045 1657 849.1376637987921
1045 1659 1334.7061071485382
1045 1672 773.6889116697852
1045 1977 1809.1249527434575
1045 2063 1437.3705131491547
1045 2761 454.8825659303335
1046 1478 649.5478436970174
1047 1048 256.6116068738589
1048 1050 116.5348313505558
1048 1095 2096.7890482942494
1048 1101 1474.474649111931
1048 1637 1611.745621415851
1048 1638 1642.5067917616852
1048 1642 1387.444141492882
1048 1645 960.9313920095709
1048 1652 350.49384943041105
1048 1654 212.6169203741912
1048 1655 584.2363774128788
1048 1658 854.0829395011099
1048 1660 681.7875487866108
1048 1662 1558.6412929082499
1048 1664 1833.8805554787768
1048 1672 675.8537598748477
1048 2795 323.6881832461599
1049 1051 2181.0228691677034
1049 1056 2712.3070974713337
1049 1057 2585.736088049503
1049 1065 2823.2173783227186
1049 1067 1300.105642490997
1049 1068 1190.4794837001118
1049 1069 1251.3523094259047
1049 1075 1915.5755755410028
1049 1076 1988.5150504404687
1049 1077 1532.5570385481403
1049 1078 1621.628828309467
1049 1086 1596.9501691152052
1049 1092 2354.2530225877013
1049 1095 2121.589698079182
1049 1098 1067.0768826915341
1049 1099 1344.5298092134667
1049 1104 654.726434073679
1049 1105 313.46962498411295
1049 1108 1175.442372694461
1049 1120 1494.6697193787127
1049 1458 2288.3236570686927
1049 1459 2238.036772783302
1049 1478 806.0544997241482
1049 1486 4372.029799601903
1049 1500 843.6334866707324
1049 1535 1633.2813353861486
1049 1538 2208.064400650657
1049 1550 2753.9761448107915
1049 1577 2198.7524217252685
1049 1582 3811.1918511278236
1049 1595 3246.092406736519
1049 1598 3135.180806175335
1049 1600 3222.387334674414
1049 1603 6760.041020084066
1049 1632 7285.4339806082135
1049 1635 1723.3944165667717
1049 1637 1603.801150355751
1049 1638 1626.4390342469303
1049 1639 825.8578157143559
1049 1640 868.0885103764451
1049 1641 1126.5188922730129
1049 1642 1355.8340227577112
1049 1643 801.8242810362283
1049 1644 1268.3033217337709
1049 1645 937.0338194237057
1049 1647 2102.923770735444
1049 1648 1590.2890654192904
1049 1651 1841.8353093053854
1049 1652 318.95372126564985
1049 1653 675.6066899845936
1049 1654 184.15769305247548
1049 1655 578.2284303426843
1049 1656 528.5481790185426
1049 1657 776.3986642897519
1049 1658 838.5392248455379
1049 1659 1246.787102085703
1049 1661 1370.43126439764
1049 1662 1528.6733435959266
1049 1663 1453.0170249172597
1049 1664 1804.0678177997415
1049 1668 3695.29030811383
1049 1669 2328.237791019389
1049 1671 1544.5436383247027
1049 1672 676.8011009953237
1049 1705 10391.20290113775
1049 1708 10922.441173468034
1049 1747 9756.832264258097
1049 1830 8143.801617806933
1049 1862 12544.63398137326
1049 1910 2489.408229282811
1049 1932 3723.1635946992537
1049 1934 1463.6810678016627
1049 1935 2398.47421378283
1049 1942 3818.2564751083646
1049 1944 1848.9115248666546
1049 1977 1702.9361368242335
1049 2008 1433.8572467804488
1049 2009 2104.807408644688
1049 2046 2066.054084564437
1049 2063 1364.2698838953067
1049 2074 1245.0637720411273
1049 2089 1853.252039969779
1049 2093 1059.886615932519
1049 2215 2141.940198249111
1049 2552 2890.8205900988446
1049 2752 1958.3994713522113
1049 2754 1591.88994375308
1049 2760 1157.4795924078915
1049 2790 268.31522656896414
1049 2791 595.2027086272565
1049 2793 717.8270578766001
1049 2795 317.45422759332087
1049 2796 933.6152454024639
1050 2063 1487.6599187555526
1051 1056 787.5680622887887
1051 1067 939.7752547731559
1051 1068 995.4256190936153
1051 1070 830.8647487909079
1051 1075 364.3502428693556
1051 1077 694.9873136817564
1051 1080 646.7886787732737
1051 1082 733.9066406686305
1051 1083 462.12138156205157
1051 1086 605.2242074934135
1051 1092 268.26893334571787
1051 1098 1294.3031510542571
1051 1099 1038.144991602068
1051 1104 1611.9732451124116
1051 1108 3050.7955097240265
1051 1384 1481.5977257722134
1051 1388 1252.0085684857363
1051 1389 1102.9291037303228
1051 1427 6042.470999512132
1051 1428 7507.209885125485
1051 1438 6786.2003138230375
1051 1456 6894.14615082415
1051 1478 2962.1508289813014
1051 1486 5908.845720657426
1051 1500 2999.437260915468
1051 1535 3719.8500516763493
1051 1538 4383.319235689233
1051 1550 4830.729081584779
1051 1577 4143.932064157449
1051 1582 5838.9376234520505
1051 1595 5408.924341553468
1051 1600 5357.592353068241
1051 1604 7240.3653212529625
1051 1605 5881.7328079199815
1051 1619 8178.850225366983
1051 1632 7832.162858426823
1051 1635 2135.2109678043084
1051 1639 2944.4318795141508
1051 1649 3061.1657159790047
1051 1652 2468.255993893983
1051 1655 1955.629503343179
1051 1657 2035.0913349193563
1051 1659 1797.5651113653091
1051 1664 3420.247519548023
1051 1671 1699.9229008161321
1051 1672 1795.5272595939164
1051 1692 10760.799823781217
1051 1705 8227.558884569567
1051 1708 8753.827201283713
1051 1714 10810.096342230387
1051 1737 10669.362703541394
1051 1747 7655.956136358471
1051 1782 10272.178944476109
1051 1793 10322.384502294344
1051 1802 11002.27181637867
1051 1822 10844.596378716808
1051 1827 7742.120089318107
1051 1830 6135.911785083993
1051 1833 8924.461373084285
1051 1843 8276.099170255586
1051 1845 9292.782138384926
1051 1862 10830.47402753673
1051 1877 10073.997702452994
1051 1893 9552.901903750977
1051 1910 4649.002670217145
1051 1934 1256.8510165799976
1051 1942 5610.608652712333
1051 1944 340.1758952696319
1051 1977 490.80595876531294
1051 2007 7513.179592966048
1051 2040 9444.651582105826
1051 2089 1602.0681275400584
1051 2125 3279.704743384506
1051 2215 1549.0053430448318
1051 2216 268.37875972817125
1051 3178 8297.683316382698
1052 1056 802.6573392623526
1052 1067 739.2939372447099
1053 1056 741.350695159
1053 1067 953.0395804746662
1053 1672 1807.6942496229844
1053 1944 358.26265269983656
1053 1945 500.88893116321
1054 1095 455.4678050590807
1055 1095 851.5233587442412
1056 1057 132.728285557082
1056 1058 234.69620817303746
1056 1059 279.5898892814997
1056 1060 292.46153453065136
1056 1067 1415.0493179873447
1056 1075 841.3044274395659
1056 1076 782.3738624034168
1056 1077 1198.9692438511438
1056 1078 1119.8755559179913
1056 1080 1088.6891457824074
1056 1083 1040.0251446622037
1056 1087 241.60503185460686
1056 1089 375.0380290907309
1056 1090 372.3049867465914
1056 1092 519.5912176052268
1056 1095 819.8267170093944
1056 1099 1386.2036763695646
1056 1104 2241.7105359873144
1056 1388 464.48926845807836
1056 1478 3428.9602190620903
1056 1635 2106.624676085227
1056 1672 2180.5330465253114
1056 1830 6027.698244546642
1056 1910 5073.461402595676
1056 1934 1421.12965150777
1056 1944 976.3864232236045
1056 1945 1064.457794548303
1056 1977 1083.4481443397806
1056 2216 578.3809682299901
1056 2552 205.81696952519582
1056 2556 626.1464632080043
1057 1083 907.3020172583631
1057 1095 697.2555870158251
1057 1944 844.4102977940472
1057 1977 950.721347112435
1058 1095 998.7077331370735
1058 1944 1184.8674541605776
1059 1095 996.2124199704309
1060 1095 1108.6351157484874
1061 1073 93.29827730855796
1062 1095 797.144355570589
1062 1934 587.1490839689793
1063 1067 129.29501687979146
1063 1073 161.41295774516593
1064 1095 1020.7326270846183
1065 1095 931.0528390500521
1065 1944 1092.9996657789231
1066 1067 182.0904135147557
1066 1073 104.81919913199513
1067 1069 211.6900718898139
1067 1075 625.8510735883899
1067 1083 477.6560260383833
1067 1089 1153.6406959069986
1067 1092 1069.5171408748408
1067 1095 881.3365304842999
1067 1098 366.8675951490942
1067 1099 225.10987406223794
1067 1104 864.9727268011288
1067 1105 1186.1230519633762
1067 1108 2324.456233959699
1067 1478 2047.1647006328076
1067 1500 2083.834001428191
1067 1535 2783.4354109067517
1067 1538 3504.2686984368893
1067 1600 4520.715266510204
1067 1639 2018.8644812992084
1067 1659 965.2643139974803
1067 1671 997.2026458915435
1067 1672 855.9246301801153
1067 1830 7063.93174003806
1067 1910 3724.8812902634877
1067 1934 563.3198114951405
1067 1944 600.97664877154
1067 1977 451.55689047324745
1067 2089 1084.8160711696987
1067 2216 920.2181099498309
1068 1083 549.7218142981137
1068 1095 935.7995626555768
1068 1104 691.3567119483154
1068 1478 1966.7572628059756
1068 1672 848.3084051367774
1068 1934 740.9738605705811
1068 1944 659.4158890871939
1068 1945 523.9274055333267
1068 1977 512.4775493588737
1069 1083 491.76855709062954
1069 1095 871.7588766139188
1069 1104 731.8253678844812
1069 1934 771.4144825776802
1069 1944 597.5770168800885
1070 1083 370.27800705239747
1070 1095 771.8390791011919
1070 1934 652.4190527999037
1070 1944 490.75706172892086
1071 1095 821.3549482129575
1072 1083 475.5448660682865
1072 1095 874.1956757253445
1072 1104 800.9903362661787
1072 1934 652.1712122490238
1072 1944 593.5295296851189
1072 2554 620.2725897017325
1073 1083 550.706488029939
1073 1095 952.6225586605626
1073 1104 778.8140435205478
1073 1672 789.2067675060302
1073 1934 595.908448626305
1073 1944 671.5405414261467
1073 1945 526.4874357977644
1073 1977 520.9607533641789
1074 1083 890.2544448239895
1074 1095 1235.0214648773406
1075 1092 443.69876080470004
1075 1095 317.6333460467502
1075 1104 1405.2782818245844
1075 1672 1468.5640562309538
1075 1934 892.5235988293371
1076 1095 262.8228419506231
1076 1671 1396.9087205850824
1076 1672 1543.7391484039
1076 1934 956.5907347238439
1077 1092 826.2664956723457
1077 1095 637.0429023760871
1077 1104 1046.3367413085932
1077 1671 1131.5315077298499
1077 1672 1100.7846164488885
1077 1934 672.5869805772234
1078 1095 545.7848062929787
1078 1104 1121.97567935499
1078 1500 2418.7253985783254
1078 1672 1193.0307396035762
1078 1934 729.9862840955527
1079 1095 623.9174844243124
1080 1095 592.1651394958329
1080 1104 1162.7596722011708
1080 1934 645.0352629578978
1080 1945 204.6185057084348
1081 1083 213.258838598223
1081 1095 602.349911718209
1081 2554 353.9344273987818
1082 1083 273.1189327651782
1082 1095 674.9608151588807
1082 1104 977.8287929414403
1082 1672 1063.9668990080422
1082 1934 694.580597216451
1082 1944 393.90528298019103
1082 1977 243.4806005512775
1083 1087 806.3886764757899
1083 1088 596.9209793205232
1083 1089 722.032220631598
1083 1090 683.6964524069291
1083 1091 839.1004744829116
1083 1092 615.5801376670445
1083 1095 403.7428118173019
1083 1104 1211.345047650537
1083 2216 482.6288492364533
1083 2556 524.708463103984
1084 1095 507.7962291131764
1085 1095 497.7014745557703
1086 1095 546.3152311906899
1086 1104 1080.903385944663
1086 1672 1191.8971409495882
1086 1934 771.6416656990393
1087 1095 581.7277226922245
1087 1934 1279.6160004645117
1087 2554 692.80611114708
1088 1095 322.2753974179205
1088 2554 466.11374398136934
1089 2554 594.7817043281162
1090 1095 453.47016359381115
1090 1934 1219.6724769701036
1090 1944 609.103515086183
1091 1095 589.3255548082983
1092 1104 1819.2970525478227
1092 1672 1908.8524282251572
1092 1830 6081.439394397465
1092 1934 1271.8219620185284
1092 1944 517.789624230304
1092 1945 641.4676841332484
1092 1977 654.7222179316576
1093 1095 271.01603032797306
1094 1095 93.77608149231541
1095 1101 1180.4163907987631
1095 1104 1554.345989351981
1095 1105 1939.1513702831617
1095 1107 1832.7535768241485
1095 1108 2995.8595357522036
1095 1478 2902.5237081316704
1095 1535 3660.653569779144
1095 1538 4324.227182554477
1095 1582 5783.981752099092
1095 1595 5350.319398383788
1095 1600 5299.777684334106
1095 1635 2092.2031143442723
1095 1660 1776.707918880149
1095 1674 317.84360420932717
1095 1705 8285.884298127592
1095 1708 8812.406982876031
1095 1747 7711.690541210175
1095 1830 6191.7547618879435
1095 1910 4589.397845732729
1095 1934 1209.0807212529012
1095 1942 5561.098141473831
1095 1944 281.08202527493285
1095 1945 426.8940772532065
1095 1977 431.68619961039013
1095 2552 914.8546599193467
1095 2553 909.7431041567854
1095 2555 733.0429920051812
1095 2557 518.4981979933384
1095 2558 362.4853325137884
1095 3187 705.8124222329017
1096 1098 181.51456888433478
1096 1101 270.7772315406346
1097 1098 180.53942439029987
1097 1101 310.96306315702674
1098 1099 291.17944113980013
1098 1100 349.4839673107514
1098 1101 450.8129198929808
1098 1102 383.8506682108326
1098 1103 330.78895069538504
1098 1478 1751.8086538239193
1098 1635 1144.0547589756964
1098 1637 1029.2084138950138
1098 1640 1396.9223670448243
1098 1643 1731.9258113563496
1098 1644 1170.7125404215728
1098 1652 1285.626886579455
1098 1654 1069.2566130756404
1098 1656 627.9697275515508
1098 1669 1346.9654334534234
1098 1671 751.5437353946397
1098 1672 513.0916962767284
1098 1934 440.10450159764247
1098 1944 959.8397314840946
1098 1977 813.1410111350945
1098 2089 941.7932858447685
1098 2109 164.89183314916855
1098 2215 1167.9556734873224
1098 2559 266.2718381844985
1098 2560 456.8131530366892
1098 2562 227.57008688766422
1098 2563 368.0031664629799
1098 2795 823.3489610240723
1099 1101 326.962494542596
1099 1104 1006.5219924042976
1099 1108 2431.0141992748268
1099 1120 2695.6500380245725
1099 1389 954.5944704012194
1099 1459 3492.6132718923172
1099 1478 2042.858450055412
1099 1500 2078.3452918770968
1099 1535 2735.652277731325
1099 1538 3522.6196772090743
1099 1595 4570.284651806343
1099 1635 1215.167156658303
1099 1638 1484.2052268944522
1099 1639 1999.757440637489
1099 1640 1675.2331444996094
1099 1641 2121.6342411006235
1099 1645 1456.518467157121
1099 1648 1841.481136499149
1099 1655 966.8854601847951
1099 1657 1009.2050428080925
1099 1659 782.2182662771089
1099 1672 801.0578962929934
1099 1910 3697.974720280398
1099 1944 717.1056299883912
1099 1977 581.7026800011078
1099 2089 860.921471019167
1099 2125 2810.8944583884027
1099 2791 1169.9310231836712
1100 1101 316.2508872787942
1101 1102 292.10473039084445
1101 1635 926.9592695400494
1101 1660 866.1038382671492
1101 1944 946.7057318558226
1101 1977 835.9552772148916
1101 2562 297.61651076596013
1103 1635 1154.2681828937623
1103 1672 825.8159725806602
1103 1934 263.0464164977195
1104 1105 396.1262712223716
1104 1106 94.77560650256213
1104 1107 283.48601317301336
1104 1478 1456.6716044315833
1104 1635 1852.3870481567249
1104 1672 791.8084272199854
1104 1934 1258.5734755100946
1104 1944 1301.5390976955646
1104 1945 1185.7704752702844
1104 1977 1169.4842231167083
1104 2216 1693.7749699429187
1105 1107 114.53095466290118
1105 1944 1678.5765839760634
1105 1977 1540.3411759838962
1108 1109 887.656627971432
1108 1110 782.3046138706015
1108 1111 788.7986947026778
1108 1112 1039.9250676173535
1108 1113 851.1519989054062
1108 1114 238.7648353663966
1108 1115 567.2307094669258
1108 1116 468.0392907375173
1108 1117 626.5745536131012
1108 1118 304.6049748244223
1108 1119 438.83946300464
1108 1120 347.1766814488912
1108 1121 584.1990805185216
1108 1459 1860.390961148837
1108 1478 1145.8596799714844
1108 1500 1155.5652568654527
1108 1527 2573.565770587686
1108 1535 1773.1418872602014
1108 1538 1611.3858258991684
1108 1574 1369.8536401014733
1108 1577 1097.0196411844759
1108 1580 1255.2676209611911
1108 1582 2788.1465117085995
1108 1595 2489.88448679767
1108 1600 2374.8549280292123
1108 1619 6313.553850327282
1108 1632 6262.821477632276
1108 1635 2875.9893649747837
1108 1639 1277.9951493181345
1108 1652 1156.173284910685
1108 1672 1851.4378809780703
1108 1705 11228.641216191376
1108 1708 11740.161100178988
1108 1830 8520.46761887505
1108 1910 2187.6193745318265
1108 1934 2608.8529804023156
1108 1942 2665.3769023767345
1108 1944 2759.8822979725646
1108 1977 2634.798033846922
1108 1978 620.3827601911721
1108 1982 3184.5220927283285
1108 2051 963.7731137101692
1108 2119 283.48452216160973
1108 2120 785.6646895655277
1108 2121 703.7667203391026
1108 2122 411.33804388672695
1108 2123 329.38668609762743
1108 2124 768.1067151080464
1108 2125 566.9454951646144
1108 2566 717.1606357607898
1108 2567 263.542441068902
1108 2568 668.5882552273938
1108 2569 356.7995410793836
1108 2570 358.96568946155406
1108 2571 467.8166883634229
1108 2572 450.1063517494644
1108 2573 369.1049981674679
1108 2574 374.1086375436759
1108 2852 280.43327923605653
1108 3086 6929.067224205188
1108 3178 7282.495520766785
1110 1116 315.47539629489455
1110 1119 355.16609121655364
1110 2051 183.25136976997007
1110 2125 221.49968358733517
1111 2125 281.21167563158895
1112 1119 603.1685642847111
1112 2125 488.24739650598076
1113 2051 396.3963520732495
1113 2125 431.4822653811686
1113 2565 150.87526809258273
1115 2125 153.62934465716563
1116 2051 498.28614062246953
1116 2125 117.575112985571
1117 2125 131.37381538707885
1118 2125 284.8539938670041
1119 1121 426.18467121316877
1119 1478 1568.605964203851
1119 1600 2298.9758748352438
1119 2051 538.3368457052724
1119 2125 172.58528774356233
1120 1595 2484.399889655526
1120 1600 2330.4917089483897
1120 1934 2896.329069724934
1120 2085 436.5731672106521
1120 2125 232.13230092387118
1121 1577 517.6407990610563
1121 2051 811.3986559914075
1121 2125 575.0142725736091
1122 1125 362.48878787319575
1123 1125 286.1653303891029
1123 1126 367.1168173747993
1123 1183 1750.9802349170122
1123 1974 297.7108361183331
1123 2884 568.2756075507634
1124 1125 387.3042228057774
1125 1126 649.131964618256
1125 1127 978.5948739615305
1125 1128 914.137190311802
1125 1129 959.9907794431427
1125 1130 940.407721571384
1125 1131 977.2965391660775
1125 1132 1069.6859386995318
1125 1133 988.9864055126458
1125 1134 746.3508826725292
1125 1135 792.8552830016059
1125 1136 928.2633593543611
1125 1137 1051.3630043466874
1125 1138 830.9180562084096
1125 1139 1275.9709280250079
1125 1140 1301.5660638920772
1125 1141 1463.9006756445785
1125 1142 1439.3073226853871
1125 1143 1129.284924265549
1125 1144 808.9833741118462
1125 1145 1080.132738434028
1125 1146 2258.3964635876328
1125 1147 2086.9150033307965
1125 1148 2381.3856114164846
1125 1149 571.477662700332
1125 1150 382.8037857554647
1125 1151 994.7986500022131
1125 1152 575.8922370829558
1125 1153 1335.2547229541772
1125 1154 1279.5609708272202
1125 1165 2186.154477174334
1125 1171 1340.0126306222671
1125 1178 1210.615500296926
1125 1181 1969.1816558163764
1125 1183 1693.9996067551274
1125 1203 848.9718417220429
1125 1234 1147.2776474545205
1125 1253 1039.8234138402368
1125 1321 220.2115092480498
1125 2032 2068.4989771056494
1125 2884 305.36482541996395
1125 3131 1000.8040369236202
1126 1127 463.3352243499119
1126 1139 729.9930040041406
1126 1140 775.6085180561445
1126 1153 1256.9765282917272
1126 1183 1954.9427578512948
1126 1234 659.1408744853786
1126 1310 2521.7291777559685
1126 1974 656.0640807551215
1127 1133 144.4946171751987
1127 1139 943.3566175233993
1127 1151 682.625600170158
1127 1153 948.5142005200979
1127 1234 195.82111967047504
1127 1974 972.4890411581293
1128 1134 238.8789405047541
1128 1152 434.4551692897165
1137 1139 1111.1414932865637
1137 1974 1082.5924283784864
1141 1142 433.1636327464959
1141 1143 335.05567957213333
1141 1147 661.5344458768807
1141 1151 762.2660101363658
1141 1153 595.0642618815626
1142 1143 477.9262081417548
1142 1153 195.3533876231116
1143 1144 320.7762465778441
1143 1149 562.5264048977663
1143 1153 536.2582360227385
1143 1974 1098.439149726734
1146 1147 263.15001427843555
1147 1148 365.9525467726543
1147 1232 187.0946616406278
1148 1974 2350.258411707635
1148 2032 567.20338552654
1149 1150 410.3793192939891
1153 1974 1308.982827496235
1155 3029 156.223079630508
1155 3100 82.47563592612438
1156 1192 167.93907849405792
1157 1162 1292.7068292591616
1157 1181 1469.5492464802865
1157 1183 1705.6321558295574
1157 1192 1710.8863470507172
1157 1198 215.4224231122768
1157 1209 395.41833748665306
1157 1210 1475.377471582951
1157 1216 253.68029495988134
1158 1173 643.4327455069829
1159 1183 479.9384334458145
1159 1192 397.47027021249914
1160 1162 1612.3577511746055
1160 1165 2087.148639398831
1160 1176 1299.0710276478703
1160 1180 1136.193390923652
1160 1181 2448.9138831217374
1160 1183 2462.045937216515
1160 1184 468.6154685678196
1160 1188 475.2610258957021
1160 1195 449.6323468096488
1160 1199 329.5223176442579
1160 1213 490.1262212948855
1160 1221 301.1859417094234
1160 1303 1064.2889958772262
1160 1304 813.2173237259681
1160 1746 4561.959164546645
1160 2053 710.7636376684484
1160 3030 220.54156324857277
1160 3062 553.1280175692119
1161 1183 476.222461519037
1161 1187 158.9288504951212
1161 1192 481.3876412015616
1161 1197 349.90705694454346
1161 1211 423.34267640041423
1161 1212 424.4216957266996
1161 1225 461.13362724191666
1161 2579 644.1750715462767
1161 2854 232.2361776573966
1161 3026 392.80724518050613
1161 3041 316.69116910287596
1161 3097 297.1314568441152
1162 1165 590.9040884305791
1162 1166 877.487136733582
1162 1171 1081.9470351557186
1162 1173 877.3499546965559
1162 1176 1948.6126673527353
1162 1178 1313.8372591875134
1162 1180 1691.6980977343574
1162 1181 913.9722809624018
1162 1182 162.63451492582232
1162 1183 854.8687308912324
1162 1186 960.125666673369
1162 1188 1150.6200124939332
1162 1189 1712.9049845346053
1162 1192 797.9999049633794
1162 1195 1175.142524005625
1162 1198 1492.89115310948
1162 1202 1770.0623376746028
1162 1203 1605.273262792999
1162 1206 1076.587456568096
1162 1207 1908.7533037724381
1162 1208 2264.3994220771756
1162 1209 1654.0344304978264
1162 1210 928.2316561469487
1162 1211 585.8861775008533
1162 1213 1531.2569611912993
1162 1214 872.6047846927556
1162 1215 572.0233723492581
1162 1216 1084.7543910492811
1162 1218 1324.4929794757004
1162 1225 336.7443563111083
1162 1228 942.8779867337438
1162 1746 5807.672996873016
1162 1802 6728.710344790947
1162 1974 2358.2443640477995
1162 2127 622.004068143559
1162 2575 1345.897280137268
1162 3027 938.3903703581608
1162 3032 525.6473047859926
1162 3034 259.66316362451175
1162 3035 961.4993119371383
1163 1176 657.7154389111262
1164 1171 438.8446068350705
1164 1183 733.5004726693041
1164 1192 683.4942679865488
1165 1171 846.2029327182606
1165 1173 1360.08218059904
1165 1176 2539.5110510270897
1165 1180 1858.417210472344
1165 1181 362.0221903445654
1165 1182 646.7302110661483
1165 1183 496.46590557241785
1165 1186 748.8686288601524
1165 1187 156.47501280176627
1165 1188 1611.9033723667092
1165 1191 1626.780243460197
1165 1192 498.7761351940084
1165 1197 324.8190587165871
1165 1202 1799.5631180006683
1165 1203 1362.0411111001213
1165 1206 1198.2699966269915
1165 1209 1607.724253780237
1165 1210 374.87900248695155
1165 1211 430.7238104575325
1165 1213 1894.8763421840415
1165 1214 524.352472768109
1165 1216 959.5711611858702
1165 1225 454.01614050004696
1165 1226 418.43219681159235
1165 1228 391.62340787953826
1165 1746 6394.594340042109
1165 2126 626.7614427551881
1165 2579 623.9038728211102
1165 3062 1637.4816505334375
1165 3088 225.8718140529098
1166 1170 353.1860157863772
1166 1171 795.4484255923528
1166 1173 556.8165273083107
1166 1181 1208.5405137139396
1166 1183 907.4808649410086
1166 1192 828.017028675233
1166 1196 432.78346600613753
1166 1214 897.4444559655635
1166 3036 194.51178819402602
1167 1171 390.1152161611608
1167 1178 409.492207864092
1167 1192 720.8617962460808
1167 1203 349.54161652836285
1168 1178 144.87996069845772
1168 1192 675.5772283129046
1169 1210 234.16962481469838
1169 1228 191.72554912917863
1169 2577 86.19618840782555
1171 1172 453.70585384131823
1171 1177 532.5857873387864
1171 1178 246.0847281400216
1171 1181 672.7085852767492
1171 1183 359.1009718537813
1171 1192 348.41515082907165
1171 1193 314.17003221677055
1171 1196 366.41362793919507
1171 1203 533.9643642708304
1171 1210 675.5432994869262
1171 1211 508.8296451731611
1171 1214 331.12156340702336
1171 1216 1805.6014317028228
1171 1321 1226.2781198852117
1171 1746 6612.248244221729
1171 1974 1368.7429400526996
1171 3038 235.89164041842452
1171 3104 224.98987956615537
1172 1192 798.2543622057331
1172 1214 766.2004519899674
1173 1181 1566.5165930036626
1173 1182 744.526345965638
1173 1183 1329.5350564865194
1173 1192 1247.0581232485067
1173 1193 1001.022993159519
1173 1196 970.5188966471774
1173 1207 1145.070594558487
1173 1214 1328.592267911585
1173 1215 911.8052435624039
1173 1227 540.7678530129558
1173 2595 816.7272607975149
1173 3027 422.8708371952565
1173 3037 181.3080459236593
1173 3156 738.8418420701082
1174 1208 591.8299283986213
1175 1192 450.0321575548041
1175 1214 514.3325217399271
1176 1180 2389.7071159943775
1176 1181 2847.5690683411244
1176 1183 2697.4666076757317
1176 1192 2620.014421766585
1176 1207 760.9453133724537
1176 1219 520.3632470299143
1176 1220 1105.3483587604426
1176 1332 1610.7154486762329
1176 1746 3876.6513917101925
1176 2053 588.6195678275492
1176 3031 365.7000447674982
1176 3042 363.16348063836904
1176 3043 392.4707246881129
1177 1181 1180.4050106286004
1177 1183 845.3598929749181
1177 1192 798.5769652635622
1177 1203 587.2544117021054
1177 1214 821.125366121809
1177 1310 2812.324597866137
1178 1181 759.0287811684178
1178 1183 514.9863854113285
1178 1192 537.6986245903576
1178 1203 363.1077856548623
1178 1214 488.1813698607092
1178 1974 1236.9686290393272
1178 3039 301.32623815270216
1179 1202 390.2448996640312
1179 1209 549.5629845869387
1180 1181 2176.5200674537923
1180 1183 2346.595733835985
1180 1189 545.634983608869
1180 1192 2330.0094279738464
1180 1202 413.97741266939096
1180 1209 627.0727376666634
1180 1213 646.6932977774622
1180 1216 1015.7327766016094
1180 1218 496.65161506198274
1180 1974 4021.185134567712
1180 2377 2658.691132013243
1180 2575 391.4128572811092
1181 1182 928.3698291747293
1181 1183 336.79232067734875
1181 1189 1955.2298709527226
1181 1192 398.4048895398862
1181 1198 1678.6352488600162
1181 1200 708.207073319157
1181 1202 2074.7273241165713
1181 1203 1122.0186148104053
1181 1209 1859.2169526997543
1181 1211 502.41731059195314
1181 1213 2251.3794179252645
1181 1214 359.6642070122172
1181 1216 1217.9081665859273
1181 1228 417.727684189277
1181 1234 2934.108590764774
1181 1257 4541.071252549085
1181 1310 3776.651476388608
1181 1321 1823.8989102701996
1181 1737 8087.626078740967
1181 1746 6717.246026283293
1181 1793 8419.437001683673
1181 1802 7641.504506328307
1181 1862 7729.339601507015
1181 1904 7576.474408549161
1181 1974 1995.7758996188352
1182 1183 809.0603207005032
1182 1192 741.6974139715724
1182 1210 942.6478114296809
1182 1211 523.3852049756555
1182 1214 822.4249715320276
1182 1225 271.6506798284671
1182 2127 711.1848653101387
1183 1186 1236.0764367207737
1183 1187 603.6415503648852
1183 1189 2189.9499511481563
1183 1190 388.8101010940471
1183 1193 475.4201649446954
1183 1196 565.0111142984822
1183 1198 1919.9685903233765
1183 1200 441.2888380013561
1183 1202 2295.9293752001413
1183 1203 865.5791678060403
1183 1204 792.8730150844837
1183 1209 2100.812680725698
1183 1210 343.34784064882393
1183 1211 288.6979093087078
1183 1213 2330.932086087714
1183 1215 419.62167307479183
1183 1216 1452.1640431753087
1183 1218 2080.409511284365
1183 1225 537.756265723553
1183 1226 436.3772574473206
1183 1228 729.6140968684808
1183 1234 2614.082490147677
1183 1250 4307.99435007414
1183 1253 1136.6819476748599
1183 1257 4335.890551522195
1183 1294 2156.915498651387
1183 1301 1848.9182353951064
1183 1310 3474.661427119454
1183 1321 1569.5250375428652
1183 1333 4393.788577531226
1183 1345 4299.715982925658
1183 1708 9918.586589804721
1183 1714 7684.130432439912
1183 1737 7905.49043250893
1183 1746 6573.594112536116
1183 1782 8223.675300064968
1183 1793 8243.655623595538
1183 1802 7510.283305886764
1183 1822 7649.089664921432
1183 1862 7663.9899320106815
1183 1877 8428.21326866102
1183 1904 7464.4210014402615
1183 1906 6869.18328253727
1183 1974 1722.2016038329705
1183 2126 1096.025983360993
1183 2166 876.2808294927646
1183 2575 1960.4271089525253
1183 2579 1120.2788178712062
1183 3036 877.0750848064467
1183 3178 11858.337895653382
1184 2053 295.9099657891509
1184 3108 433.2092429827985
1185 2053 242.96902892885248
1186 1192 1246.625183549113
1186 1210 999.2666248058462
1186 1214 1264.3270289408306
1186 1216 225.5419207000766
1188 1195 186.62092068694452
1188 1213 485.0766523412194
1189 1192 2192.8920090856936
1189 1216 739.5714138588442
1190 1192 395.2387024084969
1190 1203 479.4793908083822
1190 1214 360.6611135878193
1191 1206 564.2873631039121
1191 1216 680.8834416854007
1192 1193 410.04757065072766
1192 1196 501.0885682613541
1192 1198 1925.991015601054
1192 1200 456.95044226429656
1192 1202 2294.2699954304962
1192 1203 874.4251236638845
1192 1204 780.8147305318855
1192 1209 2106.28687887941
1192 1210 406.74860129368903
1192 1211 218.31618743564522
1192 1215 338.03727615452664
1192 1216 1458.3202222831676
1192 1218 2048.6238887527284
1192 1225 472.3204428535983
1192 1226 370.7041589061873
1192 1228 770.8948805073145
1192 2126 1114.8640270385474
1192 2128 607.0640164248426
1192 2575 1946.604360166593
1192 2577 555.70751924777
1192 2578 300.43062511220546
1192 3026 518.1376825696686
1192 3036 804.7809172956531
1192 3040 699.4726228572366
1192 3088 440.2008205238324
1192 3098 217.76011725072445
1192 3102 979.3529918368814
1193 1196 91.46495696446338
1193 1203 740.6596407007313
1193 1214 457.40444001544375
1194 1216 552.2006259315549
1194 3044 127.20205707907742
1195 1221 187.4370774486057
1195 3035 229.30628734684936
1195 3062 126.56273179861032
1195 3099 262.17086652689255
1195 3100 310.5437793238329
1196 1203 729.2181535346649
1196 1214 546.1408282930333
1198 1209 181.08719485127048
1198 1216 467.89077029703907
1200 1203 424.98342808454254
1200 1214 413.69911298959084
1201 1203 347.87708611597446
1201 2580 165.712062437884
1201 2593 54.094625695575395
1202 1209 266.9596936660714
1202 1216 857.1999390218972
1203 1204 224.6640205669412
1203 1205 221.2009353810897
1203 1210 1120.0260064347792
1203 1214 837.7507261489826
1203 1310 3338.152034461325
1203 1321 705.6044312919206
1203 1746 6935.637251683914
1203 1974 874.8293012630521
1203 2580 244.7471542915633
1203 2593 400.05433829708426
1203 2828 280.50611667140396
1204 2828 64.97939985740311
1206 1209 635.4744214628225
1206 1216 464.26776911227586
1207 1208 457.03731677195424
1209 1216 648.6497374878469
1209 1218 936.7671511418899
1209 1746 6184.459622950699
1209 2575 489.48999354620605
1210 1211 514.8214987097841
1210 1212 278.31402941153294
1210 1214 365.59514169621696
1210 1216 1224.0622112493152
1210 1228 418.8520383552912
1210 2126 836.8378489775744
1210 2577 156.66313421283164
1210 3026 111.52087976636822
1211 1214 299.8460031700367
1211 1215 172.9135849119854
1211 1225 254.84438341266468
1213 1218 316.5483457074996
1214 1215 421.55448874844876
1214 1216 1480.3609412366748
1214 1225 551.8171029530746
1214 1228 756.0856379751618
1214 2126 1124.185429860869
1214 2128 686.7822025722886
1214 3098 294.02999866147513
1216 1223 390.121313530175
1216 1228 843.551255701659
1216 1234 3996.7302460892934
1216 1746 6256.661511657131
1216 2126 400.9023626543326
1216 2576 323.9784807689209
1216 2579 349.8848293141009
1216 3032 731.71255955722
1216 3044 499.51571411756805
1217 2053 207.03171574845106
1219 1222 438.767029445217
1219 3105 676.1575759588858
1219 3106 465.8712604839129
1219 3107 335.39461784203957
1224 2580 323.50170605048936
1225 1226 101.67919380432897
1229 1233 243.70980063247885
1229 1234 1673.4667613997942
1229 1235 566.7580375212877
1229 1296 305.757670761168
1230 1232 790.2762918006865
1230 1234 1394.62814785273
1230 1241 510.47091963943245
1231 1234 1225.3975197100935
1231 1235 189.67432979481308
1231 1239 855.9820544620541
1231 2170 554.8671702487901
1232 1234 2180.497971339265
1232 1241 1296.731379547567
1233 1234 1430.969558760943
1233 1235 324.6410131206396
1233 1296 493.9175839816277
1233 1301 806.9894333309704
1234 1235 1106.7236000717182
1234 1236 429.1123018596313
1234 1237 3752.330803471509
1234 1238 827.5775507588038
1234 1239 388.5798643306257
1234 1240 620.2258693798893
1234 1241 917.490787531765
1234 1242 725.3995264764935
1234 1246 3600.120888722366
1234 1250 3782.49693201026
1234 1253 1571.2729025934027
1234 1257 4250.689982449532
1234 1310 2461.8964779599046
1234 1321 1366.5451637940962
1234 1333 4908.4181905823625
1234 1632 11340.359644108668
1234 1746 6657.499290843086
1234 1793 7866.294907067762
1234 1802 7588.480810811614
1234 1862 8237.809925474921
1234 1974 1138.2340542336935
1234 2170 678.7975464412469
1235 1239 723.5069225993888
1235 1310 1452.5696423031313
1236 1240 224.87252889868495
1236 1241 518.8652099833647
1236 1242 319.94796678153796
1237 2040 4248.827657653717
1238 1242 106.90166650323198
1239 2170 301.1978092423953
1241 3157 112.67825611698326
1243 1247 187.72978524706917
1243 1250 156.86502726842286
1244 1246 128.85586498325966
1244 1250 314.74153563877667
1245 1246 1169.561759629951
1246 1247 197.9793905491969
1246 1250 282.2168965447039
1246 1257 993.9380744762623
1246 1263 743.8391665149031
1246 1310 1138.5451828824935
1246 1333 2011.9718786007948
1246 1746 3108.2799194744994
1246 1862 4799.02668187257
1246 1974 4250.740566634521
1246 2581 1090.7929168335168
1246 2582 212.17666178858192
1246 2583 349.86956564548126
1248 1250 242.72414833999474
1248 3175 150.20964204385186
1249 1250 273.6217807194114
1250 1251 410.9591924151794
1250 1252 126.9185175525187
1250 1257 712.2268298839969
1250 1263 463.64216108192875
1250 1283 771.896269427035
1250 1310 1329.5121420561368
1250 1737 3800.8745858203124
1250 1746 2889.8983418185467
1250 1802 3807.7834901413585
1250 2582 444.4860605454906
1250 2583 187.30510927776993
1250 3175 134.59612533476428
1253 1301 1024.8319884269367
1253 1310 2528.4692507281266
1253 1321 1076.8339560832364
1253 1746 6179.131568094985
1253 1974 1069.9506022586302
1253 2166 270.09513608220675
1254 1257 181.62546603832757
1254 1729 2448.972408161677
1255 1257 534.851554354206
1255 1263 338.0693077895283
1255 2584 206.9992757081178
1256 1257 289.8729396007374
1256 1283 269.3614009404121
1257 1258 691.6074676635542
1257 1260 330.14181787968386
1257 1261 401.6651957134944
1257 1262 655.8540570423513
1257 1263 279.3127142976725
1257 1265 530.0648404619329
1257 1266 261.0022598290863
1257 1267 380.17975493024744
1257 1269 113.68126061850462
1257 1270 579.218585578231
1257 1271 447.50513367105714
1257 1272 1093.7818112469822
1257 1273 232.51345099015987
1257 1274 494.41798376980086
1257 1275 579.4299927172335
1257 1276 150.49130079238762
1257 1277 232.64547626889276
1257 1278 754.7359574115304
1257 1279 176.91088500968004
1257 1280 370.2791952899548
1257 1281 506.9208165448843
1257 1283 215.4494009749775
1257 1284 770.657879718652
1257 1285 289.2267279204321
1257 1286 713.7106074682289
1257 1287 1207.6647482656094
1257 1288 291.6993516662702
1257 1289 328.0223545709312
1257 1290 459.92552930417435
1257 1291 297.304836610953
1257 1292 645.1485589927728
1257 1293 83.7551709835578
1257 1296 2448.156803622906
1257 1310 1888.2928253258287
1257 1333 1025.4893720184316
1257 1356 1765.3519881585482
1257 1360 978.8857733372813
1257 1362 1009.0309933767312
1257 1714 4002.0128369588565
1257 1729 2460.8275800207934
1257 1737 3584.9476206872337
1257 1746 2434.8954977317594
1257 1793 3932.876431524357
1257 1802 3388.736871790246
1257 1822 3822.249752399089
1257 1862 3996.3215834551474
1257 1906 2744.6782909025146
1257 1974 4688.883590977023
1257 2587 698.3895221551985
1257 2588 206.99644450007486
1257 3024 356.0299737700279
1257 3025 495.8806249782314
1258 1263 835.7240398910449
1258 1283 530.1268660089258
1258 1287 777.6235422068735
1258 1746 1755.5496542402514
1259 1273 199.44077120959028
1261 1283 376.3819878205718
1262 1263 773.1139643984618
1262 1283 475.779771773158
1262 1287 716.0284569047875
1262 1729 1805.1860926630325
1262 1746 1779.4712591572418
1262 1862 3362.128847611934
1263 1264 325.7390702465602
1263 1268 200.20036076533844
1263 1281 259.2482609449453
1263 1283 310.218338098441
1263 1287 1163.6369872617404
1263 1291 240.52283821155268
1263 1310 1732.6589285905316
1263 1746 2509.030574823885
1263 2583 459.675331716864
1269 1273 206.34021726318468
1271 1273 216.2182246165991
1272 2585 321.11474251166555
1273 1274 290.6209065677949
1273 1279 157.41444792743224
1273 1291 130.27313305454646
1273 2586 195.78205872693306
1275 1293 495.8890519128428
1278 1293 713.9060083016908
1279 1287 1084.793674831451
1282 1287 94.10648632202361
1283 1286 566.3491980678749
1283 1287 992.3869216854692
1283 1310 2030.8712978145265
1283 1333 1050.3648554486717
1283 1362 975.4990659095115
1283 1729 2269.8894969248013
1283 1746 2243.0354826264543
1283 1862 3836.9740652961073
1288 2858 401.5491482280828
1289 3024 56.70363517802954
1293 2587 634.0648141959715
1294 1295 763.0100276093061
1294 1296 236.90423859262114
1294 1298 199.76413621618178
1294 1299 485.0619787718529
1294 1300 319.09882067732656
1294 1301 323.4639354420079
1295 1296 611.891074185193
1295 1300 593.1989097126378
1296 1297 426.15727317479264
1296 1298 414.0244278211924
1296 1299 670.0062137172381
1296 1300 397.97715517830005
1296 1301 552.0085945008683
1296 1310 1083.1396196877292
1296 1314 362.15163039681283
1296 1320 521.0198405706872
1296 1746 4883.019067779552
1296 2139 552.5898989041781
1296 3022 459.7113353197945
1296 3023 243.56867919036725
1298 1299 289.93725878869253
1298 1301 273.1383977623313
1299 1301 464.764572865929
1299 1302 117.38638437789031
1300 2139 381.41971320543064
1300 2589 446.97880179175525
1300 2590 440.51054589445243
1300 3023 280.841645708703
1301 1310 1626.5762911983663
1301 1746 5174.165346544816
1301 1974 1963.663987311167
1302 2139 464.10424541993376
1303 1304 320.94256670875797
1303 1360 1806.2284926321522
1303 1362 1687.5752106245245
1303 1367 886.0595318107439
1303 2165 358.4817909250424
1304 1347 1440.6340983146667
1305 1310 491.34385234102217
1305 1313 529.5517157707482
1305 1316 287.2909652131524
1306 1310 653.7075985148394
1307 1310 339.98108007200096
1308 1310 448.943174749717
1309 1310 302.0534263339895
1310 1311 843.221529144336
1310 1312 1008.0677158898782
1310 1313 1007.1160804036132
1310 1314 765.5183362864975
1310 1315 489.544121862862
1310 1316 618.403490831459
1310 1317 994.2006848832268
1310 1318 859.1538991845209
1310 1319 850.0007883951209
1310 1320 585.9088344340139
1310 1321 3310.450345048725
1310 1333 2752.9023896398453
1310 1708 6720.599734536768
1310 1714 5869.4242557677235
1310 1729 4248.657964543084
1310 1737 5062.458482273992
1310 1746 4218.890755861015
1310 1793 5424.060560523503
1310 1802 5135.767414990983
1310 1862 5865.790200711668
1310 1974 3152.972430279134
1310 2591 563.4668262058834
1310 2592 258.1564597333834
1310 3155 345.5174439693233
1311 1314 180.7285590633339
1311 1320 287.85722221675144
1313 1316 454.85906967349047
1314 1317 235.64709872266516
1314 1320 314.2782674546398
1318 1320 310.93499998367304
1321 1746 7209.773518773734
1321 1974 228.6429712640358
1322 1332 119.31522765326865
1322 1333 257.30846927765646
1322 1337 293.31080960262796
1322 1342 354.26139292734047
1322 1746 2395.674145573827
1323 1333 416.6744186324655
1324 1332 597.437196698132
1324 1333 266.32154921265015
1324 1362 242.57606282212635
1325 1337 228.9123665443616
1326 1333 307.20065375776966
1327 1333 313.19715990282384
1328 1333 368.8272962240121
1328 1360 81.48829246569372
1328 1362 137.33652285207882
1329 1333 635.8963943984808
1330 1332 848.8006884218353
1330 1333 517.7543609710393
1330 1336 399.6634480467211
1330 1342 418.07299250842044
1330 1360 285.48578105281325
1330 1362 352.02877544943567
1330 1746 1918.7573562053572
1331 1333 509.3095508985848
1332 1333 332.22108191143053
1332 1334 156.88370449958282
1332 1336 451.23819330462123
1332 1337 320.3487282178154
1332 1340 960.4343689410471
1332 1342 441.3346383872451
1332 1350 266.81997195748335
1332 1367 289.3974486613051
1332 2594 881.8848132820273
1333 1334 431.08734338516894
1333 1335 558.0032227715335
1333 1337 530.5239549116008
1333 1338 672.1245853469749
1333 1340 648.5275597641537
1333 1341 361.6115266493905
1333 1343 417.68852364916137
1333 1356 878.0410474656206
1333 1360 391.36169479719234
1333 1362 277.8666888323785
1333 1367 617.9661586345945
1333 1737 3639.6562738535026
1333 1746 2193.4148447487496
1333 1793 3945.072510964769
1333 1802 3117.4012624679594
1333 1862 3406.0916152250334
1333 1974 5128.83605729451
1333 2052 5676.234830773738
1333 2594 558.3160219380632
1337 1339 451.6662134657579
1337 2165 535.2701270193651
1342 1360 346.6086356225917
1342 1362 253.12350464327756
1344 1345 514.7467704220136
1344 1346 184.4184976222693
1344 1349 100.80086503075738
1344 1356 468.58543502692896
1344 1357 100.24456316598123
1344 1358 356.96802070859343
1344 1359 389.01365905169536
1344 1364 171.9713918282982
1344 1365 178.86807046881376
1344 1366 673.7239147330029
1344 1714 2875.9194175413645
1344 1746 2139.2063940763624
1344 1862 2855.4808948619157
1344 1904 2762.8571544218644
1344 2596 85.04018805419508
1344 2826 140.37204710367
1345 1346 336.8975114173273
1345 1347 234.5943925928736
1345 1350 275.9482648994903
1345 1358 193.2929941866003
1345 1359 174.0850180401726
1345 1364 674.4785138156966
1345 1366 258.8918248364427
1345 1367 341.0196623841324
1345 1369 179.7236979585891
1345 1746 2592.9827689449826
1345 1862 3366.297625821647
1345 2167 713.3419615854175
1346 1349 83.6295667487926
1346 1351 498.896468586762
1346 1356 594.4329776648757
1346 1358 172.95323364350747
1346 1364 337.6079178046943
1346 1368 471.92923892188077
1346 1369 266.28115683017256
1347 1349 194.6042210380339
1347 1356 683.3296605653499
1347 1358 63.479808523111416
1347 1746 2362.2788300263655
1348 1349 259.8620583040296
1348 2826 30.5964095975129
1349 1356 532.4217825138651
1349 1364 258.9618338706725
1349 1746 2212.7027590420903
1349 2826 229.47173957063296
1350 1359 212.43227843733857
1350 1367 164.12366618119898
1350 1369 145.56988959632517
1350 1746 2472.2780481067653
1350 1862 3393.2513460067776
1351 1352 73.03083942718715
1351 1356 109.10673490971256
1351 1364 199.69880030756656
1351 1365 203.08537253409594
1351 1368 46.96049314280883
1351 1692 2731.80526679674
1351 1714 2636.396672539439
1351 1729 1781.6249756703833
1351 1746 1780.864300803117
1351 1802 2574.81593945101
1351 1822 2588.940611241972
1351 1846 2589.505899369473
1351 1862 2618.773814089377
1351 1877 3407.9961166447974
1351 1904 2449.3756360597895
1351 2596 282.0068336211936
1351 2597 58.86427817234363
1351 2826 230.16483529030026
1352 1356 151.33468868947213
1352 1364 182.75166507883011
1352 1746 1833.3341645871908
1352 2891 80.49026855811591
1353 1714 2558.1142409600407
1353 1729 1581.2838137642887
1353 1862 2542.97209626901
1353 1906 1817.2175220893855
1354 1356 122.73672042819607
1355 1862 2609.5157586794885
1355 1906 1897.8243429308618
1356 1357 369.3850716772453
1356 1364 308.704265947859
1356 1365 312.1361215807225
1356 1368 153.8817159654152
1356 1692 2701.984669365957
1356 1714 2594.4042810507367
1356 1724 2507.491335120725
1356 1729 1683.7187018915847
1356 1737 3227.9358251370522
1356 1746 1682.0209344508582
1356 1782 3110.378257664849
1356 1783 1991.3164519316945
1356 1793 3482.3286486544266
1356 1802 2490.945892316267
1356 1820 2073.4835773731033
1356 1822 2533.8717364880404
1356 1828 1711.0484995202817
1356 1835 5369.8507724821475
1356 1846 2542.8037187682175
1356 1862 2577.9248285060044
1356 1874 2688.574984064961
1356 1877 3337.686974364956
1356 1886 2524.5151831870544
1356 1904 2376.30080271272
1356 1906 1913.3333308293566
1356 2467 404.1824111917522
1356 2596 386.340527337276
1356 2597 166.06509926801067
1356 2826 338.91749552817805
1356 2891 70.94631474450112
1356 2900 74.92497879460521
1357 1364 91.07308369040933
1357 1746 2044.4358133980923
1357 2596 18.018814495141363
1358 1364 501.00361238084423
1358 1367 382.6528401583951
1358 1369 97.50621732632138
1359 1367 351.4028400693261
1359 1714 3261.24391746681
1359 1746 2422.367679045042
1359 1802 3241.614309526688
1359 1862 3241.2734870009463
1359 1904 3116.515085017511
1360 1361 194.17178707783512
1360 1362 119.79170482668408
1360 1692 3321.985064585874
1360 1714 3160.8313650264545
1360 1729 1844.3692112900756
1360 1746 1828.1119730647588
1360 1802 2767.159904314028
1360 1811 3166.581021270374
1360 1822 3030.5364102516523
1360 1846 3086.3467185520108
1360 1862 3150.3686654415665
1360 1886 3037.5519316054656
1360 1904 2754.418601523916
1360 1906 2123.178885250699
1360 2468 675.0839137036263
1361 1362 75.41972429798503
1361 1714 3227.8398972249556
1361 1737 3423.6066102020823
1361 1802 2899.388094424228
1362 1364 904.1520148712684
1362 1367 849.5266223087459
1362 1746 1923.0492055112431
1362 1904 2830.355114989561
1363 1364 62.07915851661616
1364 1365 19.080447783311286
1364 1368 157.96485404337213
1364 1692 2805.8923255048194
1364 1714 2731.7448885842914
1364 1729 1967.7448355806807
1364 1746 1968.2856710659971
1364 1802 2738.8450325786202
1364 1822 2706.430221809584
1364 1846 2692.993155534334
1364 1862 2712.241150222504
1364 1877 3548.927418704628
1364 1904 2596.610157581336
1364 2140 45.57653281700395
1364 2596 107.94454248166134
1364 2826 31.907540194711167
1366 1367 82.70395656056299
1366 1862 3516.3424859037304
1367 1369 285.53125426777854
1367 1714 3576.034579665962
1367 1729 2621.1406687043695
1367 1737 4124.162088142333
1367 1746 2613.3490731374854
1367 1862 3557.363611602905
1367 1906 2874.0379048217364
1367 2165 567.8079041080806
1368 2596 248.44826106524724
1370 1371 950.5437318440457
1370 1372 468.95117169086734
1370 1373 210.2127305390754
1370 1375 625.830929398611
1370 1377 983.2900386118998
1370 1378 815.0903146255954
1370 1379 1686.0263144155056
1370 1380 2246.651369968706
1370 1394 3534.462261308044
1370 1401 3609.0377393522344
1370 1424 872.2078103456697
1370 1427 678.9385896538221
1370 1428 3121.668563289934
1370 1430 3124.221494914357
1370 1432 2399.0655440965684
1370 1435 2262.0547930014554
1370 1478 4113.185258116654
1370 1486 1644.0955376246952
1370 1538 4606.488786810956
1370 1595 5130.467867204884
1370 1635 3271.486324434798
1370 1668 841.4540981486604
1370 1910 4000.344076155858
1370 1934 4172.4014769375035
1370 1963 2620.4198998529
1370 2007 3080.913595573476
1370 2043 1358.1069024698397
1370 2173 3891.970599935987
1370 2182 2381.358524116208
1370 2200 2009.337977183532
1370 2201 926.744425446499
1370 2207 2081.4403425363525
1370 2213 757.4465793104422
1370 2598 1236.816412224821
1370 2599 1391.1093272506585
1370 2600 870.9849224131289
1370 2601 851.2039465702634
1370 2602 1477.5088614363292
1371 1372 908.3923371491313
1371 1373 913.9304156674264
1371 1375 974.4948757858483
1371 1376 1387.4245783997987
1371 1377 408.4383509017087
1371 1378 621.7702337541236
1371 1379 1007.8501031956313
1371 1380 2022.6454351810273
1371 1394 2823.0333249842943
1371 1401 2724.7095509894234
1371 1404 2913.9374788903497
1371 1408 455.6232768361444
1371 1422 943.1888865353307
1371 1427 1098.5906815140725
1371 1428 2293.279742320099
1371 1430 2303.643123732143
1371 1635 3652.0898892836576
1371 1668 1435.3706911302838
1371 2007 2263.6261341974296
1371 2043 868.3239174225848
1371 2200 1490.1824294874846
1371 2201 827.1450066912222
1371 2207 1718.9703250139544
1371 2599 444.41135372467585
1371 2600 456.9065656109888
1371 2601 786.3661150687909
1371 2602 592.2250892383336
1372 1422 1714.0347229923154
1372 2007 2763.9244018606564
1373 1374 306.2957982000566
1373 1392 2439.882835705494
1373 1401 3491.907648270977
1373 1409 2807.9190379246816
1373 1417 1650.3865596728479
1373 1421 2034.1670768874405
1373 1422 1801.9825960202452
1373 1424 691.5919418501428
1373 1427 472.82329743532216
1373 1428 2986.622036358698
1373 1432 2276.2558311527528
1373 1649 2554.4781323286225
1373 1668 1051.6660608330183
1373 2007 2942.82332353056
1373 2043 1454.0423284700757
1373 2173 3696.0737004686935
1373 2212 1940.1456192829232
1373 2641 2965.7086881409928
1374 1392 2715.989988942087
1374 1401 3607.0845172533
1374 1417 1832.4687808421675
1374 1421 2305.965988974908
1374 1422 1991.7166372581728
1374 1432 2392.265718066362
1374 1435 2217.8464743580357
1374 1668 1260.6515779110719
1374 2007 3025.195884033985
1374 2043 1758.6811279834374
1374 2212 2244.2390956256645
1375 1401 3280.4715615927166
1375 1430 2736.2077071136205
1375 2007 2691.18376394786
1375 2043 1700.5970058769765
1375 2207 1498.6437254931614
1375 3066 487.38796999463557
1376 2200 448.4502087247575
1376 2207 811.3932762659211
1377 2007 2561.9165072124633
1378 2601 164.6214240555496
1379 2007 1412.0578166732184
1379 2207 847.1600742693568
1380 1394 1846.226108244647
1380 1401 2549.016917155474
1380 1404 2217.8872939631306
1380 1408 2351.711057082533
1380 1411 708.246247740776
1380 1422 1969.5495062364278
1380 1423 767.0607375925288
1380 1427 1616.5956112205963
1380 1428 1954.6899740378922
1380 1434 1625.3350008130592
1380 1635 5502.627735123226
1380 1668 3080.6317650234027
1380 1953 2617.6179398822533
1380 1963 447.2198250148282
1380 2007 1885.3797127598405
1380 2043 2885.0558900074598
1380 2173 1745.1941755289254
1380 2182 569.9800903721616
1380 2207 386.94374964318024
1380 2212 3514.5060936158848
1380 2603 316.23135087827063
1380 2925 1685.4288523822534
1380 3178 1695.7450310042873
1381 1382 812.2358358942738
1381 1383 1305.3495182172746
1381 1384 1545.5458885165192
1381 1385 1149.5998663143444
1381 1389 2084.5227408630044
1381 1392 1860.017720734589
1381 1393 1756.7474584161064
1381 1401 4841.558379425714
1381 1428 4871.591165576045
1381 1430 4909.365958900413
1381 1635 2603.550343739134
1381 1669 1845.205708878863
1381 2007 4897.114520090145
1381 2043 2775.175315179807
1381 2212 2191.1489189787317
1381 2605 976.9889891346626
1381 2606 1236.3838047301217
1381 2607 1611.858577269261
1381 2608 1068.6059234493953
1381 3139 807.9171169755833
1382 1392 1276.493812351323
1382 2007 4171.483266807357
1382 2043 1967.4906120995656
1382 2212 1401.5029835040418
1382 2605 440.44162858736297
1383 1384 599.7678864229728
1383 1389 859.702570334796
1383 1390 996.623215115645
1383 2007 5602.301425484171
1384 1385 1610.8722180790735
1384 1387 1704.1434737850648
1384 1388 591.8794274960956
1384 1389 616.6968246632682
1384 1390 1596.1918343905254
1384 1392 2204.8088999387933
1384 1393 1997.1540555668746
1384 1428 6136.863754765793
1384 1478 3469.2871138828323
1384 1635 1746.1669349843148
1384 1669 749.3364000360876
1384 1934 1418.0574632832127
1384 2007 6149.931131594542
1384 2043 3596.6333627082013
1384 2212 2968.419594493679
1384 2609 3074.205745760913
1384 2813 400.0040979010355
1385 1392 2929.172164155112
1385 2007 5892.389667129225
1386 1430 5581.346607751205
1387 1389 2210.8242970130054
1387 1428 6742.305912032636
1387 2007 6774.73862642213
1388 1389 914.3149408378138
1388 1428 6641.58112547396
1388 1669 1271.5472925618965
1388 1934 1695.380003146775
1388 2007 6658.533851665461
1388 3124 9265.864186747966
1389 1392 2275.882382170616
1389 1428 6404.469455835977
1389 1478 2884.207819809048
1389 1635 1340.6978339024736
1389 1646 712.5191725857483
1389 1934 816.4110085450393
1389 2007 6410.27142019331
1389 2043 3729.546675596487
1390 1392 608.6439017200217
1390 1393 403.0808188426868
1390 1428 4726.102377061689
1390 1636 556.4188742074921
1390 2007 4728.450099522468
1390 2043 2036.6671798057275
1390 2917 393.32257587634024
1391 1392 488.34029611738913
1391 1430 3860.1379857138927
1391 2007 3834.247713046472
1391 2043 1199.360812545454
1392 1393 214.72165904340483
1392 1405 884.0728026064701
1392 1424 3124.082823791715
1392 1427 2904.06978048908
1392 1428 4210.949520723659
1392 1430 4236.751354309222
1392 1635 1643.9622468617276
1392 1669 1750.1318658537796
1392 1910 4302.925316664105
1392 2007 4207.856734472206
1392 2043 1458.826324973022
1392 2212 885.2384822611473
1392 2617 686.9452792434791
1392 2908 517.4869874623606
1392 2917 954.0766213778264
1392 3134 882.1877594786718
1392 3139 1134.5395321950275
1393 1428 4412.756160875136
1393 1635 1480.8359788017026
1393 2007 4410.916281411951
1393 2043 1671.678366236195
1393 2212 1087.8819051204284
1393 2917 739.3718008582827
1394 1395 557.4152880764445
1394 1396 376.29622832816034
1394 1397 631.9287530906987
1394 1399 498.46411071816516
1394 1400 435.9820219060157
1394 1401 1052.1403271367776
1394 1403 858.3395344281191
1394 1404 439.19820423140527
1394 1413 731.3686941083403
1394 1422 2080.231878977405
1394 1427 3102.5689898897454
1394 1428 761.2126104952091
1394 1862 7532.623424089639
1394 1910 7415.859375684722
1394 1943 1485.453370885299
1394 1953 861.2901832024686
1394 1956 609.259337508834
1394 1957 1545.4592193296842
1394 1963 1448.1841974647593
1394 2007 733.0655530474995
1394 2043 3445.750582330611
1394 2173 1057.5378101433557
1394 2611 387.28566911186635
1394 2612 475.7076569932833
1394 3078 660.1367197001624
1395 1428 878.6087298257902
1395 1962 753.5779438292832
1395 2007 815.7178850801553
1395 2173 1039.76848537434
1395 3086 2995.4901658915232
1396 1428 861.2490715425794
1396 1957 1173.5780585734803
1396 1961 907.0603773722917
1396 1963 1072.19968074373
1396 2007 807.2316854018603
1397 1401 1658.4773370839564
1397 1413 531.5973566471343
1397 1428 1238.013746332559
1397 2007 1184.5790023665927
1398 1430 734.5923277987537
1398 1943 1478.6663161189906
1398 1956 585.8844879977944
1398 1962 1297.3442195493515
1398 1972 1488.1776607303696
1398 2007 747.4417500475729
1398 2610 452.23925917081294
1398 2613 622.5510572628165
1398 3086 3539.4669865425517
1399 1430 1100.0825136722667
1399 2173 1075.1241747099443
1400 1428 1159.3298567740942
1400 1430 1117.1781230616173
1400 2007 1118.5910219423454
1400 3086 3232.8379994746997
1401 1402 1005.6685256333764
1401 1403 795.2655053213919
1401 1404 671.7849297768294
1401 1408 2586.6602044855285
1401 1409 1745.8278537356498
1401 1410 2227.0355365775617
1401 1411 1933.6491072755243
1401 1413 1505.752403238664
1401 1414 1932.5928053953896
1401 1415 1902.0775017057579
1401 1416 1521.8421037540122
1401 1417 1909.7630701081061
1401 1420 1486.3785902169545
1401 1422 1801.0146646199519
1401 1424 3580.777787365087
1401 1425 3250.9414446952933
1401 1426 3383.1046733777557
1401 1427 3364.851149824644
1401 1428 599.2898375632238
1401 1429 1048.0012829307027
1401 1430 625.4498221704779
1401 1431 1132.885729072885
1401 1432 1216.846248259784
1401 1433 1792.9203419805453
1401 1434 1637.3805407809255
1401 1435 1395.621823406303
1401 1527 8012.299475992042
1401 1635 6056.568196265285
1401 1934 6798.026993517281
1401 1943 2472.0531673518226
1401 1953 486.44756826074735
1401 1956 647.4865277010983
1401 1957 2396.0718163860784
1401 2007 666.8847619624646
1401 2043 3097.6082129161814
1401 2066 2033.3447062206105
1401 2195 2797.280881918703
1401 2196 1711.916064771418
1401 2203 759.0367358159637
1401 2208 1301.6258371974031
1401 2212 3553.534910268584
1401 2213 2921.6651487841727
1401 2603 2392.797976182401
1401 2615 440.73016520558906
1401 2629 1386.6324983338197
1401 2630 1093.8300970907217
1401 2633 3477.2931551929855
1401 2634 3570.185908532108
1401 2635 3572.810923143861
1401 2636 3508.7817287251737
1401 2638 2899.3271302039543
1401 2639 3407.84779855322
1401 2641 1093.216503836445
1401 2644 1464.0589573141358
1401 2645 1085.4839504210404
1401 2648 1100.395835606181
1401 2829 3254.282838234189
1401 2911 623.0143642989771
1401 2925 1372.8883106744322
1401 3047 2996.7672541850357
1401 3066 3680.9961086128314
1401 3086 4330.964479971441
1401 3121 2679.573576425871
1402 1428 1443.4527114891482
1402 2203 581.309174243173
1402 2615 1086.9318962267573
1403 1404 494.2223231038773
1403 1427 3827.633427513041
1403 1428 1065.4408194061375
1403 1953 308.9223176474884
1403 2007 1098.79573735765
1403 2615 1155.7087280677956
1403 2641 1171.8831139554286
1404 1409 1268.238041743435
1404 1414 1449.4351668481136
1404 1422 2077.5030899029075
1404 1423 2900.050317778265
1404 1428 642.4042520253633
1404 1435 1451.9315393828065
1404 1953 424.16050734940393
1404 1956 196.88663986128776
1404 1957 1957.9119486405236
1404 1961 1694.26339885253
1404 1962 1681.307177320768
1404 1963 1846.3931585846044
1404 2007 657.048801769972
1404 2182 2724.8668705643217
1405 1428 3374.8483492535515
1405 2007 3366.285263899704
1405 2195 1743.7877523069053
1406 1428 2924.4875926230657
1406 2007 2910.104499812916
1407 1428 2994.443609182794
1407 2007 2986.3392147314844
1408 1414 2704.8257754044093
1408 1419 690.83460222017
1408 1424 1856.970137467059
1408 1427 1552.7995004205702
1408 1428 2239.7501260788554
1408 1957 2692.231834473814
1408 2007 2223.6316194956576
1408 2043 595.437657698866
1408 2173 3556.1825018600452
1408 2205 1246.560125090597
1408 2626 718.1469847478669
1408 3086 3659.690399164734
1409 1410 722.2341783843781
1409 1414 187.01432525242404
1409 1416 572.6344292840835
1409 1422 1984.0778576651708
1409 1424 2546.190019921428
1409 1427 2463.9690115595836
1409 1428 1222.4597886432732
1409 1429 753.8599073277634
1409 1430 1181.5466217193175
1409 1943 1490.1458623380108
1409 1957 691.28377670324
1409 2007 1156.9987661770374
1409 2043 3236.842649739604
1409 2173 923.902483929097
1409 2205 3225.1178644036736
1409 2207 954.4216807556124
1409 2212 3851.74579459663
1409 2633 2538.272536585264
1409 2635 2693.366026457908
1409 2636 2653.274236782943
1409 2641 652.6533783094524
1410 2007 1566.1469071673005
1410 2207 301.37007018928426
1411 1415 448.16552774128303
1411 1422 1862.2957889414442
1411 1424 2228.2421070080463
1411 1427 2155.4201389102077
1411 1428 1366.241765382439
1411 1430 1329.6846579847033
1411 1957 466.158202731478
1411 2007 1296.926803460615
1411 2173 1185.3738037380253
1411 2204 845.3747941851252
1411 2207 641.273148100238
1411 3086 2411.036665739857
1412 1428 1252.0208861672959
1412 2007 1183.1066885003875
1412 2173 1139.894812137836
1413 1416 357.89881600014445
1413 1422 1746.2755146242123
1413 1424 2532.8504881126455
1413 1427 2417.669721303046
1413 1428 958.3396939498824
1413 1435 983.7893539220775
1413 1957 891.8041004380314
1413 2007 891.0427351192156
1413 2633 2502.3947736700493
1413 2641 426.1545312974532
1414 1422 2080.6437088410453
1414 1424 2470.1610264704595
1414 1427 2409.440037874499
1414 1428 1404.1600196860334
1414 1430 1363.7626332530497
1414 1432 1506.827685775098
1414 1957 519.7342787444804
1414 2007 1337.8588863425516
1414 2195 3915.0263705610078
1414 2212 3914.290726003452
1414 2633 2476.4997632501077
1415 1428 1303.3987102592496
1415 1432 1040.4397568815225
1415 2007 1235.2397484583312
1415 2173 1615.5874796784606
1415 2207 362.32062439050446
1416 1424 2259.8500079392143
1416 1427 2118.6640808624365
1416 1428 926.6159111697691
1416 1957 960.200081062446
1416 2007 857.3047567587453
1416 2638 1502.563188542715
1417 1424 1942.4883161391663
1417 1427 1662.236704240691
1417 1428 1505.9216209518404
1417 1432 770.5095644214491
1417 1957 2104.1355233500367
1417 2007 1484.4365008346276
1417 2043 1338.6333155827388
1417 2633 1783.274871849846
1417 2636 1754.3353440419532
1417 3086 3420.9394749806197
1418 1422 394.600812057428
1418 1428 1395.5379846385774
1419 1422 1012.6041122425543
1419 1428 2301.2978208718837
1419 2007 2306.7229088964323
1419 2043 752.8952499208723
1419 2066 761.0863002935652
1419 2626 398.811996342239
1419 2633 2351.8498876390945
1419 2644 1557.173972874971
1420 1428 1145.1609087156685
1420 2007 1137.7353629967668
1420 3086 3672.0895552235284
1421 1422 881.4051138702401
1421 1424 2554.883728609089
1421 1428 2134.6122083237724
1421 1434 1273.6662616522437
1421 2007 2141.353275140926
1421 2043 886.885364682228
1421 2066 650.3237892469092
1421 2161 872.7004904345278
1421 2633 2362.86886996323
1422 1424 2107.6696405296543
1422 1426 1947.6656546003326
1422 1427 1826.303762387309
1422 1428 1436.2813908703395
1422 1430 1455.791313154958
1422 1431 785.1244664699071
1422 1432 723.5242028928358
1422 1434 393.12202405538903
1422 1435 765.1269754163065
1422 1527 6307.611127341911
1422 1635 4364.686665525594
1422 1669 4536.086772318911
1422 1910 5857.577179327788
1422 1957 2194.246394052988
1422 2007 1421.871734343298
1422 2029 3814.448703236693
1422 2043 1370.2991513675688
1422 2150 1043.709624676218
1422 2195 1904.790099869375
1422 2204 1116.7757216924945
1422 2205 1324.6135823860052
1422 2206 1073.247548431819
1422 2211 980.8619763482232
1422 2212 1930.712771260015
1422 2214 440.8465315235863
1422 2625 1135.926299074962
1422 2626 672.5631390718721
1422 2627 655.4890966209589
1422 2628 534.1109028726377
1422 2629 447.27908762049213
1422 2631 1158.736409422457
1422 2632 318.78391403613983
1422 2633 1947.3453775818161
1422 2636 1915.4379051160909
1422 2925 554.704125851332
1422 2931 836.9419199529722
1422 3066 2188.5089123560424
1422 3086 3570.18427446949
1422 3117 837.1568841491378
1423 1481 1651.1374490439805
1423 1486 2027.0603630053245
1423 1668 2517.7168810105104
1423 2007 2467.8101831425583
1424 1432 2388.8742054349023
1424 1433 1802.0787665118814
1424 1434 2030.1730297970882
1424 1435 2187.2515782087876
1424 1486 1347.3551177284785
1424 1668 1665.2603691805014
1424 2007 2961.5442966335004
1424 2043 2103.6937683883034
1424 2150 2694.8601234968764
1424 2182 1605.1650860330442
1424 2183 850.5579211381163
1424 2212 2623.451762117449
1424 2925 2264.9574473580315
1425 1427 437.73683118551907
1425 2007 2615.658840776383
1425 2638 381.2788115707722
1426 1427 260.26433875865246
1426 1432 2197.001853903087
1426 2007 2760.334752946594
1426 2212 2610.8176378586086
1427 1428 2817.4599515668438
1427 1430 2810.8375606526015
1427 1432 2157.7813001863483
1427 1434 1778.218810276793
1427 1435 1969.7467843275695
1427 1481 1170.00402446316
1427 1486 1579.5078917962326
1427 1595 5369.445610639558
1427 1600 5638.114057079626
1427 1635 3941.6774744057243
1427 1668 1515.086538732808
1427 1910 4317.9643771217725
1427 1934 4843.785750332963
1427 1953 3640.7639774123804
1427 2007 2765.62548794152
1427 2043 1816.2118385098202
1427 2066 1793.9262051750438
1427 2150 2477.2306262631128
1427 2182 1705.2301243392278
1427 2212 2355.4140307759767
1427 2634 259.6288008052744
1427 2635 230.1927589184747
1427 2636 193.0100915869198
1427 2637 810.8134256091939
1427 2638 720.9865495811049
1427 2639 392.9500049515863
1427 2640 473.0196375669745
1427 2829 369.0091473962017
1428 1431 994.8795325666206
1428 1432 741.9218492616789
1428 1433 1265.8336277300743
1428 1434 1176.4849278281692
1428 1435 861.7323821669102
1428 1478 7137.152344145086
1428 1486 4363.356019215545
1428 1518 6587.296971985327
1428 1535 6729.790342198971
1428 1538 7726.68154432873
1428 1635 5795.09833484762
1428 1639 7003.087753400475
1428 1649 4635.18437267838
1428 1668 3728.650301186536
1428 1672 6850.944713206605
1428 1708 9757.494259617957
1428 1746 9200.278468200904
1428 1822 7811.587673785602
1428 1862 7480.92547262357
1428 1910 7104.620240543007
1428 1934 6585.753287723603
1428 1943 2241.941162205548
1428 1953 831.5516080451666
1428 1956 780.9188211027907
1428 1957 1832.3262171563877
1428 2029 3122.239575047331
1428 2043 2800.3782060931067
1428 2066 1702.5289400640183
1428 2150 395.9009448518015
1428 2161 2898.4124382388977
1428 2182 2511.8430634788733
1428 2196 1219.8744430754923
1428 2203 976.1373566556988
1428 2205 2333.6038582464453
1428 2212 3325.904991077331
1428 2213 2481.6609519617223
1428 2611 676.6686901862586
1428 2618 3104.217225146229
1428 2910 1267.2680842771156
1428 2925 917.5090007713284
1428 3047 3000.9886136276623
1429 1430 439.4954240887241
1429 1957 1356.4546105552674
1429 2007 409.1027684377605
1430 1435 862.4756074567784
1430 1518 6563.035427423444
1430 1527 7474.618827452431
1430 1635 5817.287804532791
1430 1708 9794.066036744814
1430 1746 9217.779211419938
1430 1862 7500.778041131709
1430 1953 832.7376638236888
1430 1956 768.0639222894883
1430 1957 1795.5911707442424
1430 1962 1538.648095736893
1430 1963 1645.6853971215603
1430 2029 3079.1347518117414
1430 2043 2822.1452466830497
1430 2150 412.49280286435186
1430 2195 2874.0150292006515
1430 2200 1376.6374886118656
1430 2205 2370.2337876253932
1430 2207 1633.7968898224974
1430 2208 1279.05788045335
1430 2212 3351.9321681532615
1430 2602 1711.5869408180404
1430 2610 869.2258867568463
1430 2615 411.90631979490195
1430 2628 1645.1941933756973
1430 2630 798.0897569154453
1430 2631 2186.2403561755486
1430 2637 2168.571888452707
1430 2642 431.79130720844233
1430 2827 413.76249950929525
1430 3086 3711.178359452564
1430 3117 1859.77005768859
1431 2208 261.66944178979645
1431 2210 675.039219527458
1431 2643 899.9103776017987
1432 1434 435.51164944718346
1432 2007 715.6503389810327
1432 2633 2272.7546239817916
1432 2635 2360.733038221209
1432 2641 1008.2545027480909
1432 3086 3448.2975074496094
1433 2007 1221.7544660078204
1433 2633 1687.2380378877342
1434 2007 1147.145281463643
1434 2066 657.4065762625354
1434 2195 2275.00217310358
1434 2205 1695.9773464871216
1434 2206 1460.4109085477608
1434 2631 1522.5271070233878
1434 2633 1896.6332778017807
1434 3086 3298.6974715001074
1435 1957 1547.505546256519
1435 2007 818.9352149868872
1435 2150 508.1088428178852
1435 2195 2573.7249364267063
1435 2633 2081.734170483955
1435 2641 978.9379416443387
1435 3086 3208.3065854819406
1436 1438 444.16073659853487
1436 1444 864.9569198083849
1436 1450 517.3535545631928
1436 1464 1619.9447591063276
1436 1486 756.521063938785
1436 1489 525.5027585817254
1436 1506 1221.8893064357853
1436 1513 1374.9528612236911
1436 1595 3861.238983898355
1436 1600 4156.690929043387
1436 3086 1785.3831040613115
1436 3178 2144.7108884163704
1437 1438 278.85699478285653
1437 1486 983.0967271247522
1438 1439 572.5832645284414
1438 1441 363.02444596296334
1438 1442 657.6923816452398
1438 1443 304.59048977970656
1438 1444 424.80264161949015
1438 1445 505.9539172931353
1438 1446 872.6368768007146
1438 1447 478.60978083517375
1438 1449 682.5937256385524
1438 1450 124.2010099964538
1438 1451 439.3388352816218
1438 1452 418.81815016720896
1438 1453 954.7017174372656
1438 1454 225.59907397265843
1438 1455 623.8780213194141
1438 1456 1525.7866706183784
1438 1463 1361.685816722065
1438 1464 1665.4923715451653
1438 1468 1448.7936940519587
1438 1469 1373.199754960178
1438 1470 1103.0455426913377
1438 1477 1887.8502043307687
1438 1478 4271.908120426648
1438 1479 1036.9110402395652
1438 1480 1153.1059951678644
1438 1481 1416.6104831552284
1438 1482 1247.2867435708788
1438 1484 1347.1862150178852
1438 1486 1138.2316935962347
1438 1487 971.3376586039551
1438 1488 796.6398439730476
1438 1489 911.3297506222618
1438 1490 1524.9748609336687
1438 1494 1183.5849524382484
1438 1495 1667.3407775282515
1438 1502 1592.310050948338
1438 1506 834.163808210639
1438 1508 1001.7893258862837
1438 1509 1063.813622662114
1438 1510 944.1718563861019
1438 1512 714.7531662857384
1438 1513 1033.406237126303
1438 1516 1257.7086375735066
1438 1595 3624.375915888105
1438 1600 3921.8215442021615
1438 1664 3372.016536285141
1438 1714 12545.846528162801
1438 1910 3030.5878961463523
1438 1934 5547.915053084176
1438 1967 3052.5478411748095
1438 1970 3064.6394176854737
1438 2031 4533.002981939825
1438 2182 2799.3149877126534
1438 2395 272.1263172044346
1438 2649 476.61750419553454
1438 2652 2071.0710111392123
1438 3178 2291.2647420848584
1440 1506 445.0110559187798
1441 1486 794.4760972078547
1442 1453 509.97819213356723
1442 1486 587.46566397447
1444 1450 356.09257738490453
1444 1486 1504.2483643798412
1444 1506 482.93557307695113
1444 1513 733.0756798223784
1444 2007 5401.553311393596
1444 3178 2559.763909528465
1445 1449 380.747030467208
1445 1450 500.1866505068014
1445 1453 635.8474887504725
1445 1486 662.8587289974618
1445 1506 1077.9578271325265
1446 1486 667.8105142621149
1448 1479 325.42489139243094
1448 1482 304.3299252797741
1449 1450 604.530044143897
1449 1453 279.3263807708314
1449 1464 985.1798434675062
1449 1486 853.8952460137822
1449 1506 889.2713905300998
1450 1464 1577.3100194308752
1450 1486 1156.4668568083791
1450 1506 722.6877062790022
1450 1509 974.6932488711566
1450 1513 912.8844693750666
1451 2395 167.31743021026386
1453 1464 711.0468875695484
1453 1470 414.97942835586525
1453 1486 944.8324318261857
1454 1486 938.0335827623833
1455 1486 542.5919049319563
1456 1477 2165.7625725985545
1456 1486 2395.855267746089
1456 1506 710.2200230555522
1456 1509 505.61071491252017
1456 1511 354.74924332956203
1456 1513 646.7129377988749
1456 1515 418.93896309933695
1456 1516 357.13046845081226
1456 1518 777.678604863659
1456 1582 3318.189204090024
1456 1595 2466.9012341565794
1456 1600 2749.713593481223
1456 1635 5163.684978753292
1456 1651 3156.1557374686568
1456 1672 5098.798128352668
1456 1910 2391.5841579718517
1456 1934 5767.883996746025
1456 2007 6511.354250883811
1456 2650 140.51619247780127
1456 2658 1150.5189318654816
1456 3086 3283.6792380273932
1456 3135 169.36141030622983
1456 3145 126.91171461915053
1456 3178 3612.5452890934266
1457 3145 81.70209309711541
1458 1459 235.56809240534108
1458 1478 1536.0932039985119
1458 1499 757.0594148400562
1458 1519 529.4951287845266
1458 1535 1080.6475306398004
1458 1538 213.18005401977084
1458 1550 1111.7381208686868
1458 1595 1037.8020788307588
1458 1600 1137.6632298874893
1458 1639 1592.288549759536
1458 1642 1279.6663185965435
1458 1672 2790.497180763908
1458 1910 503.93040646244003
1458 1934 3597.769587623114
1459 1478 1455.607036267113
1459 1496 742.4096128706069
1459 1497 285.67641145991183
1459 1519 350.8685567331111
1459 1534 555.1192242518887
1459 1535 893.8620113374952
1459 1538 422.267330701598
1459 1595 1208.229508709581
1459 1600 1341.2173065015209
1459 1635 3217.077922383753
1459 1639 1493.3284314779014
1459 1651 1303.2997764907952
1459 1672 2696.257667647881
1459 1910 332.79917510066025
1459 1934 3490.3277649612464
1459 2054 315.3746045650762
1460 1464 316.5548340170402
1460 1465 286.11143818074856
1460 2652 249.19714550054212
1461 1464 446.24383859684065
1461 1465 164.92188740644352
1461 2652 272.6102861109678
1462 1464 447.88598246263757
1462 1486 1125.1653340885407
1462 1517 135.00828632951078
1462 1910 1938.6881601562889
1462 2652 330.6723117229953
1463 1464 381.8874030028685
1463 1470 391.22214149286447
1463 1486 1277.7141135442969
1463 1506 1165.682744377965
1463 1514 1208.2840051036246
1464 1465 602.1570633261364
1464 1466 525.0130699269441
1464 1467 851.9091613479693
1464 1468 471.97669849416883
1464 1469 328.18977047983464
1464 1470 773.1060423953497
1464 1472 348.88502682441174
1464 1477 239.16637833247722
1464 1478 2613.798385945645
1464 1482 646.9230068084429
1464 1486 1312.682173385738
1464 1489 1356.7130993718943
1464 1502 640.8944345735323
1464 1506 1546.8420311873733
1464 1513 1385.7072395785706
1464 1514 1306.1494073085992
1464 1517 537.1151532902102
1464 1550 1026.8438198178085
1464 1595 2635.5813659106366
1464 1600 2903.970127145303
1464 1651 1496.6645612713141
1464 1910 1636.8442134581337
1464 2651 493.2031520616667
1464 2652 498.3126655271255
1464 2653 648.1318070881787
1464 3178 3742.9940095628913
1465 1466 94.1830085089999
1465 2652 276.1244717748658
1466 2652 192.7147377750513
1467 1486 1760.833084593676
1467 2652 373.3980425863976
1467 2653 216.72708200796072
1468 1469 254.2934808780462
1468 1486 856.7138182113005
1468 1494 438.674481244241
1469 1486 1007.6674689545404
1470 1486 1358.0012130262883
1470 1506 776.1989105738012
1470 1513 619.6843734108112
1470 1600 2908.7807412393595
1471 1477 310.6732087529458
1472 1477 228.86922930578731
1472 1595 2417.606777667314
1472 1910 1341.023935050046
1472 3086 3735.9599400428147
1473 1477 145.89661875640414
1474 1475 149.9191916714826
1474 1477 192.43015734415104
1475 1477 260.70241985843853
1476 1477 193.9899863919203
1477 1478 2409.066765828333
1477 1486 1425.411670598413
1477 1502 661.7872645368927
1477 1513 1617.3963632655043
1477 1517 407.67975297885823
1477 1550 975.5003697362303
1477 1595 2642.348115305827
1477 1600 2898.236009358598
1477 1639 2331.2061926907636
1477 1651 1275.4657744036851
1477 1910 1568.3258302976553
1477 2654 116.32258307155709
1477 3178 3912.6774260135953
1478 1486 3746.4029826447104
1478 1502 2932.3681028914502
1478 1506 3954.9524088981416
1478 1513 3713.1513680757407
1478 1518 4788.916019692003
1478 1519 1686.4976883056681
1478 1526 2048.2775800969976
1478 1527 2296.526898192942
1478 1534 919.3313162464176
1478 1535 845.8755422043207
1478 1538 1492.9786954157744
1478 1550 1955.3193902608978
1478 1577 1834.8477823383607
1478 1580 1933.94204312628
1478 1582 3259.0526883950893
1478 1595 2543.09359326936
1478 1598 2393.234847235194
1478 1600 2565.5793222144457
1478 1603 6947.9962580840975
1478 1605 5568.025231590354
1478 1619 7412.510533383169
1478 1620 6875.848615186342
1478 1626 6036.1955271568195
1478 1632 7393.856387141549
1478 1635 1992.0482497769524
1478 1637 1897.9264108071839
1478 1638 1721.040677586611
1478 1639 136.0124309238317
1478 1640 657.5801937086857
1478 1641 510.07254186203824
1478 1642 591.0613729667298
1478 1644 1357.799822793228
1478 1645 942.8162259456342
1478 1648 1440.4919629249146
1478 1649 2909.7888838606077
1478 1651 1160.3815339494045
1478 1652 496.47665911766717
1478 1653 755.6502048367778
1478 1654 708.9678256388227
1478 1655 1094.0549750179753
1478 1656 1124.9383940531873
1478 1657 1157.297934205713
1478 1658 1104.9397701363248
1478 1659 1672.458387254016
1478 1660 1232.0003103330139
1478 1661 1824.1476534307403
1478 1662 1098.0789997615632
1478 1663 859.9194531289024
1478 1664 1351.6585219665683
1478 1669 2823.2471958403808
1478 1671 1988.6148113612653
1478 1672 1255.6694370160753
1478 1705 11128.161945150312
1478 1708 11664.48876254635
1478 1714 12959.929625629957
1478 1862 12970.398971430643
1478 1877 12522.553544129394
1478 1910 1689.39348362166
1478 1932 3303.5271569782217
1478 1934 2069.7311694210193
1478 1935 1605.1303823286917
1478 1942 3456.0883926379165
1478 1944 2624.751905702399
1478 1977 2475.6349650754005
1478 2007 7108.612924483012
1478 2008 647.1485913138805
1478 2009 1465.0002024035925
1478 2043 4463.6707194608925
1478 2046 1949.628327090331
1478 2063 1648.562013672453
1478 2074 445.14554149622
1478 2085 1056.3959417491953
1478 2089 2327.54541731174
1478 2093 1354.0877670735397
1478 2125 1711.4030079543152
1478 2164 298.9298116832543
1478 2761 320.60698095137496
1478 2764 386.95437142215417
1478 2768 948.5118207208928
1478 2787 1446.5924852731766
1478 2790 550.9187810818835
1478 2793 1207.8013882768598
1478 2794 727.2781870885774
1478 2795 935.5721473312794
1478 2796 1381.2448252297947
1478 3080 1374.6972767014072
1478 3178 6290.747177033826
1479 1482 523.6730971265121
1480 1486 575.5182291900102
1481 1486 413.8693897281068
1481 1495 253.25579241360018
1481 3178 2371.02330060789
1482 1486 667.0015079074068
1482 1502 352.2188344817751
1483 1486 368.11087543769423
1484 1486 236.2530875430008
1484 1495 414.1925001865166
1485 1486 208.49454259682625
1485 1494 464.1748259247573
1486 1488 475.80933535295526
1486 1489 231.69901421369042
1486 1490 507.0466425991696
1486 1491 399.1284412705341
1486 1492 277.6340790864589
1486 1493 620.717033784794
1486 1494 423.47555792682203
1486 1495 642.0336244167331
1486 1502 815.1662065427055
1486 1506 1710.0514151286634
1486 1508 1949.9824487168723
1486 1509 2048.9071276782747
1486 1513 1760.863233356375
1486 1514 2485.0092968023764
1486 1595 3876.9102748937967
1486 1600 4159.420999878707
1486 1619 10191.773957775398
1486 1632 10435.386326286849
1486 1635 3808.94387293506
1486 1639 3649.6901525176
1486 1672 4291.48147689108
1486 1714 11763.751550271058
1486 1862 11754.500158649797
1486 1877 12021.292479676353
1486 1910 2948.469991960624
1486 1934 4652.4798675916045
1486 2031 5416.309778432129
1486 2182 2554.421324361421
1486 2652 1455.5125756044479
1486 2859 657.1645647410929
1486 2872 408.17058473166935
1486 3178 2549.215865346157
1489 1506 1527.9619954452633
1490 1493 298.49333898925346
1490 1495 144.4506094782437
1493 1495 255.90655551869762
1494 1506 1544.1179306384993
1496 1497 654.2140582182359
1496 1499 216.44055107658718
1496 1535 407.122670707682
1496 1650 272.91955785870596
1496 1910 707.3915662129922
1496 1935 358.3532096823838
1497 1498 192.3985079284586
1497 1499 467.40855453717944
1497 1538 488.8103397446011
1498 1499 282.4157605471855
1498 1910 536.4270232079547
1499 1535 494.6208378396505
1499 1595 1697.4649272468318
1499 1600 1856.6630918130736
1499 1639 1267.4955068600784
1499 1642 778.3276438204283
1499 1651 791.906560972214
1499 1910 516.8178788848313
1499 1934 3178.769527236326
1499 2044 174.1934141983058
1499 2087 352.9364099709727
1499 2088 305.49278951766865
1499 2670 338.40609121223883
1500 1519 1648.893163727847
1500 1534 884.091671893299
1500 1535 810.8894689112441
1500 1595 2510.2416241257397
1500 1600 2535.171022536703
1500 1635 2013.69250740309
1500 1638 1736.797480818217
1500 1642 559.5848700941912
1500 1644 1375.708574023344
1500 1645 962.0302755314829
1500 1651 1134.3758075801732
1500 1652 534.1035105389219
1500 1654 746.3063689344524
1500 1655 1127.754283580831
1500 1656 1160.052578698904
1500 1657 1187.182530768037
1500 1658 1131.835994455681
1500 1660 1265.7026632289374
1500 1662 1090.9381642665148
1500 1664 1341.0814095354888
1500 1672 1289.8688002314864
1500 1910 1651.835297205114
1500 1934 2102.645617922022
1500 1935 1569.0479999966747
1500 1977 2512.780034343891
1500 2085 1066.5037543267285
1500 2089 2355.814061719842
1500 2109 1893.5072098598018
1500 2790 588.5392476118333
1500 2793 1240.1997457406349
1501 1502 192.6163660375991
1502 1503 146.4191357236521
1502 1504 231.97982578324897
1502 1517 402.1101038443099
1502 1595 3273.212251672075
1502 1600 3538.0790288734993
1502 1639 2837.369022525324
1502 1651 1771.9867105015182
1502 1664 1831.3204526291595
1502 1910 2229.5362039491633
1502 1934 3966.499104932568
1502 2056 571.0205610855943
1502 2107 185.80729522766828
1502 2108 482.52209141630294
1502 2655 91.56397544649059
1502 2656 296.88348528849826
1502 2657 365.6203549774568
1502 3086 3018.934645886398
1502 3178 3359.5462070966473
1505 1509 468.0402905444915
1506 1507 497.590449654065
1506 1508 251.60112971364018
1506 1509 367.26122884218285
1506 1510 297.902440992345
1506 1512 306.1541860391668
1506 1513 267.7510069206602
1506 1516 531.3503415640268
1506 1595 2883.6190669149046
1506 1600 3179.4497865009102
1506 1910 2491.504069022191
1506 2649 371.0435704505407
1506 2652 2039.3900071257822
1506 3075 156.73497749011307
1506 3178 3042.670793891533
1508 1510 119.32747407537394
1508 1513 403.8175274219978
1508 1600 3163.994530247222
1509 1510 119.88837209510226
1509 1513 517.6625833668763
1509 1516 194.19289628427438
1509 1518 734.5634745942538
1509 1595 2912.8549432549166
1509 1600 3202.470861839717
1509 3178 3108.305374774134
1510 1512 233.61300209181377
1510 1513 502.40603306199426
1510 2531 2596.926267416577
1510 3178 3005.045310959645
1511 1513 417.4867037753676
1512 3178 2795.8942918523794
1513 1514 1372.5722535138552
1513 1515 293.95782317366144
1513 1516 614.1557934396777
1513 1518 1220.2341115100407
1513 1519 2211.941568639411
1513 1595 2628.6926567412706
1513 1600 2925.3195248979923
1513 1910 2227.1080093520836
1513 3135 752.9253545249733
1513 3178 3286.4123780255113
1515 1595 2689.500731436979
1515 1600 2982.079843303813
1516 1518 606.5976767207394
1516 1600 3100.3524384364714
1516 2659 456.1947100517132
1516 3178 3265.4578280364167
1517 2652 258.55375019056055
1518 1595 3131.76586590367
1518 1600 3397.863369437912
1518 1635 5870.692246126644
1518 1639 4769.934786543785
1518 1672 5860.662632290503
1518 1910 3166.3575831234675
1518 2133 416.05462242870374
1518 2658 544.7899890076668
1518 2660 259.38157059140417
1518 3086 3025.739435933205
1518 3130 384.8178407344773
1518 3135 872.5490566703488
1518 3178 3312.32501963364
1518 3181 115.97790778026982
1519 1522 471.5695343514164
1519 1523 321.0948742180193
1519 1524 831.3622282574248
1519 1525 670.1787390523502
1519 1527 691.5706239935392
1519 1528 509.68594881495704
1519 1529 776.4261173287613
1519 1530 720.2432597393902
1519 1531 451.3508454765766
1519 1532 524.1289352513478
1519 1533 409.8894620608023
1519 1535 981.7178592719297
1519 1538 741.1515723207904
1519 1543 994.9454603762944
1519 1550 583.7903567715408
1519 1582 2326.004518713059
1519 1595 1247.613670673846
1519 1598 958.6782625610792
1519 1600 1445.689614595137
1519 1639 1700.8548484645778
1519 1640 2054.1666522569676
1519 1643 1696.891549011571
1519 1645 2335.20378845241
1519 1648 2425.753044854602
1519 1651 1267.6801357772363
1519 1653 2290.9848548047567
1519 1655 2723.575621533458
1519 1656 2776.913843138399
1519 1662 1863.7704826420606
1519 1932 2722.605707999186
1519 1935 567.5461690955678
1519 1936 675.9824678925188
1519 1937 601.7963171050661
1519 1938 579.3596539964368
1519 1939 482.2835718804318
1519 1940 367.7168684606133
1519 1942 2988.4105637152243
1519 1983 555.1483918840589
1519 2081 544.6567954249346
1519 2082 419.21670939320234
1519 2083 320.1949138560387
1519 2162 380.8131901840734
1519 2661 380.72338466766
1520 1526 363.1517534779739
1520 1527 586.7179075574545
1521 1910 527.3608461785437
1523 1935 260.9428037907458
1525 1526 199.80145691368085
1525 1595 667.2420624927961
1525 1600 933.1547637067396
1525 1910 649.7602089109057
1525 1935 1186.196246056285
1526 1527 249.42083836358964
1526 1595 777.9807672155988
1526 1598 473.24519157312517
1526 1600 1009.9487700744276
1526 1673 732.2214394312315
1526 1910 465.61732986041164
1526 1935 1031.9214639573406
1527 1531 1139.1984271287267
1527 1582 1833.5509954608392
1527 1595 705.1274134249074
1527 1598 380.65442478025193
1527 1600 980.2232529339667
1527 1619 7013.271540754252
1527 1626 4832.150046290496
1527 1632 7266.848632236544
1527 1635 3990.4338691266216
1527 1639 2331.7944395701957
1527 1643 2312.825442682139
1527 1651 1951.3704654067506
1527 1655 3368.13865256798
1527 1662 2554.6614996155495
1527 1663 2235.9450786838743
1527 1664 2565.713435929417
1527 1672 3533.578969850701
1527 1910 673.5414881419155
1527 1934 4320.306463771792
1527 1935 1186.6774305553313
1527 2007 7429.485660645078
1527 2043 5396.587684879482
1529 1595 487.9628417094458
1529 1600 738.0817359879044
1529 1910 751.3297126935878
1529 1935 1324.9055127634742
1531 1910 466.4163834949125
1531 1935 432.5040800318976
1534 1535 628.3976299859471
1534 1538 604.5975926612275
1534 1600 1697.61467846922
1534 1639 975.7591960063029
1534 1651 1146.527244388942
1534 1652 1400.9106621369172
1534 1655 2009.944881342571
1534 1664 1673.011720206794
1534 1672 2173.071273148036
1534 1934 2980.9719687839884
1534 2094 477.8045512306607
1534 2662 375.44651123690323
1534 2663 553.2932738725895
1534 2664 463.1182947218918
1534 2669 227.61181389037398
1534 2670 402.0655690267951
1534 2795 1853.0501396162015
1535 1536 571.8495234149924
1535 1537 1244.04972447418
1535 1538 1160.2039932425957
1535 1550 1123.7485074214753
1535 1595 2101.7095821562402
1535 1600 2218.2862835083815
1535 1635 2332.348343630567
1535 1639 807.5168640759125
1535 1642 288.6296972064344
1535 1664 1056.9261004059897
1535 1672 1936.8584564647474
1535 1910 995.2365658489929
1535 1934 2684.1867604039267
1535 1944 3379.6750474132973
1535 1977 3229.0465910492658
1535 2007 6693.154962037776
1535 2094 1087.8497580084563
1535 2095 420.22472469633306
1535 2098 715.579155961413
1535 2099 982.7397258738048
1535 2662 982.2748046755922
1535 2664 1087.921634878477
1535 2666 1238.3212337866023
1535 2667 290.6140353656283
1535 2668 877.5998743032997
1535 2669 835.8882337410184
1535 2670 276.5295666481852
1536 1538 631.06530044196
1537 1538 299.53193553604416
1537 2666 188.39029836882187
1538 1550 1321.4442988189487
1538 1582 1884.1306105974288
1538 1595 1050.2954978685934
1538 1600 1093.0181571003784
1538 1619 6698.777942256748
1538 1632 6846.139860306176
1538 1635 3397.6596927642204
1538 1639 1565.6146795653888
1538 1642 1320.8462722203442
1538 1654 2166.78147849412
1538 1672 2746.4741666420628
1538 1910 716.1754631388173
1538 1934 3562.6945883551657
1538 1944 4054.8960330851237
1538 1977 3910.12585021841
1538 2007 7684.070287408086
1538 2094 213.7622080301052
1538 2095 744.6139277827974
1538 2096 191.79252977948272
1538 2097 243.6410088221892
1538 2098 556.164054133397
1538 2099 382.95299972414927
1538 2662 260.4482253941191
1538 2663 1112.044946312525
1538 2664 309.00168033056013
1538 2665 232.07012961671123
1538 2668 434.70607128757484
1538 2669 383.99033716994757
1538 2670 886.8141632731183
1538 3178 5994.685536943736
1539 1540 199.19234170908646
1539 1543 123.06740936223137
1539 1550 491.50287936208565
1540 1543 135.6528105154906
1540 1549 328.44960621538246
1540 1550 432.54607340027604
1541 1549 96.10709686636062
1541 1550 611.648566561895
1542 1550 392.186562521135
1543 1545 432.6404389652483
1543 1549 432.32494811161826
1543 1550 533.4180222477365
1543 1651 803.6044893741914
1543 1910 1024.786649882816
1544 2671 190.48631075043025
1544 2672 265.9677539332828
1545 1546 216.54594492000126
1545 1550 950.9368846905031
1547 1548 238.76253238779265
1547 1550 496.76289240579314
1548 1550 259.89613154222064
1549 1550 564.3253364158566
1550 1595 1688.4842196351478
1550 1600 1931.9121420507781
1550 1635 3243.564068861272
1550 1639 1929.587704019578
1550 1642 1409.4634822323749
1550 1651 1151.8127655094959
1550 1910 611.1407904425835
1550 1934 3741.682662309613
1550 1935 363.91782933314727
1550 2671 382.5861424626393
1550 3178 4690.594231313848
1551 1552 1887.3665594197628
1551 1554 1921.4549521773713
1551 1555 2341.8068020447868
1551 1558 731.8136853358419
1551 1559 462.38323462644246
1551 1560 946.8119319542321
1551 1561 423.4131625790208
1551 1562 1088.6451053131952
1551 1563 572.4562415730838
1551 1564 958.1006856168884
1551 1568 1674.6920735140532
1551 1569 1382.57351919169
1551 1582 1432.209865454935
1551 1595 2163.982513528654
1551 1600 1869.6517399935015
1551 1912 335.62871914138634
1551 1915 1052.4528025718323
1551 1928 514.8827549097589
1551 1929 958.4348024113813
1551 1932 791.1404971820255
1551 1942 634.4088618265308
1551 3113 547.455811449693
1551 3168 337.16482211779334
1552 1555 513.5735921010295
1553 1555 564.3440511129863
1553 1564 822.9269912044327
1553 1566 202.12585538860512
1554 1555 457.46413134486113
1554 1942 2443.677894812221
1555 1556 242.3297080453935
1555 1557 660.9591282782585
1555 1568 742.7670868324425
1555 1582 3773.9589736278504
1555 3171 259.3973944895634
1558 1560 252.09996888273972
1559 1582 1580.3552393793386
1559 1928 337.5510383989142
1559 1932 1067.502152649497
1560 1562 284.355611189947
1560 1569 757.6323201619131
1560 1582 2200.588972177225
1560 1600 2326.8860626107203
1560 1911 246.52593161489244
1560 1928 946.3883167287341
1560 1932 1673.1118784486382
1560 3169 332.6263934371611
1560 3170 335.14832383861784
1562 1582 2427.181669669336
1564 1565 472.0380120629284
1564 1566 622.2283796562555
1564 1568 732.5429244662035
1564 1569 473.59083580561935
1564 1582 2389.329877812283
1564 1932 1741.671810744247
1564 2675 558.3051225175617
1564 3182 594.0451569242562
1565 1566 177.9112642968742
1565 1568 300.1423341494387
1565 1569 250.24276757998683
1567 1569 300.6476983234308
1568 1569 307.08315634483625
1570 1571 348.44504658996226
1570 1574 171.06360583785636
1570 1575 149.69300289747156
1570 1577 459.0456488168653
1570 1595 1256.6632034876038
1571 1574 512.7431474015791
1571 1575 201.4967536899768
1571 1577 803.43787732017
1571 1584 209.90964830025646
1571 1590 1033.9574015321255
1571 1594 742.3772778916244
1571 1595 969.9039992163765
1571 1596 1294.980095433696
1571 1598 1195.2628929688012
1571 1600 706.3638476631199
1571 2028 571.2907454924249
1571 2678 249.13493716081575
1572 1574 125.62465556989906
1573 1574 41.12429337716774
1573 2676 124.42694498215636
1573 2677 83.37067685733014
1573 2681 136.83267368076247
1573 2878 109.95591882782308
1574 1575 319.1829116856097
1574 1577 290.6987769361143
1574 1578 177.27521539392086
1574 1594 1183.6838526973745
1574 1595 1373.7226893748905
1574 1597 1211.6329074568046
1574 1598 1522.9370388539128
1574 1600 1157.839769118838
1574 2028 95.68341427938672
1574 2676 163.7050854446326
1574 2677 124.3249838288204
1574 2678 263.7452754524273
1574 2680 168.05583231603316
1574 2681 177.9446342499147
1574 2878 143.92358346898524
1575 1577 608.5554432428329
1575 1594 926.6162790591023
1575 1595 1142.7006730532005
1576 1577 270.96359658817164
1577 1578 113.43084294776314
1577 1579 291.95846277649605
1577 1580 166.26659265844714
1577 1582 1698.9578617184761
1577 1590 1521.468284302781
1577 1594 1454.0619452097365
1577 1595 1628.9693787502774
1577 1598 1746.9567948912047
1577 1600 1431.5448038726886
1577 1626 4211.802183832203
1577 1639 1963.1693155402068
1577 1643 1872.6776577986184
1577 1655 2739.845283965364
1577 1672 2866.2981524247766
1577 1934 3661.128872312144
1577 1942 1635.87988939053
1577 2028 251.32271914478224
1577 2086 222.1254089754299
1577 2680 140.37127478263795
1577 2682 139.7378247798118
1578 1595 1528.3675071707203
1579 1594 1632.7264084517826
1579 1595 1830.4423357631913
1579 1929 126.66559622851999
1579 2086 175.93654475746789
1580 1582 1535.722234163508
1580 1595 1486.6028505552315
1580 1600 1277.8647876596774
1580 1619 5658.5881410155225
1580 1672 3000.5361760469177
1580 1910 1832.9691839041798
1580 1932 1390.8091795048967
1580 2028 100.54515987991813
1580 3086 6735.419799733076
1581 1582 933.2320181402456
1581 1595 255.75941106090082
1581 1600 300.1588354963466
1581 1673 297.0928598391221
1581 1914 1064.2757772465177
1581 1915 1354.3012087109096
1581 1917 306.2364905784381
1582 1584 731.0256430819373
1582 1585 600.4944570852421
1582 1586 540.2841680105088
1582 1587 419.2634159627089
1582 1588 1798.0648030862476
1582 1594 925.0820502910296
1582 1595 1128.999385655404
1582 1598 1454.204131825359
1582 1600 882.2389692717212
1582 1619 5210.572762586571
1582 1626 3029.0507035404703
1582 1632 5518.929143062357
1582 1635 5237.670153335249
1582 1639 3360.6283869392764
1582 1652 3629.6652166791123
1582 1654 3831.519698310994
1582 1672 4445.971197299953
1582 1910 2296.971614779732
1582 1912 1760.3037064950854
1582 1913 697.9837819317025
1582 1915 455.9293205351629
1582 1916 421.4925934562849
1582 1917 853.5891350880453
1582 1918 395.0729327210973
1582 1919 444.419963529153
1582 1920 818.4308184867302
1582 1921 946.4852232685901
1582 1922 673.739045927766
1582 1923 917.0138508343347
1582 1928 1257.5849474543645
1582 1929 1604.0871673103165
1582 1932 691.2063624527938
1582 1933 478.44415449982534
1582 1934 5264.330637844688
1582 1942 982.5918453829842
1582 1977 5416.756583866359
1582 2683 191.09452795944313
1582 3113 1100.272906104932
1582 3125 911.0719871876338
1582 3178 6893.5958664419095
1583 1584 195.38985672029517
1583 1922 214.14872442145304
1584 1917 604.4079857810403
1585 1917 311.3053094955131
1586 1917 588.5165931333688
1587 1595 710.1323766324682
1587 1600 478.8798041205976
1587 1915 835.5318367769834
1587 1917 451.56630480942414
1587 1919 179.58728186773735
1587 1942 1327.6133618769068
1587 2683 265.7395522319887
1588 1595 762.7674648745228
1588 1598 538.1821236837894
1589 1595 409.64668689159714
1589 1673 363.28254453485124
1590 1594 525.8816490688439
1590 1595 385.87776107674097
1590 1598 243.1087038355106
1590 1600 567.8517876090707
1590 1673 347.53930732553624
1591 1595 202.0014411263848
1591 1598 366.40501288352516
1591 1600 283.4166159420853
1592 1673 260.5280997199192
1593 1600 481.5021551433445
1594 1595 250.0099826950246
1594 1598 554.097742974458
1594 1673 288.0036422850922
1594 1914 1044.0563397374622
1594 1932 1424.5096804795535
1595 1596 455.02860881031773
1595 1597 331.4366032930941
1595 1598 325.2052567720234
1595 1600 297.4726334293051
1595 1603 6439.567702712735
1595 1604 6508.547548109577
1595 1619 6314.993156534123
1595 1620 5681.841859374747
1595 1626 4140.1625736628985
1595 1632 6584.8910028281
1595 1635 4413.480096829331
1595 1639 2612.72446258327
1595 1641 2653.1904169163704
1595 1642 2315.9881554556378
1595 1643 2568.2941423668885
1595 1646 4724.617306694714
1595 1651 2489.345205291601
1595 1652 2996.0633930628433
1595 1654 3213.45366623291
1595 1655 3636.6115829517494
1595 1664 3103.8145504309864
1595 1672 3796.703375896348
1595 1910 1220.5710339770446
1595 1914 1254.7441551106529
1595 1915 1519.229896071876
1595 1916 1446.582671538998
1595 1928 1745.9108041139275
1595 1932 1666.8212568080753
1595 1933 1519.7090745317696
1595 1934 4612.813761174079
1595 1935 1806.4051375489225
1595 1942 1964.3699430992122
1595 1944 5085.354295095549
1595 1977 4942.7500658069075
1595 1982 3636.1122555733787
1595 1983 765.0963940398871
1595 2086 1846.1335589598932
1595 2125 2597.9286483236488
1595 2182 6336.048314656573
1595 3086 5555.682075323559
1595 3113 2059.9628291408794
1595 3125 429.96110692102036
1595 3178 5909.291520196643
1596 1598 129.85490605503034
1596 1600 728.267943579333
1596 1673 408.92985468198935
1597 1600 459.1626657607077
1597 1673 303.9726500709433
1598 1600 602.3301749513395
1598 1639 2448.745114109462
1598 1673 279.1648525720201
1598 1910 933.6763122943488
1598 1932 1978.2537091186164
1599 1600 2627.962381708979
1599 1942 1138.9614338227375
1599 1982 726.0726478527188
1600 1603 6142.702355298188
1600 1604 6211.935123637768
1600 1619 6033.049344794611
1600 1620 5402.024551880416
1600 1626 3910.774035911821
1600 1632 6293.45130079412
1600 1635 4490.612372878604
1600 1637 4413.770799810726
1600 1639 2648.424475552762
1600 1640 3141.408662766675
1600 1642 2406.525310364401
1600 1643 2594.012327462696
1600 1645 3445.2242531125657
1600 1651 2643.550111066769
1600 1652 2993.2497790563652
1600 1654 3207.3224046726314
1600 1655 3650.03980524972
1600 1656 3665.380242105133
1600 1657 3722.316612472862
1600 1659 4232.998255835995
1600 1662 3166.9026087421985
1600 1663 2816.83753311635
1600 1664 3250.048137704982
1600 1672 3805.8897948272715
1600 1673 336.1365102820619
1600 1910 1416.9055219320724
1600 1914 999.8554577069613
1600 1915 1241.8967106424075
1600 1916 1165.2591266434215
1600 1928 1463.544851711861
1600 1932 1376.14983341415
1600 1933 1238.8389081331704
1600 1934 4627.381365240618
1600 1935 2012.8255052707684
1600 1942 1671.5001235358886
1600 1944 5041.282914719894
1600 1977 4902.158884810758
1600 1982 3339.127248799385
1600 1991 503.00195440688873
1600 2007 8401.340672986533
1600 2009 2844.8683016517343
1600 2051 2484.334108506449
1600 2074 2182.8478537845126
1600 2085 2381.6392430180217
1600 2125 2422.5214495191253
1600 2164 2812.929365858464
1600 2793 3770.406917388328
1600 3113 1765.1633736324843
1600 3178 6206.664206032071
1601 1605 749.6256226326453
1602 1603 1965.3901456392227
1602 1605 1454.6702921330616
1602 1619 1859.8187723492872
1602 1620 1316.7635363825175
1602 1626 1977.5260678773434
1602 1632 2020.2158738007672
1602 1982 1306.2834739819598
1602 1988 333.42693398073857
1603 1605 1391.1239463729896
1603 1606 688.1975656760156
1603 1607 1571.3420873730574
1603 1609 797.6156734132015
1603 1610 895.3390296514438
1603 1611 518.1241257340579
1603 1612 1112.2615192730477
1603 1617 1791.1609740585116
1603 1618 1663.9350045643355
1603 1619 1380.8560187498003
1603 1620 1619.941105936342
1603 1621 3750.617924234055
1603 1625 3580.231544761631
1603 1626 3607.554945369636
1603 1628 956.2115447761898
1603 1631 1462.9797218729045
1603 1632 752.8228205542506
1603 1639 7081.200588509005
1603 1708 11533.411272767942
1603 1793 13364.873112526984
1603 1830 7552.449133532323
1603 1910 7260.300255273779
1603 1934 7729.609182408728
1603 1942 4487.795093805565
1603 1976 652.4140924024746
1603 1982 2850.742676478794
1603 2026 230.86191597579685
1603 2039 2125.2000759767557
1603 2041 3327.7678605175834
1603 2130 836.0504382051353
1603 2131 287.06673138685596
1603 2175 3327.5848409955443
1603 2176 614.1677697459535
1603 2510 1965.3626281963257
1603 2687 891.3013921017097
1603 2690 888.4654883933114
1603 2696 1481.3670520309427
1603 2706 434.4626453527112
1603 2713 738.8941849456202
1603 2716 989.8978635528707
1603 2723 780.7653218131626
1603 2738 451.18891715486933
1603 2741 440.2963788512354
1603 2971 119.80046563150948
1604 1605 1484.327002192696
1604 1607 1644.1383817953647
1604 1619 1329.634465039251
1604 1620 1604.1887103689405
1604 1628 892.423863571618
1604 1632 680.0030921839684
1604 1977 7220.025602255213
1604 2176 539.1981091650277
1605 1607 781.9230302575528
1605 1612 283.99522149003536
1605 1613 623.1561244900608
1605 1619 2313.189758148477
1605 1620 2132.3445949435404
1605 1626 3431.9234446868068
1605 1632 1972.6864910024951
1605 1977 5813.143470453541
1605 1982 1675.2653559719938
1605 1988 1787.9707600079794
1605 2245 1570.9556855773228
1605 2686 584.5465994069522
1605 2690 512.3601196461343
1605 2699 448.27852075883567
1605 2707 1047.3597239326766
1605 2709 794.0771699571476
1605 2712 455.023551146464
1605 2714 526.3535963792749
1605 2728 505.29895127531415
1605 2734 1089.8441599540658
1605 2737 495.47387670681985
1606 2740 201.11435178594874
1606 2741 250.54408198860483
1606 2971 574.1260211335392
1607 1612 776.4059233953633
1607 1982 1296.965724172572
1607 2693 253.69574433738188
1607 2696 105.60156438754045
1607 2700 310.83284796888245
1607 2710 232.42497935523443
1608 1619 1453.9240853577337
1608 1632 836.8591604353267
1609 1611 279.5572297010552
1609 1612 330.20586733846653
1609 1619 1881.7217003621297
1609 1632 1433.924846955502
1610 1632 1517.8666664262619
1611 2706 93.53514518469643
1612 1619 2056.7614543951804
1612 1632 1691.1658589664642
1612 1982 1860.4339840510897
1612 2696 672.9901325133064
1612 2723 340.489844758003
1612 2746 515.6055076057191
1614 1632 755.5350104348075
1615 1619 259.3447394125916
1615 1632 450.83318352565277
1616 2704 374.92206385202667
1616 2739 307.5963590224594
1617 1619 616.9892118511298
1617 1632 1038.6122194997283
1618 1619 475.99960359557724
1618 1632 913.7369963561655
1618 2704 174.41785321537193
1618 2747 138.02656846827458
1619 1620 641.5994794274942
1619 1621 3292.367892829912
1619 1622 2274.29582929761
1619 1625 3173.886750711352
1619 1626 2700.7455117029394
1619 1628 469.59403029208585
1619 1629 1117.097769651937
1619 1632 705.4027001567041
1619 1634 364.45948129628505
1619 1639 7548.491775646712
1619 1664 8697.4525248419
1619 1672 8017.3805459434025
1619 1708 12757.914575553154
1619 1830 8874.831609032764
1619 1910 7331.7126509167565
1619 1942 4381.973768383172
1619 1982 3132.5039092448105
1619 2158 1272.8071119090741
1619 2175 3106.997764122514
1619 2176 834.6461507279561
1619 2690 1965.7849384738925
1619 2701 411.9667170937598
1619 2711 258.97365936330306
1619 2717 455.39414423671593
1619 2721 456.2897022678436
1619 2725 357.0403678813479
1619 2747 377.5875244559988
1619 3178 11957.53057614298
1620 1622 1657.3625160705292
1620 1626 2115.452835331846
1620 1628 970.2067901215622
1620 1632 1164.140115552689
1620 1942 3759.90642917176
1620 1982 2621.308123930516
1620 2025 125.31865897192138
1620 2689 426.0320047139721
1620 2695 748.3140376515587
1620 2697 545.4002726934804
1620 2721 335.00510109533667
1620 2725 371.09108356033965
1620 2730 519.4845941233617
1620 2731 281.35899752646236
1620 2736 245.05071394171674
1620 2745 229.72093595633123
1621 1625 196.4880678076597
1621 1626 1251.0765472391827
1621 1632 3680.6556116080883
1621 2175 650.1424305927799
1622 1626 537.1242227481526
1623 1626 2211.253611690067
1623 1982 441.1017712208781
1623 2175 729.9590679400428
1624 1626 1094.9458921839453
1625 1626 1312.6384930790978
1625 1942 1345.460350334587
1625 2175 465.4222219073107
1626 1627 2612.526907899883
1626 1628 3084.8697463886315
1626 1632 3277.190210064443
1626 1639 6159.261524391644
1626 1910 5325.818336035985
1626 1942 2580.1730718007307
1626 1982 2652.288874177153
1626 2175 1678.5515201232558
1626 2685 375.0951064716802
1626 2703 580.5013474530157
1626 2705 369.917277030537
1626 2729 1019.925773351014
1626 2732 990.6647607040294
1626 3067 446.61529298018894
1626 3113 2578.0313411666375
1626 3143 201.4349062617979
1626 3173 1781.4858000365675
1626 3178 9329.6458018502
1627 2733 984.6655409490636
1628 1632 236.17709790742572
1629 1632 442.52634905312567
1630 1632 309.41542920302356
1630 2689 669.312364741763
1631 1632 1677.8130510858207
1632 1633 319.76228037002824
1632 1634 365.85428950002733
1632 1635 8964.516707463687
1632 1639 7529.207250344671
1632 1657 8050.055512170249
1632 1662 8484.97500396128
1632 1672 7865.411459261365
1632 1705 11949.759282006391
1632 1708 12061.144505049855
1632 1793 13808.197326483021
1632 1830 8170.545244856987
1632 1910 7514.648606078028
1632 1934 8342.764777134851
1632 1942 4622.155340100071
1632 1982 3154.62022731955
1632 1988 2177.526324655139
1632 2026 973.2687082598112
1632 2033 382.3096927676207
1632 2158 611.811410793085
1632 2175 3378.3524777615557
1632 2176 141.79251392415415
1632 2689 930.3781297825573
1632 2690 1526.7382183718664
1632 2694 153.21198355398099
1632 2706 1120.4549363859894
1632 2708 471.68631851193066
1632 2713 785.6041519261516
1632 2715 602.1880554880113
1632 2717 349.10431053729764
1632 2721 837.5010183260023
1632 2722 510.28585195516274
1632 2724 236.57033158752688
1632 2727 436.5233089523294
1632 2735 286.9613587383139
1632 2738 320.62400628299264
1632 2895 199.30285801299175
1632 2896 260.6015963627973
1632 2971 715.501652708528
1635 1636 1046.2578161137237
1635 1638 429.4814396530756
1635 1639 1881.0376264648855
1635 1640 1357.6924959046692
1635 1641 1761.1923967040314
1635 1642 2098.071783476725
1635 1643 1956.8447369676614
1635 1644 664.1242152683319
1635 1645 1055.7762260675488
1635 1646 783.2428357245651
1635 1647 1197.46380915979
1635 1648 933.542021284961
1635 1649 1165.4736448453698
1635 1651 2094.646520893567
1635 1652 1733.5307915262658
1635 1653 1248.631776708081
1635 1654 1598.52843466031
1635 1655 1149.541724644828
1635 1656 1223.1557016019067
1635 1657 949.4614567378871
1635 1658 925.1502866770536
1635 1659 537.9903579731061
1635 1660 1076.4873200749803
1635 1661 510.8245177184684
1635 1662 1464.0117303645668
1635 1663 1756.273112542458
1635 1664 1556.065798863366
1635 1668 2430.060776031733
1635 1669 999.1356404200081
1635 1670 1174.8193696037476
1635 1671 442.54633831487774
1635 1672 1099.5224977512717
1635 1705 9494.081159747404
1635 1708 10037.142793540645
1635 1714 10967.891272574354
1635 1737 11556.320795041764
1635 1747 8679.153315911193
1635 1782 10646.666584854263
1635 1822 11112.77910018176
1635 1830 8132.126886937472
1635 1862 10978.355110628236
1635 1877 10562.44707363957
1635 1910 3317.058135940286
1635 1934 902.6128371673674
1635 1935 2908.241841278374
1635 1944 1871.6563639226688
1635 1977 1762.7983990649275
1635 2008 2517.349189891209
1635 2009 2119.6254163185063
1635 2043 2995.2699226904833
1635 2046 926.8704864712026
1635 2056 2622.4615852406187
1635 2063 362.553586675385
1635 2064 951.6077870274629
1635 2065 1667.6985230763803
1635 2074 2314.8356581831927
1635 2089 605.2790978984416
1635 2090 343.79221733070773
1635 2092 699.6846956806381
1635 2109 1031.7428292078341
1635 2164 1837.8594871741998
1635 2182 5645.856414732186
1635 2212 2504.6914846483387
1635 2215 867.8184234922544
1635 2563 1021.0682489354069
1635 2749 308.57776511162245
1635 2750 522.4569421853498
1635 2751 264.03831808770144
1635 2752 411.73724682028814
1635 2753 560.9389603299232
1635 2755 604.6956497273161
1635 2756 809.4980816371991
1635 2757 429.5609837449755
1635 2758 2173.986401411505
1635 2759 1320.60339450892
1635 2760 1342.9697540353256
1635 2762 2032.4255534384783
1635 2763 1888.7086791268978
1635 2764 2179.17320015624
1635 2767 962.0647815306517
1635 2768 1155.2781719200264
1635 2771 1327.171654706196
1635 2772 722.435635866953
1635 2773 631.9411858882006
1635 2780 2424.0412796628734
1635 2783 1590.7902504965837
1635 2784 1195.6143948668498
1635 2785 1181.175399486314
1635 2787 645.0055289802538
1635 2788 1355.1863534535112
1635 2789 582.4195067618464
1635 2790 1709.7202047556725
1635 2791 1160.4929755599635
1635 2792 441.0437523672621
1635 2793 1015.4111439699154
1635 2794 1382.5299472848744
1635 2795 1408.5372316019143
1635 2796 806.8845392663544
1635 2797 1234.3123710176874
1635 2798 1244.0854759692272
1635 2800 1292.8567880098155
1635 2801 1295.7598080115442
1635 2802 1613.148377980583
1635 2803 1435.5868771730595
1635 2804 1397.0230246489102
1635 2806 1267.480237693863
1635 2813 1346.1868860199193
1635 2815 989.8677252069444
1635 2816 1114.8852664736191
1635 2818 1056.9572272932282
1635 2820 737.25451621347
1635 2822 655.2950919852575
1635 2823 578.1114086658638
1635 2861 1927.9506229698818
1635 2880 362.2723029944751
1635 2913 532.7390641877525
1635 2917 1056.4798040356457
1635 2918 834.5090207208743
1635 2924 1511.6923598397254
1635 3055 803.9686058837121
1635 3080 734.7750070248819
1635 3085 1027.8292563939078
1635 3116 1324.611226097651
1635 3119 753.1654696012996
1635 3123 1370.443116825072
1635 3126 948.844475498085
1635 3129 881.5707572350353
1635 3135 5156.504817445143
1635 3144 1381.153203851687
1635 3163 541.3365139518136
1635 3164 1012.2395829669653
1635 3165 1644.6283707989523
1635 3174 525.9264086459567
1635 3178 6162.48646367561
1636 1669 625.9808703847551
1636 2748 1082.282745513194
1636 2749 778.2757179486937
1636 2752 1120.2923465435529
1636 2755 653.8625386701551
1636 2897 398.3629846698798
1636 3137 334.2723523359198
1637 1638 438.4867556319358
1637 1639 1790.5647365621244
1637 1640 1274.0858031208872
1637 1641 1690.8004240390264
1637 1643 1863.4045610219237
1637 1644 599.4568068781938
1637 1645 970.3395405844961
1637 1647 1238.7363586694062
1637 1648 924.6407318672129
1637 1651 2062.018420364585
1637 1652 1622.9313627173333
1637 1653 1148.5082862741797
1637 1654 1482.4273008624245
1637 1655 1028.3961407883492
1637 1656 1100.2002136408973
1637 1659 414.66615895249646
1637 1660 952.8199771924454
1637 1661 400.25039929860696
1637 1662 1432.3315129022217
1637 1664 1545.5968259701363
1637 1668 2528.699701279392
1637 1669 1027.001770672285
1637 1671 362.50391416646715
1637 1672 975.3426434716986
1637 1934 815.2169866339144
1637 1944 1788.1931252841487
1637 2008 2438.486747237894
1637 2074 2233.53382851596
1637 2089 590.0795410307646
1637 2109 923.5804184753068
1637 2215 879.4923508599974
1637 2749 370.09550612966694
1637 2750 490.02903794103435
1637 2752 508.0126836690357
1637 2753 647.2026894927362
1637 2760 1281.8100441682038
1637 2762 1940.445986568126
1637 2771 1372.9476934568102
1637 2773 677.7288207863186
1637 2791 1047.556411474686
1637 2820 715.2763462118385
1637 2823 645.058894461139
1637 3055 709.0470588473029
1637 3080 613.9972214466261
1637 3126 924.9690839692213
1638 1639 1597.4279642178997
1638 1640 1064.195613860287
1638 1641 1414.4259044699313
1638 1643 1683.688920197294
1638 1645 787.7191021681966
1638 1647 809.8906407922588
1638 1648 505.7731620514305
1638 1651 1678.1109088815963
1638 1652 1557.7782292268103
1638 1653 1033.1633656439308
1638 1654 1470.759298768745
1638 1655 1102.1240230182118
1638 1657 877.184632960095
1638 1658 788.5223581400851
1638 1659 707.0187948448057
1638 1660 1079.555230356193
1638 1662 1049.7439049073032
1638 1663 1360.9267411708704
1638 1664 1127.3593995896645
1638 1668 2214.3888504152915
1638 1669 1427.300124025162
1638 1671 788.3910045278495
1638 1672 1115.7707902331285
1638 2008 2184.591623636109
1638 2009 1691.3053070236065
1638 2046 584.6760813901923
1638 2063 417.6457291588675
1638 2064 919.1045766261805
1638 2074 1991.6688852985865
1638 2089 1023.68145465219
1638 2215 1296.9522256354905
1638 2750 172.49085330226873
1638 2751 267.638934876795
1638 2752 352.0642701161213
1638 2753 386.3653950728868
1638 2760 982.245594616488
1638 2791 1031.370270125507
1638 2820 325.4980041111461
1638 2823 308.74488780331325
1639 1640 533.43900231035
1639 1641 387.7302251106651
1639 1642 531.9374895944527
1639 1644 1238.4172942045814
1639 1645 826.7868445053282
1639 1647 1729.3540503638294
1639 1648 1306.011782892576
1639 1651 1068.0996058487267
1639 1652 507.0573099131218
1639 1653 661.5420426235437
1639 1654 702.3655435805565
1639 1655 1038.358147239491
1639 1656 1081.2258811096556
1639 1657 1077.8028624277197
1639 1658 1012.2565817990857
1639 1659 1584.5798469215963
1639 1660 1175.6010885196506
1639 1661 1737.7573423123272
1639 1662 965.6422244472298
1639 1663 742.4214466196611
1639 1664 1222.6300965243483
1639 1668 3277.8226787332387
1639 1669 2733.8433642541645
1639 1671 1898.6668795931107
1639 1672 1203.0883496274312
1639 1708 11618.37249488069
1639 1910 1706.1349976489341
1639 1934 2005.481529210607
1639 1935 1572.8468199855936
1639 1942 3579.642229748496
1639 1977 2455.2302784023104
1639 2008 695.1703779582141
1639 2009 1364.1385924088402
1639 2031 8678.728066014342
1639 2063 1543.4558375311096
1639 2064 1142.3359895963404
1639 2065 1060.4430985719762
1639 2074 483.63421622666374
1639 2089 2238.4932047245466
1639 2090 1654.6109791060162
1639 2092 1265.0023486804212
1639 2093 1256.2123879080516
1639 2163 1411.3540302567458
1639 2164 327.2937929367424
1639 2182 6069.20383690503
1639 2215 2554.8166633600335
1639 2748 1845.5281012732632
1639 2750 1429.5205253919921
1639 2752 1946.2334976878053
1639 2753 1933.782735958349
1639 2754 1660.8149354875156
1639 2758 460.20238042086856
1639 2759 636.4078114427646
1639 2760 695.839589653978
1639 2761 307.2038722476794
1639 2763 407.7788933868133
1639 2764 387.5245335993513
1639 2766 1068.2793025912838
1639 2767 978.887401944385
1639 2768 816.7120662427006
1639 2779 1449.9794655647872
1639 2780 1504.7593786037785
1639 2783 311.85413914819407
1639 2784 765.5861872987703
1639 2785 720.9103783969819
1639 2787 1355.5165990211126
1639 2788 994.951874582912
1639 2789 1386.9789707504704
1639 2790 559.2524013439581
1639 2791 860.0749806429098
1639 2792 1575.8269113759848
1639 2793 1142.388153587566
1639 2794 672.2713085486461
1639 2795 908.3467298337526
1639 2796 1303.2095356195587
1639 2797 941.9169853195307
1639 2800 1037.2602952363645
1639 2801 1247.5452046417008
1639 2802 995.2816125961197
1639 2803 1228.6747226807704
1639 2804 1084.1257586035827
1639 2806 954.0378343410513
1639 2818 881.4542663176018
1639 2820 1321.9562380726768
1639 2913 1355.6085387387275
1639 2924 639.7020454992332
1639 3055 1081.783986444103
1639 3058 866.1188698682789
1639 3059 530.3725426691269
1639 3060 577.2598972180746
1639 3080 1287.9195712587727
1639 3087 647.1029061287402
1639 3114 1464.3649772195588
1639 3123 812.8546126016798
1639 3129 1198.2588362103913
1639 3138 896.5830732899782
1639 3162 925.0667128181589
1639 3165 785.5333003094366
1639 3167 814.2277323579414
1639 3178 6196.911675167147
1640 1642 801.1510487286977
1640 1643 619.9658073506172
1640 1647 1290.9751708204185
1640 1648 814.8267342312481
1640 1651 1078.3696841740623
1640 1652 634.9923409019053
1640 1654 685.3264121428214
1640 1655 735.8260882636639
1640 1656 821.7129363555451
1640 1657 671.7226280544165
1640 1658 559.9727024527041
1640 1659 1121.4411737882817
1640 1660 852.043896288406
1640 1661 1275.4911228682106
1640 1662 662.1272910061053
1640 1663 659.8292032667275
1640 1664 936.5711527474896
1640 1668 2879.7818052197345
1640 1669 2251.722381307318
1640 1671 1423.1870158533466
1640 1672 891.8133955723641
1640 1910 2065.6034741186113
1640 1934 1607.3480043402556
1640 2008 1165.8684962634227
1640 2009 1290.7071922572914
1640 2046 1325.0218814010148
1640 2063 1033.7981701910035
1640 2064 755.1029170204514
1640 2074 959.5789101182318
1640 2089 1761.232045146306
1640 2093 771.9959142728106
1640 2164 611.2963419708555
1640 2748 1321.5638159968098
1640 2752 1413.7139648822595
1640 2753 1406.722245343407
1640 2754 1130.4529296312292
1640 2758 838.6496052625681
1640 2760 289.39728616809356
1640 2762 687.6761387647164
1640 2763 584.6850744878765
1640 2764 827.5971369944973
1640 2771 1398.7566077796164
1640 2788 804.0400186353181
1640 2789 906.8479617465064
1640 2790 654.0168730591428
1640 2791 519.1027693058368
1640 2793 786.1998113149385
1640 2795 749.4613662540015
1640 2796 884.900465471271
1640 2802 768.1080799846488
1640 2803 893.4791024583543
1640 2820 797.5698304865157
1640 2823 1294.0271802080163
1640 2924 385.34797162157406
1640 3060 356.0206201535736
1640 3128 260.11557304388936
1640 3129 790.4891897531397
1640 3165 614.7895907267366
1641 1642 346.72869813822297
1641 1643 478.7023505186555
1641 1644 1097.0690671066113
1641 1645 741.8101691834357
1641 1647 1396.6838090819454
1641 1648 1033.6692327816002
1641 1651 715.6049215769499
1641 1652 819.2802032243017
1641 1654 968.3422626694295
1641 1655 1164.2895910719762
1641 1656 1236.6575295811913
1641 1657 1126.0713173894992
1641 1658 1017.0479382117302
1641 1660 1290.184071146048
1641 1662 602.255509198727
1641 1663 355.645564477889
1641 1664 844.4700036755673
1641 1672 1326.9514920030458
1641 1910 1609.4303669405008
1641 1934 2064.181268891017
1641 2008 771.652745908638
1641 2009 992.2822751611031
1641 2046 1522.7319008481206
1641 2063 1462.540527979841
1641 2064 1207.3020029727886
1641 2074 589.0446600929445
1641 2089 2205.4365905629525
1641 2164 680.2905887919878
1641 2754 1517.1995287539075
1641 2758 416.0570864051871
1641 2762 493.0313969724781
1641 2795 1115.8849628461305
1641 3087 353.299730731943
1642 1643 578.7551452335807
1642 1644 1434.7964419484192
1642 1645 1088.4994442813102
1642 1647 1607.2415159311897
1642 1648 1317.627342686737
1642 1651 600.8788805773717
1642 1652 1036.9554515115062
1642 1653 1040.202902077122
1642 1654 1221.5625722986972
1642 1655 1484.6640454907724
1642 1657 1464.5105366087387
1642 1658 1360.6206582495388
1642 1660 1615.2380629955794
1642 1662 805.2741086555181
1642 1663 458.46957592430647
1642 1664 980.5103437655715
1642 1672 1649.65238687753
1642 1910 1264.5904033646552
1642 2008 495.8523506284077
1642 2009 919.8132702495238
1642 2074 380.1467256996726
1642 2164 858.5547769846881
1642 2762 539.4905168495095
1642 2790 1087.9291657873287
1642 2795 1403.7933835101567
1642 2802 747.929061120118
1642 2862 328.5933772771712
1643 1644 1321.045225568779
1643 1645 906.4839759385009
1643 1647 1828.0876607490968
1643 1648 1402.289336285859
1643 1651 1139.4877193487953
1643 1652 488.1942816540734
1643 1653 723.1400292324948
1643 1654 697.0594642245113
1643 1655 1070.5083702517982
1643 1656 1104.355990804579
1643 1657 1128.3189286920679
1643 1658 1073.0881959846186
1643 1659 1641.9190585232125
1643 1660 1208.4374429854288
1643 1661 1793.9851299348616
1643 1662 1063.1471426750104
1643 1663 830.6294935360844
1643 1664 1318.2738515908604
1643 1668 3375.785507133106
1643 1669 2792.6136060303334
1643 1671 1957.716717720678
1643 1672 1233.0535699859931
1643 1910 1700.4387323426297
1643 1934 2044.7566381474949
1643 1942 3493.255826049218
1643 2008 665.0921701141092
1643 2009 1441.5843019378135
1643 2063 1614.430680788352
1643 2064 1187.992415341958
1643 2065 1152.9334718596933
1643 2074 459.35518227789805
1643 2089 2296.9148004054405
1643 2093 1321.3093621232279
1643 2215 2612.078486133281
1643 2748 1921.7152532360112
1643 2754 1741.2925483114454
1643 2758 481.17582663498627
1643 2759 731.2592414874363
1643 2760 793.6504934454488
1643 2761 303.72067807300215
1643 2763 483.48150131542627
1643 2764 389.8125367153308
1643 2766 1155.8948264260302
1643 2767 1068.158881103651
1643 2768 910.2728458976982
1643 2783 370.6068649149388
1643 2784 817.1988024019622
1643 2786 868.238905396885
1643 2788 1008.1125175695323
1643 2789 1450.0111437092044
1643 2790 542.3701172035587
1643 2791 904.7109746816059
1643 2793 1182.0767633794053
1643 2795 918.8512298373181
1643 2798 1175.9123991282577
1643 2800 1136.039721997037
1643 2801 1346.2133040624838
1643 2802 1089.3535306817548
1643 2803 1326.2400962130794
1643 2804 1182.2478745612973
1643 2806 1052.7065798564468
1643 2820 1413.3452906580483
1643 2924 738.0602083050786
1643 3080 1344.267965784219
1643 3128 467.7438237618389
1643 3129 1247.0557918734166
1643 3138 985.2405276654414
1643 3144 576.2771742812015
1643 3165 878.9508662473502
1644 1647 950.7828792197146
1644 1651 1482.971213481426
1644 1652 1183.8859198419161
1644 1653 658.2106703112091
1644 1654 1105.8132109012697
1644 1655 781.2911835938014
1644 1656 886.5522968333775
1644 1657 560.2277625754479
1644 1658 443.09218001486397
1644 1659 623.0609456008798
1644 1660 791.2113235518887
1644 1662 862.4505266931213
1644 1663 1113.8323027136253
1644 1664 1025.0285182836628
1644 1668 2485.617146666105
1644 1669 1620.6811739985505
1644 1671 844.990768783669
1644 1672 833.0764373311573
1644 1910 2665.1378202003725
1644 1934 1179.8395464686048
1644 2008 1855.7736643388855
1644 2009 1563.8135171453405
1644 2046 826.6797352620895
1644 2063 400.5273925893329
1644 2074 1655.54354083241
1644 2089 1155.7719354152473
1644 2164 1246.5580092927157
1644 2215 1463.4373737065746
1644 2752 726.0193369400464
1644 2753 752.1140226186237
1644 2758 1510.2404063549486
1644 2762 1392.1569747443502
1644 2766 205.25031257057046
1644 2771 1090.0395154703722
1644 2773 571.5749486102445
1644 2790 1174.0971642405252
1644 2795 991.5364144634362
1644 2797 819.6700635889048
1644 2803 915.386700923782
1644 2809 2539.6314825124105
1644 2823 655.8185689613821
1644 2861 1973.313556056446
1644 3129 586.5389547988708
1645 1647 1167.891366292678
1645 1648 653.3021183868806
1645 1651 1274.3453589440605
1645 1652 793.8296608808304
1645 1653 268.62514323661253
1645 1654 758.4388164783627
1645 1655 599.5614599194275
1645 1656 704.33704230553
1645 1659 835.247284844411
1645 1660 680.8939404556118
1645 1661 987.6132518669443
1645 1662 736.1605126041126
1645 1663 862.8547868546539
1645 1664 981.1820267737841
1645 1668 2758.4921666634386
1645 1669 1952.0852562114937
1645 1671 1128.2266289429858
1645 1672 725.3274270238276
1645 1910 2348.083647534624
1645 1934 1348.196285927052
1645 1935 2034.1701538878096
1645 2008 1469.6321339077479
1645 2009 1434.5353080627037
1645 2046 1137.1319877391845
1645 2063 730.1466213327592
1645 2074 1263.5068735525917
1645 2089 1464.121847675331
1645 2164 835.5104332191008
1645 2215 1781.1982405069316
1645 2750 615.7475199484998
1645 2752 1139.7833711515696
1645 2753 1151.298123149682
1645 2762 979.5036647087552
1645 2763 871.7775879494974
1645 2765 455.15493456617526
1645 2767 236.96049308395828
1645 2771 1292.955133349956
1645 2787 606.5519337873826
1645 2788 739.9027043540669
1645 2789 615.1773209746929
1645 2790 792.9244522741234
1645 2793 597.2384166144884
1645 2795 718.5862121140199
1645 2796 636.3682057449138
1645 2818 272.69101513279264
1645 2820 565.5531573611927
1645 2823 1045.2949625224671
1645 3129 557.7786761591482
1645 3165 784.4056315840941
1646 2089 326.189783882231
1647 1648 518.3707160222352
1647 1651 1270.8001555540516
1647 1655 1707.4513941491002
1647 1657 1497.8635242822681
1647 1658 1362.7387312325968
1647 1660 1736.2541511928084
1647 1662 806.2561893833605
1647 1663 1149.3855925445748
1647 1664 660.8256797717307
1647 1668 1594.3463736850138
1647 1672 1779.348835102193
1647 2046 303.6890640898574
1647 2056 1430.2481260657032
1647 2063 1211.9220171712388
1647 2089 1801.9068209790287
1647 2168 868.2487027411594
1647 2754 997.3548319982496
1647 2770 366.3016900098614
1647 2820 685.9380165346879
1647 2821 592.1878959013587
1647 3084 8881.770593094227
1647 3185 251.74246332165288
1648 1651 1180.7559503387322
1648 1652 1425.3309832867762
1648 1653 917.644375952816
1648 1654 1410.9017607092248
1648 1655 1192.5105703453014
1648 1656 1301.072249994024
1648 1657 988.1371183711807
1648 1658 849.0345640569146
1648 1659 1072.4916000282228
1648 1660 1229.1371812900757
1648 1661 1181.831636086114
1648 1662 562.0037171867215
1648 1663 898.9835254794183
1648 1664 622.766912133056
1648 1666 2944.758896488606
1648 1668 2105.2331806934426
1648 1669 1932.4911688079983
1648 1671 1244.2344883780818
1648 1672 1273.084363235573
1648 1934 1625.4634851060016
1648 2008 1796.345594546928
1648 2009 1186.0834114447182
1648 2046 511.2595498608816
1648 2056 1776.3093378957678
1648 2063 809.9931190485707
1648 2064 1063.3359837851895
1648 2065 743.3666842125115
1648 2074 1622.4090825028743
1648 2089 1514.6250494226429
1648 2163 501.54384026010274
1648 2168 1385.0200202622323
1648 2215 1798.3717859430278
1648 2751 751.275024949953
1648 2752 761.6123694849219
1648 2753 688.5164383230466
1648 2754 681.7008281940964
1648 2758 1436.2514698586629
1648 2759 672.6189140213277
1648 2760 615.3507570141054
1648 2768 502.533956104929
1648 2769 1282.783345910099
1648 2770 183.13840779582978
1648 2771 649.8024990486755
1648 2772 254.0741163647084
1648 2773 441.48720836989173
1648 2784 976.7021657887636
1648 2789 884.7647691834065
1648 2791 1036.7495136332552
1648 2793 1136.9187220261322
1648 2794 1155.9140806837595
1648 2795 1359.6769557316807
1648 2796 1061.9104875567216
1648 2797 1205.5107191385955
1648 2802 698.5378364750511
1648 2803 502.7070325537492
1648 2804 472.9018498672814
1648 2806 406.4493375990782
1648 2821 1100.2577584326766
1648 2823 569.3262333551266
1648 2861 1604.4469738966457
1648 2913 699.03550938219
1648 2918 619.1315619147603
1648 3055 669.0548802124832
1648 3080 957.2547083693391
1648 3084 8884.759880830192
1648 3119 725.8582156557644
1648 3129 1037.6956788091002
1648 3149 560.1708732275857
1648 3165 780.5360298763278
1648 3185 731.1208051105982
1649 1910 3839.257687460258
1649 1934 1971.0030954648264
1649 2775 496.0788582200081
1649 2776 506.292370309431
1649 2777 1126.854661743437
1649 2778 528.8459348304915
1649 2897 586.9943504293842
1649 3053 1247.0679000815371
1649 3065 1108.6051641845227
1650 1651 412.1409161376406
1650 1655 2164.0683546653527
1650 1662 1042.712863142557
1650 1664 1008.0096772689336
1650 2009 525.8780259610968
1650 2027 411.15127180400043
1650 2779 656.2621179511314
1650 3077 403.0270208768769
1651 1652 1534.3393425437246
1651 1653 1350.747817746284
1651 1654 1680.6148468638066
1651 1655 1813.3740822242148
1651 1656 1899.9396200706583
1651 1657 1721.6770613670537
1651 1658 1587.0126697151793
1651 1659 2073.683800465076
1651 1660 1924.6378238487382
1651 1662 630.6946571121881
1651 1663 419.1477502582682
1651 1664 617.1233764570379
1651 1665 329.48044666649366
1651 1671 2326.6627896603673
1651 1672 1965.9673821271044
1651 1910 1290.3098819614718
1651 1934 2612.8420859476564
1651 1935 814.4691006417559
1651 1936 652.4427984222095
1651 2008 1009.6068814741094
1651 2009 320.6601191366435
1651 2027 269.2020170521098
1651 2046 1515.716450338447
1651 2056 1275.921363429583
1651 2063 1883.4828672683211
1651 2064 1809.6480201437755
1651 2065 441.33383223060974
1651 2074 963.1098002668003
1651 2092 1405.4937241460816
1651 2093 1726.778603674289
1651 2754 1836.8884375671266
1651 2758 760.9458465522247
1651 2759 961.2672419378737
1651 2762 1118.6837342347262
1651 2763 660.4821486805337
1651 2764 873.6234934175802
1651 2768 1036.156066503159
1651 2771 1273.26166236139
1651 2773 1601.9564128491095
1651 2779 440.86236804715605
1651 2780 450.81851390136933
1651 2781 325.5402069899916
1651 2782 260.62021296586136
1651 2783 1192.0192543249593
1651 2795 1808.8557895864458
1651 2797 1753.7241724969158
1651 2800 802.349156011672
1651 2802 483.1865963645582
1651 2803 725.4313538724524
1651 2804 708.1795382948251
1651 2806 832.731768339784
1651 2820 1357.9595136437194
1651 2823 1726.0089099374268
1651 2913 1713.502764282493
1651 2916 921.4966162511298
1651 3057 378.7956398648798
1651 3061 330.82922079186636
1651 3077 448.0631654416394
1651 3123 761.7673912288695
1651 3128 880.2573276135281
1651 3138 349.7593212957609
1651 3144 1171.2214206701378
1651 3165 490.9703656294496
1652 1653 528.9558487728954
1652 1655 671.8890257624137
1652 1656 673.5396052186256
1652 1657 803.60334746478
1652 1658 808.7010995745379
1652 1659 1320.9921798112114
1652 1660 804.1450754321464
1652 1662 1273.0444049573807
1652 1663 1157.4257887258093
1652 1664 1548.8610038639572
1652 1671 1635.366372604857
1652 1672 817.8753900392603
1652 1910 2185.7357870670107
1652 1934 1639.7910919791548
1652 2008 1137.6320762788885
1652 2063 1371.919030049348
1652 2064 835.8980771920707
1652 2074 940.7717386871177
1652 2089 1964.2494584188855
1652 2093 1059.4773587678044
1652 2748 1702.2745963028865
1652 2750 1386.3837370472831
1652 2754 1561.422013736775
1652 2759 807.0727335893037
1652 2762 561.3804604000666
1652 2763 885.551763095854
1652 2767 1020.1619613501235
1652 2768 935.7948744044373
1652 2783 367.0536559909324
1652 2784 541.4148568803967
1652 2785 594.9377171924195
1652 2786 497.60093247640657
1652 2791 577.1632999033615
1652 2793 805.1073168270227
1652 2794 351.3716123093954
1652 2796 1007.9510367714071
1652 2797 566.1625315504378
1652 2798 730.8939130901277
1652 2806 1180.4849847788516
1652 2818 679.760853532624
1652 3055 955.99959085182
1652 3129 905.1282302074449
1652 3162 690.3722909857719
1652 3165 1161.3528272379863
1653 1656 549.5449836377182
1653 1657 427.9737382433176
1653 1659 923.3041585062762
1653 1660 583.9661371519927
1653 1662 902.5775513356205
1653 1663 932.0972324549593
1653 1664 1169.2877901326094
1653 1669 2072.3238736257936
1653 1671 1237.1338526646362
1653 1672 622.3743303052819
1653 1934 1369.2534425529136
1653 2008 1347.022825290655
1653 2063 897.122842717807
1653 2074 1135.1454793206808
1653 2089 1576.9512968540666
1653 2092 732.7033820103421
1653 2215 1893.3478073417325
1653 2748 1214.8263725531683
1653 2752 1383.288281791047
1653 2754 1052.8641978978774
1653 2762 803.5738874276226
1653 2783 352.7032501456276
1653 2795 495.82643097752606
1654 1655 483.4642988150413
1654 1657 650.3877456631421
1654 1658 689.4631858661919
1654 1659 1150.7381131714496
1654 1660 607.5475121127158
1654 1662 1346.8247070189093
1654 1663 1284.060439581721
1654 1664 1621.804093556977
1654 1669 2266.4481030945326
1654 1671 1459.4902367740192
1654 1672 615.7293713726458
1654 1910 2397.457588560805
1654 1977 1767.1709363151208
1654 2008 1353.6662484333665
1654 2063 1236.3514248603167
1654 2064 665.5537078219967
1654 2074 1154.1131764838667
1654 2093 925.7913982339865
1654 2215 2080.4174159110034
1654 2762 773.6730710357425
1654 2784 450.79064328391127
1654 2787 963.3207748977079
1654 2793 622.6571908156996
1654 3080 875.053295694235
1655 1659 671.2635843752304
1655 1661 802.1931068334143
1655 1662 1328.8811538708067
1655 1663 1394.3056896580165
1655 1664 1580.2245580840897
1655 1668 3266.0311102526844
1655 1669 1784.856845477377
1655 1671 976.6487484861549
1655 1934 977.6196092762355
1655 1935 2511.8549560618635
1655 1977 1466.0349607390342
1655 2008 1731.8187729445897
1655 2009 2009.81908609776
1655 2046 1607.8609880012077
1655 2063 794.8765696705309
1655 2074 1521.3694166077673
1655 2089 1297.8763822952349
1655 2164 838.4220141176135
1655 2168 2564.5711085851176
1655 2215 1599.1301455314588
1655 2563 973.9322604186458
1655 2752 1413.1884078135242
1655 2754 1038.4245903746303
1655 2755 1490.116868360878
1655 2758 1473.3938073021593
1655 2762 1153.7108262563058
1655 2766 800.9025788075562
1655 2767 803.254745355688
1655 2768 859.3594182041201
1655 2783 737.8902226710055
1655 2787 504.5399648028769
1655 2789 568.0206398720944
1655 2790 630.8751446240088
1655 2792 723.8937547791877
1655 2801 1418.843476100247
1655 2802 1462.0232297877146
1655 2814 1210.221935022431
1655 2820 1033.5745229744305
1655 2823 1408.918172447407
1655 3055 534.0335067614121
1655 3178 6692.589077949563
1656 1659 723.1581722122073
1656 1662 1429.4483516973314
1656 1664 1683.583956758222
1656 1669 1805.404272493355
1656 1671 1016.2360545271235
1656 1910 2783.5400314194426
1656 1934 966.7696426425376
1656 2008 1769.114285323596
1656 2009 2104.175137406228
1656 2074 1560.7797078463966
1656 2089 1326.0507552489744
1656 2164 853.8383424024249
1656 2215 1619.0897694316632
1656 2748 1199.5203239030818
1656 2754 1127.0716277499816
1656 2762 1186.6839841179742
1656 2768 962.4907265530796
1656 2792 788.9551655996352
1657 1659 521.9855083416367
1657 1661 669.899330703577
1657 1662 1188.7678714088458
1657 1663 1305.327126904834
1657 1664 1423.9559818099442
1657 1668 3045.813836136522
1657 1669 1669.6256358760618
1657 1671 839.008389308943
1657 1672 287.0088611201344
1657 1934 941.6808854053659
1657 1977 1553.3460281459725
1657 2008 1769.8810187832203
1657 2009 1889.4959196154146
1657 2046 1386.6097524748607
1657 2074 1557.6851336494096
1657 2089 1174.690316862051
1657 2164 939.765962340927
1657 2215 1487.0708720953637
1657 2749 1166.7770785943815
1657 2752 1192.2524595602956
1657 2753 1261.4517515360144
1657 2754 819.8222794609692
1657 2755 1345.8843385040948
1657 2760 858.633891435403
1657 2771 1634.2208367858775
1657 2790 772.7748172128601
1657 2803 1337.1037902339592
1657 2820 817.4637031433774
1657 2823 1183.7146802796785
1657 3165 1234.6380750081087
1658 1659 573.6669200374125
1658 1661 727.6971467530539
1658 1662 1043.2890672950841
1658 1663 1173.265174174806
1658 1664 1276.3122193154866
1658 1669 1721.5905610091331
1658 1671 886.439153414246
1658 1672 433.2681691483233
1658 1934 1048.6798229539936
1658 2008 1694.6739784862505
1658 2009 1746.7511008044441
1658 2074 1483.2884461433637
1658 2089 1226.326854406705
1658 2164 918.2440116423028
1658 2215 1542.9692036832328
1658 2762 1153.991457371352
1658 2791 245.3000311395816
1659 1660 570.5266164834334
1659 1662 1470.974488112186
1659 1663 1678.9430269242496
1659 1664 1647.7076405952716
1659 1669 1150.7913666855375
1659 1670 1202.3505652261638
1659 1671 317.22711009700737
1659 1672 584.7744934582009
1659 1910 3182.6860888089095
1659 1934 556.7913693196992
1659 1944 1492.6760737895072
1659 1977 1362.6900161368853
1659 2089 655.0977243896638
1659 2215 970.3951417950046
1659 2752 900.7747762404534
1659 2754 549.8767159609669
1659 2791 752.7253537115232
1659 2793 530.6140254059277
1659 2794 978.1391295642592
1659 2795 929.9992844639968
1659 2813 1442.5040861601217
1659 2814 540.9617168421196
1659 2815 1254.7532914552992
1659 2816 1069.581681657926
1659 2819 415.4660110561839
1659 2820 853.0072116427059
1659 2822 539.9698947312583
1659 3116 1353.0506532105103
1659 3164 1230.4827250554679
1660 1661 689.8397580795095
1660 1662 1416.912216688607
1660 1663 1505.6865455127524
1660 1664 1659.0582542820134
1660 1668 3272.307308088935
1660 2008 1869.44521388444
1660 2009 2109.2203334515093
1660 2046 1613.177174129046
1660 2063 734.7513814718067
1660 2074 1658.828231597858
1660 2089 1176.7585583571079
1660 2092 922.5501845500279
1660 2093 475.9189211589696
1660 2164 974.6249564121665
1660 2748 1054.0151088434814
1660 2750 943.7324795229758
1660 2752 1370.7329424521822
1660 2753 1456.1070590098934
1660 2754 993.4790596568506
1660 2759 966.561208879711
1660 2762 1291.6499543297366
1660 2763 1408.147760709009
1660 2766 844.8698999216793
1660 2768 942.9954298801606
1660 2783 873.4371103239479
1660 2784 449.784941289715
1660 2785 564.5069658764911
1660 2787 439.9619605879236
1660 2789 507.1287719826256
1660 2790 761.0695028740098
1660 2791 337.1169340417033
1660 2794 505.29511170273355
1660 2795 368.33928390211327
1660 2796 269.6392484876337
1660 2803 1575.2089678891643
1660 2818 414.6423691318853
1660 2913 649.8915056426985
1660 3055 560.1324201767708
1660 3056 760.3977247706175
1660 3080 355.1205859658385
1660 3114 870.2172982859438
1660 3123 1213.6980752239067
1660 3138 1598.489027250501
1660 3144 777.8160698658265
1660 3162 351.72483717383784
1660 3165 1444.338525373031
1661 1664 1772.8600976712364
1661 1669 999.8796357508216
1661 1671 174.52036760704584
1661 1672 697.0258285891798
1661 1934 448.4492523709108
1661 1977 1290.9306338517863
1661 2063 373.3501665183387
1661 2089 504.7991800372034
1661 2215 818.1676242459441
1661 2754 594.1017200141299
1662 1663 354.02159378703186
1662 1664 276.17693547710525
1662 1665 474.8264977842261
1662 1668 2313.156442361157
1662 1671 1707.2321911485446
1662 1672 1461.212753094575
1662 1910 1883.5251168508682
1662 1934 2021.5584538266746
1662 1935 1444.3913776270388
1662 2008 1300.0806926057871
1662 2009 711.9037293020459
1662 2046 976.1025337699173
1662 2056 1521.76796737274
1662 2063 1261.858287068278
1662 2064 1277.2612890338946
1662 2074 1153.88505214544
1662 2089 2010.918873420957
1662 2090 1417.4814078259374
1662 2092 776.8252043051134
1662 2093 1136.882854093974
1662 2163 447.78333750946723
1662 2164 1195.356343225222
1662 2215 2311.0916058098587
1662 2748 1428.08805752343
1662 2752 1323.5177557626903
1662 2754 1206.2188616169449
1662 2758 947.5083059723866
1662 2760 374.4871302081166
1662 2762 1090.0664734495772
1662 2763 670.6246475341858
1662 2764 1016.3969164764188
1662 2767 602.6903038324346
1662 2768 474.42221952079416
1662 2771 869.4996334969755
1662 2772 815.4324222832232
1662 2782 387.77637674148906
1662 2788 1440.8825840744644
1662 2791 1121.002016338885
1662 2793 1333.222032944377
1662 2794 1129.745152899614
1662 2795 1398.0047257585893
1662 2809 2271.5533927283636
1662 2818 1004.9671399090751
1662 2820 727.7541037076056
1662 2823 1125.4801862091335
1662 2824 591.9601891238591
1662 3058 541.2360047140172
1662 3080 1263.0180378159164
1662 3087 667.760969238903
1662 3114 1047.1899362446693
1662 3123 212.84824469062116
1662 3129 1283.2206352864237
1662 3138 295.6584301781037
1662 3167 391.91604985033024
1662 3178 5400.5927690742965
1663 1664 528.6179025323811
1663 1668 2596.7230307452196
1663 1672 1546.9037861015745
1663 2008 954.1768835363964
1663 2009 651.8000983052742
1663 2027 654.7310589213222
1663 2046 1330.105429753003
1663 2063 1510.3066377201933
1663 2074 823.7869687733779
1663 2093 1327.1877832869307
1663 2164 1031.9096251701403
1663 2762 835.2846648283189
1663 2768 638.9856702490672
1663 2771 1198.305435010086
1663 2790 1196.8360551515655
1663 2795 1396.8940700267729
1663 2802 292.23462340077725
1663 2803 579.4061291764494
1663 2862 564.0771780183939
1663 2924 289.5858739134378
1663 3058 245.05039694242836
1663 3059 235.1159938346309
1663 3138 154.6846958799196
1664 1665 334.8560166686787
1664 1666 2716.4518875688123
1664 1668 2071.499886083977
1664 1669 2554.6522099894946
1664 1672 1703.888846431281
1664 1910 1907.2892142058977
1664 1934 2204.2114636503693
1664 2008 1472.1780240104674
1664 2009 564.1717455081072
1664 2027 653.3422571693368
1664 2046 898.8127558359549
1664 2056 1263.3545690812061
1664 2063 1409.95181243235
1664 2064 1511.0455234097078
1664 2074 1351.8269510787854
1664 2089 2134.825944672308
1664 2093 1334.8059656321511
1664 2163 254.18670568013914
1664 2164 1466.7983872057696
1664 2215 2421.0459150993333
1664 2748 1522.308223004437
1664 2750 1058.9483381695586
1664 2752 1344.190925220771
1664 2753 1236.6421075805229
1664 2754 1304.2809070786434
1664 2758 1137.742679390195
1664 2762 1337.4876683094599
1664 2763 888.9061637778166
1664 2764 1222.2068368557832
1664 2766 861.4556668862573
1664 2768 721.0956841966495
1664 2771 684.5773923484782
1664 2773 1007.6010867257257
1664 2779 517.3219574102566
1664 2780 869.8361032094225
1664 2783 1183.4444152478854
1664 2784 1281.137016283923
1664 2787 1465.7511859685696
1664 2790 1576.8479047019594
1664 2791 1378.0318845492905
1664 2793 1572.164218300075
1664 2795 1665.0425682860168
1664 2797 1554.2788064838026
1664 2799 654.6683006510791
1664 2805 936.622393562461
1664 2806 429.6449293096391
1664 2807 2427.4511826491516
1664 2809 2015.1439571881403
1664 2811 2479.702684214971
1664 2820 831.8139505586188
1664 2823 1127.098427882676
1664 2824 495.63076008460666
1664 2913 1269.0996700168728
1664 3077 825.6276288305056
1664 3114 1173.6529634143408
1664 3123 484.7542851814738
1664 3129 1509.0416635786437
1664 3132 217.34003090861637
1664 3148 400.2387763233271
1664 3162 1313.4188082530002
1664 3165 445.50703765070557
1664 3178 5130.8797317661065
1666 1668 1065.9710318574887
1666 3081 903.700519113717
1667 1668 997.8836684004361
1668 1672 3312.274469010331
1668 1963 3440.2004234215333
1668 2043 1282.3677569121141
1668 2046 1659.5058371095915
1668 2063 2621.996499609468
1668 2168 734.7225207018627
1668 2182 3220.240440961784
1668 2633 1520.6981886795645
1668 2752 2021.121214287434
1668 2753 1885.0572065844297
1668 2754 2353.552839669788
1668 2771 1481.0297937103853
1668 2797 3295.429589629661
1668 2807 657.1406522184016
1668 2808 449.78881270445885
1668 2809 269.0557982027033
1668 2810 264.18067061780636
1668 2811 491.91594913074715
1668 2820 2234.1846221390033
1668 2823 1915.8759909605592
1668 2861 514.4096014896637
1668 2866 446.09881098936023
1668 2915 429.9144000616973
1668 3151 333.590643637112
1668 3186 425.4006342787535
1669 1671 835.2034032625564
1669 1672 1655.356733052241
1669 1934 906.8715209857758
1669 1977 1459.475501341822
1669 2043 3206.543575415629
1669 2046 1843.364293982381
1669 2063 1231.4735720849903
1669 2064 1622.3682059633409
1669 2090 1094.158161246935
1669 2093 1482.6915331796135
1669 2216 1362.9685274150806
1669 2748 1033.6684554805374
1669 2749 697.8914991357718
1669 2752 1281.0000073678152
1669 2754 1254.4846010575552
1669 2755 394.46250232898063
1669 2795 2026.0083264566197
1669 2796 1450.9900775912183
1669 2797 1889.917179029235
1669 2812 511.8485424720201
1669 2813 351.3797396575602
1669 2820 1734.4518512596705
1669 2823 1501.7686747893451
1669 2912 856.3071552228237
1669 2913 1419.4338952120356
1669 2917 798.9676324968755
1669 3080 1448.5739991160126
1669 3116 387.2156549420041
1669 3129 1556.3610325271002
1669 3137 551.2190831683815
1669 3166 317.19385125164985
1670 1671 907.9279353370321
1670 1672 1634.759361775167
1670 1934 826.7982341675967
1670 2089 588.9571814781715
1671 1672 870.1366966225451
1671 1934 460.18285648587255
1671 1944 1429.912344729239
1671 1977 1320.2603019757325
1671 2063 445.7896906252238
1671 2064 799.4876906562379
1671 2090 289.77110813200983
1671 2092 939.3067585908893
1671 2093 651.3111385458309
1671 2749 425.9674323264822
1671 2752 854.2433938418172
1671 2754 599.099879482672
1671 2787 543.151653606246
1671 2789 516.6900184749472
1671 2791 1069.7004572179878
1671 2792 334.17653646688564
1671 2793 836.8453005345973
1671 2796 627.5389223069639
1671 2813 1136.8243181354915
1671 2816 794.1845161177712
1671 2819 191.07261751935854
1671 2880 300.9840494807615
1671 2913 615.1753139393043
1671 3055 854.4305126300789
1671 3080 614.5949989653005
1671 3114 681.5020241643628
1671 3129 730.5319496667327
1671 3166 1147.7617186853913
1672 1705 9877.430661862687
1672 1708 10415.287971042895
1672 1714 11860.007277920851
1672 1747 9187.83846290453
1672 1782 11461.86327973711
1672 1830 7913.643118271809
1672 1862 11873.681007570394
1672 1877 11333.988894659871
1672 1910 2897.1048002924745
1672 1934 822.426313321579
1672 1935 2673.9744492034774
1672 1942 4491.785376546772
1672 1944 1456.87077219064
1672 1977 1307.1145974032625
1672 2008 1895.6801293875337
1672 2046 1653.5284250285606
1672 2063 763.0482657566023
1672 2065 1681.065675716196
1672 2074 1685.646637760207
1672 2089 1176.701882045684
1672 2090 759.9422174973354
1672 2109 604.0438209834574
1672 2163 1717.391654549347
1672 2164 992.9641958165405
1672 2182 6442.763788111351
1672 2215 1469.039697008081
1672 2216 1753.6934147217692
1672 2553 830.21189061159
1672 2561 992.5154870640825
1672 2751 1243.4219581575592
1672 2752 1402.0774311943755
1672 2753 1490.3086757836713
1672 2754 1024.921284917539
1672 2755 1380.734860945955
1672 2758 1639.264714124842
1672 2760 1115.5275552615344
1672 2762 1316.0620354992784
1672 2763 1443.8118427670336
1672 2764 1586.5863202223354
1672 2767 907.2246285612229
1672 2771 1916.7655675472952
1672 2789 536.7778831748718
1672 2790 773.0363410761762
1672 2792 660.1645024108886
1672 2795 370.9301747783785
1672 2798 144.65160881780582
1672 2800 1367.2364269156703
1672 2802 1599.3270986077252
1672 2803 1620.203259735396
1672 2804 1490.663113684631
1672 2806 1274.6825951063345
1672 2813 1896.5638670020894
1672 2814 1109.276516066989
1672 2815 1798.875246630079
1672 2816 1469.7731085189441
1672 2819 998.9500582828546
1672 2820 1095.360916511975
1672 2822 1012.5941560239496
1672 2861 2798.4414579958684
1672 3058 1781.5709668973532
1672 3114 906.5164438514129
1672 3135 5051.703002377146
1672 3163 1111.6877753593121
1672 3178 6796.01431823155
1673 1917 362.5952225865111
1673 1991 334.5889808682209
1675 1943 941.5400868584035
1675 2029 560.1567683471844
1675 2389 559.3834328629888
1675 3178 2234.7617617672204
1676 1681 401.9597416623366
1676 1769 184.31474907081224
1677 1808 265.60780762211897
1678 1745 288.5342898083677
1679 1695 194.68672324442986
1679 1708 3937.245340309985
1679 1830 348.3215037966541
1680 1878 286.87324783784175
1680 2833 135.92871295547013
1680 2903 62.656078189826125
1681 1878 228.80311800331987
1681 2961 67.15788598436404
1681 2965 68.95488647626084
1682 2547 19.872412620490557
1683 1684 73.7506602154172
1683 1853 1229.4189806231186
1684 1853 1234.2180655528005
1685 1853 312.16115046566154
1686 1758 196.64017172846624
1687 1793 366.08407617360524
1687 1802 929.9364329530283
1688 1893 456.1869441111373
1688 1905 1977.8841133894864
1688 2105 2533.493083252655
1688 2832 2028.3128871535441
1688 2932 74.85833790052776
1689 1695 44.718815806195174
1690 1708 555.637085243148
1691 1709 604.9994582570781
1691 1710 854.0354068876942
1691 1729 1654.8629289922835
1691 1752 979.2786283365142
1691 1773 600.071240402487
1691 1782 745.3573786323533
1691 1783 1539.8142334491681
1691 1802 1127.8957021422314
1691 1806 1133.6862809191625
1691 1842 1097.128943855182
1691 1859 1656.7574326108056
1691 1904 778.9397245072689
1691 1906 1444.9317210845513
1691 2928 1290.7566214584572
1692 1697 2016.852271065331
1692 1701 3693.780524920636
1692 1705 4341.247628539514
1692 1708 4193.034879118519
1692 1709 903.306732857267
1692 1710 1207.622527330105
1692 1714 322.3066247462479
1692 1722 1187.9919312093461
1692 1723 146.29037698125245
1692 1724 641.4739534042822
1692 1725 441.010059244716
1692 1727 534.9936852071442
1692 1729 1994.305667378219
1692 1731 3379.5586937866515
1692 1732 538.1637290652493
1692 1737 2567.648966304254
1692 1743 2586.9179906716236
1692 1744 796.5633355240053
1692 1746 2028.284347182396
1692 1747 4005.5143682864077
1692 1750 4178.393361898633
1692 1752 1313.6531914870789
1692 1761 762.3194917246067
1692 1766 1450.380762110022
1692 1771 550.7445864046992
1692 1773 984.5102662520503
1692 1782 1014.9924037072287
1692 1783 1908.4601730796148
1692 1793 2509.2723714619283
1692 1795 2729.7027569778556
1692 1799 1680.594921557339
1692 1802 1521.5558674247488
1692 1806 1514.2964812860962
1692 1811 296.6924327969853
1692 1814 238.44836430761578
1692 1820 1626.6648025316556
1692 1822 663.5505428876075
1692 1824 1380.5241985935195
1692 1827 4072.3254294212793
1692 1828 1929.4848925538884
1692 1833 4155.900847516583
1692 1841 424.7276561012244
1692 1842 1381.5116197019695
1692 1843 4316.674582517592
1692 1845 2815.7352211586053
1692 1846 450.14259764183186
1692 1849 1028.0195013555976
1692 1852 322.61158212561054
1692 1859 2013.2936097213642
1692 1862 300.1783917129837
1692 1865 1317.7293690933802
1692 1872 634.9369059879543
1692 1877 1391.0802467244537
1692 1886 594.0549402705112
1692 1892 246.57526434512772
1692 1893 1804.2337899432255
1692 1895 2199.5707128416043
1692 1898 232.9886239128599
1692 1904 1170.6767427471452
1692 1905 3822.676127096147
1692 1906 1805.9772572239388
1692 2003 315.23587901699005
1692 2004 243.7393790368926
1692 2037 1243.7121203241297
1692 2067 881.5355351459401
1692 2147 112.73719952037814
1692 2152 97.76199535174067
1692 2377 5450.951564971416
1692 2427 175.62756110123863
1692 2442 204.5148797986756
1692 2445 342.64298708320194
1692 2825 72.272595197577
1693 1695 3776.9650431804657
1693 1697 2390.600318221516
1693 1701 1038.2241021666505
1693 1704 1164.8998363561032
1693 1708 542.7600343222502
1693 1715 823.0649446669045
1693 1721 3824.8387804739423
1693 1731 944.8599498365613
1693 1743 2638.3815997349193
1693 1747 1081.696502802367
1693 1750 568.3530745260483
1693 1759 3950.210081490021
1693 1781 523.409862469851
1693 1793 2339.530453038988
1693 1795 2405.3286329848775
1693 1827 875.3738699015848
1693 1830 3873.282996113026
1693 1833 718.3600259980292
1693 1835 582.3592461369944
1693 1842 2960.8682450999836
1693 1845 1536.8016777060916
1693 1849 3387.134385869649
1693 1855 1231.3612273084548
1693 1862 4135.150929103172
1693 1877 2947.3183071167255
1693 1893 2534.1090423519377
1693 1897 2207.81568694713
1693 1900 597.2354767799884
1693 1905 654.3385966671805
1693 1997 1427.243506594105
1693 2058 716.850862988428
1693 2832 1073.9524889831453
1693 3068 948.4305887507431
1694 1701 1667.5400609268395
1694 1714 1819.757757450066
1694 1724 1623.999317799028
1694 1731 1348.1060419257824
1694 1737 1259.5772230334637
1694 1747 2195.3871261333716
1694 1782 1044.1690000992742
1694 1793 940.2126035085795
1694 1799 549.3103611651353
1694 1802 1321.0490610999798
1694 1811 1842.8852535344872
1694 1822 1586.3870660974792
1694 1833 2109.4321756584477
1694 1842 679.4410997086275
1694 1845 758.1408635885949
1694 1877 667.8856818610398
1694 1893 453.19506811956916
1694 1904 1467.733687614517
1694 1905 1764.9018834827546
1694 1906 1948.9383206968685
1695 1701 4571.8228087902735
1695 1705 3760.343509722584
1695 1708 3995.419231388562
1695 1721 135.05094221302642
1695 1735 127.5056576644224
1695 1747 4248.367825248082
1695 1759 324.0383947761951
1695 1793 5962.306559063848
1695 1816 74.68512028687454
1695 1827 4122.203695570947
1695 1830 161.94840151860686
1695 1833 4083.4282757205233
1695 1843 3787.8860576952916
1695 1845 5308.306717067046
1695 1870 3866.15451748963
1695 1877 6724.275672462224
1695 1887 55.5817559561702
1696 1708 1931.7474304269456
1696 1718 536.6463745395969
1696 1737 873.919857476811
1696 1793 529.7349889219472
1696 1802 1255.6804969692953
1696 1842 946.3222365570688
1696 1845 673.9849197471112
1696 1846 1934.9120264647008
1696 1877 944.6668341889776
1696 1893 877.506728836027
1696 1905 1583.5482784865997
1696 2832 1373.5441820352326
1697 1700 364.3322706767069
1697 1701 1676.930377996283
1697 1705 2406.3538234386315
1697 1707 632.2999288665266
1697 1708 2189.655673627362
1697 1709 1113.9839101161433
1697 1710 865.9990702048731
1697 1714 1753.01473641818
1697 1718 742.4857852377758
1697 1724 1524.245058797299
1697 1729 1999.546108356168
1697 1731 1476.5289562681573
1697 1737 1037.1634135129925
1697 1743 1074.5191093905821
1697 1747 2391.6054298516174
1697 1752 723.5607975711915
1697 1782 1009.3574796863136
1697 1783 1686.8506191810031
1697 1793 741.6563221431087
1697 1799 380.1459379740453
1697 1802 1113.3770356430837
1697 1806 789.6215350531328
1697 1811 1777.6959761375763
1697 1822 1487.0596414517609
1697 1824 700.1786970266417
1697 1827 2378.786397565557
1697 1833 2142.295465528102
1697 1842 649.8055859572345
1697 1845 855.3746499083811
1697 1846 1666.6648335265038
1697 1877 647.0056291484852
1697 1886 1551.6559703230969
1697 1893 633.0136485376084
1697 1895 1111.573070076388
1697 1904 1298.9460815853738
1697 1905 1829.489465125037
1697 1906 1726.0867560845957
1697 1997 1154.1846303906739
1697 2446 259.91785065689
1698 1710 599.8533672640627
1698 1714 1282.3497367513849
1698 1724 1135.560239983575
1698 1731 1884.22112414798
1698 1782 499.8363857088608
1698 1793 1322.356196823489
1698 1802 1139.5030836210108
1698 1811 1303.4585847307922
1698 1845 1325.9526715069037
1698 1877 174.4773954736416
1698 1893 366.02399369679085
1699 1853 527.1040365809533
1699 1860 114.2895236070253
1700 1707 317.5111868934673
1701 1704 1643.8608108931803
1701 1705 1046.0401907216703
1701 1708 594.3616987870312
1701 1709 2790.7633749787433
1701 1714 3425.3716249035688
1701 1715 1184.0883033342034
1701 1721 4596.8975681481115
1701 1724 3177.723191861082
1701 1729 3168.913507324601
1701 1731 817.7451972278602
1701 1737 1620.967997823296
1701 1738 683.0852914942049
1701 1739 557.7126887288505
1701 1743 1638.694950266883
1701 1744 2913.0003528434795
1701 1746 3168.272836955086
1701 1747 1781.8259428560702
1701 1750 570.0058159129152
1701 1752 2390.8673735166994
1701 1755 256.77129377081565
1701 1759 4787.167293100187
1701 1770 1354.1407654576915
1701 1773 3036.4918975247438
1701 1778 177.51057259736484
1701 1781 592.4100647177858
1701 1782 2683.9833569464436
1701 1783 2872.752639541553
1701 1789 1825.0999316766515
1701 1793 1393.8675977481435
1701 1795 1400.9079823908276
1701 1799 2026.8206946648127
1701 1802 2549.084754899803
1701 1804 793.0332547160763
1701 1806 2326.3310971182163
1701 1821 565.716097257388
1701 1822 3141.577395719169
1701 1824 2346.5281048242814
1701 1827 1625.0879085693907
1701 1830 4688.535041936183
1701 1831 1847.1568457709166
1701 1833 488.6162111880236
1701 1835 521.296641960808
1701 1842 2319.654306552304
1701 1843 998.6516021096793
1701 1845 968.5390943141199
1701 1846 3332.8288530975738
1701 1849 2682.841014644321
1701 1853 4101.4342740965985
1701 1862 3458.1238402313593
1701 1866 966.6295229400379
1701 1870 1040.0074476373059
1701 1872 3070.7160903652257
1701 1877 2313.429084773
1701 1880 418.43956140536113
1701 1886 3209.741491193934
1701 1890 1501.791004830396
1701 1893 2051.7106686348893
1701 1895 2088.9735966026906
1701 1897 1338.566313839128
1701 1900 543.236497316205
1701 1904 2848.3866549294653
1701 1905 410.8492244049248
1701 1906 2969.692016258948
1701 1950 960.9334379354357
1701 1951 730.3941071536093
1701 1992 2418.7912082410116
1701 1997 527.7127436454839
1701 2034 705.2749026210482
1701 2075 391.6376124354917
1701 2145 192.0705677715142
1701 2443 817.0470621749573
1701 2948 207.02002683442808
1702 1724 948.3752318110664
1702 1768 2244.6241005646903
1702 1782 1204.5983040685962
1702 1811 608.2407064660423
1702 1846 760.4482306077196
1702 2105 2091.642391542313
1703 1793 225.17358781429107
1704 1708 1522.6113529896054
1704 1715 462.32560272200277
1704 1731 878.7539978037564
1704 1747 358.92002128651
1704 1827 447.83446985868966
1704 1845 1342.9214177943093
1704 1893 1886.0004960889573
1704 1905 1298.0741807245104
1705 1708 543.1900290242218
1705 1709 3469.951427949507
1705 1710 3269.1319694508934
1705 1714 4118.406266310636
1705 1715 840.241663152171
1705 1718 2370.174253619967
1705 1721 3808.0130659035704
1705 1724 3920.9543084653683
1705 1729 4150.830925652002
1705 1731 961.9129360392243
1705 1737 2627.1901089975136
1705 1738 383.2939825706017
1705 1744 3618.2776402213744
1705 1746 4153.709053514299
1705 1747 1093.0610700375828
1705 1750 569.0823570432584
1705 1752 3120.0276449263415
1705 1759 3934.0939872204003
1705 1764 4045.15082516662
1705 1770 2381.5785333763647
1705 1773 3853.2876727025928
1705 1778 1208.036293180021
1705 1781 524.5698862746237
1705 1782 3337.3500008609885
1705 1793 2351.94428128891
1705 1795 2416.0176194913406
1705 1799 2785.880978053683
1705 1802 3434.722779801903
1705 1804 253.29886931190845
1705 1818 246.12623950758191
1705 1822 3883.406962232322
1705 1824 2962.3654617783527
1705 1827 886.3843121361543
1705 1830 3856.892141672131
1705 1833 718.8887648555765
1705 1835 584.7846034686188
1705 1842 2977.4730283800754
1705 1845 1552.7769753533946
1705 1846 4047.7541379934382
1705 1862 4151.791996616461
1705 1866 308.33844066918186
1705 1869 125.15144481462897
1705 1870 137.92857035548906
1705 1871 1547.3551064623725
1705 1877 2963.967282844913
1705 1880 676.6030712735525
1705 1886 3944.3578942843333
1705 1893 2551.3917362332977
1705 1895 3069.421393170496
1705 1897 2221.5628856903813
1705 1900 598.2619099154036
1705 1904 3686.976080103797
1705 1905 664.8924384125019
1705 1906 3929.1517626820064
1705 1934 9085.278169289339
1705 1950 124.0726151346387
1705 1951 421.87554228522686
1705 1977 8692.078428376863
1705 1997 1439.3069592368554
1705 2057 321.43164033100146
1705 2058 726.794165769387
1705 2060 530.4507783791624
1705 2061 744.9059178028217
1705 2217 402.1906475407139
1705 2408 489.3238524216278
1705 2428 507.4634411061964
1705 2433 663.7835530327067
1705 2443 306.91409792644663
1705 2624 998.1259424754955
1706 1746 475.1328052962055
1706 1783 192.34772865352863
1706 1802 483.9366590691355
1706 1904 626.7341731765451
1706 1906 168.54730052427962
1707 1708 2599.7166341193843
1707 1710 648.1989590387104
1707 1714 1520.2803940219078
1707 1724 1224.0209306885931
1707 1731 2026.5865305622665
1707 1737 754.2840593624866
1707 1743 779.6148043799064
1707 1744 1048.0865340430255
1707 1746 1384.2188052111057
1707 1752 613.1109158118952
1707 1770 1005.5723831025842
1707 1773 1017.0966706553339
1707 1782 982.4783314028649
1707 1783 1055.4094009403068
1707 1793 693.3028598733707
1707 1795 899.3474182462048
1707 1802 532.7932597180908
1707 1810 330.40335182718593
1707 1811 1546.939285478209
1707 1815 114.5010796900523
1707 1842 774.4103299174944
1707 1845 1401.4206470400427
1707 1877 791.9860320957697
1707 1886 1264.9221556224945
1707 1893 1128.2669510295318
1707 1895 562.0422685941871
1707 1904 821.4790419567001
1707 1905 2273.8505882312766
1707 1906 1100.301342562843
1707 2421 291.7867109101931
1708 1709 3296.4311176741517
1708 1710 3050.9320445092694
1708 1714 3941.015734844918
1708 1715 1086.4404835073146
1708 1721 4025.639011072542
1708 1724 3710.903835145037
1708 1729 3763.2283832769117
1708 1731 949.3176162028656
1708 1737 2215.0765423912694
1708 1738 176.10024085385538
1708 1739 1147.5346193495948
1708 1743 2232.392705309106
1708 1744 3430.0431188736557
1708 1746 3762.633083251889
1708 1747 1536.9118067430431
1708 1752 2912.881891968859
1708 1755 381.15026378925086
1708 1759 4203.024147982369
1708 1770 1944.6479177252984
1708 1773 3594.536434160395
1708 1778 724.9260609583706
1708 1782 3178.042493097701
1708 1783 3466.431679923988
1708 1793 1983.177214295344
1708 1795 1994.3504870887598
1708 1799 2556.766343532955
1708 1802 3125.780843866616
1708 1804 336.7327370955657
1708 1806 2886.3232155163455
1708 1822 3674.0352520338324
1708 1824 2820.5938646980812
1708 1827 1343.0915147737367
1708 1828 3742.7171701301027
1708 1830 4108.229997920364
1708 1833 175.70152468499856
1708 1842 2811.5371971025
1708 1843 495.7306917688788
1708 1845 1385.1411170435535
1708 1846 3856.320237361308
1708 1849 3204.0705960423265
1708 1853 3770.814532189741
1708 1855 1686.1986867967337
1708 1857 1139.6061062522729
1708 1862 3974.2022002734902
1708 1866 629.6199228402862
1708 1870 600.4225825932938
1708 1871 1339.22193013641
1708 1874 4057.3369369721713
1708 1877 2802.1198781379558
1708 1880 175.92264798157152
1708 1886 3739.9184952793726
1708 1893 2467.2975828508393
1708 1895 2682.858690396754
1708 1896 4243.092705435371
1708 1897 1906.2097713301946
1708 1904 3412.538899264641
1708 1905 379.99479829408756
1708 1906 3562.3196058099425
1708 1934 9625.486474714198
1708 1950 428.5731692127648
1708 1951 142.27740597694267
1708 1997 1087.5743939270856
1708 2040 6611.424852909862
1708 2049 138.29942223191196
1708 2058 1205.2638405739149
1708 2060 1015.1919392943304
1708 2061 1170.5652949265657
1708 2199 2201.892310286873
1708 2443 250.05486446342775
1708 2447 215.94069481330607
1708 2929 643.2095545201593
1708 2930 1184.5045707850545
1708 2949 411.2075313587068
1708 2969 278.9873547285764
1708 2970 417.5275619216814
1708 3068 915.2572446995
1709 1714 648.8133140235341
1709 1724 498.2405283348808
1709 1729 1712.7349394586277
1709 1737 1756.1192461967294
1709 1746 1742.6070720304697
1709 1752 419.99281587585205
1709 1761 582.8698942037884
1709 1771 392.61675868818986
1709 1774 260.98105865810453
1709 1782 153.1489976048114
1709 1783 1495.330714903828
1709 1793 1641.7353763912881
1709 1795 1889.4668029949992
1709 1799 782.6026019069132
1709 1802 893.8173239407513
1709 1803 344.02228178255183
1709 1806 721.4339712427983
1709 1811 671.9561342361374
1709 1822 463.16609303329386
1709 1824 526.5545370906274
1709 1828 1645.5881164762775
1709 1841 508.89265299760035
1709 1842 492.4820126372709
1709 1845 1927.926029816048
1709 1846 583.1237326732326
1709 1849 180.07179210833013
1709 1859 1654.1052923462664
1709 1862 682.2079450235881
1709 1865 960.0315271554114
1709 1872 308.0224826027494
1709 1877 506.5659694540555
1709 1886 504.80342190242686
1709 1893 998.9109659076407
1709 1895 1477.57955829977
1709 1898 680.345180810919
1709 1904 693.6666247514573
1709 1905 2929.4178182244596
1709 1906 1444.4010183927323
1709 1992 489.6074039797124
1709 2010 725.263670523978
1709 2030 165.98560408866265
1709 2050 232.77841472992378
1709 2069 232.4121023974708
1709 2151 157.8102551197897
1709 2403 270.36950953386184
1709 2414 247.8947243069114
1709 2936 230.1707980100261
1710 1714 913.8614198390615
1710 1724 659.9841555505828
1710 1729 1503.0798841584203
1710 1731 2327.6458064511025
1710 1737 1402.3203810979458
1710 1744 411.5211168397591
1710 1746 1529.5957150450442
1710 1761 663.773544497674
1710 1773 627.2349772959484
1710 1782 368.8356227473658
1710 1783 1246.9850939755688
1710 1793 1304.763766979699
1710 1799 494.50428199498737
1710 1802 602.1811325602368
1710 1803 432.0971674991722
1710 1806 370.26275434588047
1710 1811 939.8991641020874
1710 1820 989.2419310557377
1710 1822 623.1975178844748
1710 1824 511.1072224201891
1710 1845 1716.3587843150665
1710 1846 814.0516151942887
1710 1859 1417.4910734438447
1710 1862 945.6598106120226
1710 1874 1062.0938039745367
1710 1877 425.3848937367492
1710 1886 690.0988846649201
1710 1893 958.6435727179716
1710 1895 1129.0648112330043
1710 1904 539.195436544579
1710 1905 2694.384622502961
1710 1906 1220.7177999112737
1710 2105 1184.890889890302
1710 2199 901.9306562890448
1710 2935 1371.371330382624
1710 3073 895.1502669532097
1711 2437 163.50081531374857
1712 1747 1460.5217995256696
1712 1853 915.9253205400385
1712 1867 376.0991364404668
1712 1891 152.74345053963273
1712 2091 198.1948076068438
1712 2542 66.37664741786259
1712 2543 130.01912378590066
1712 2545 112.91071507383673
1712 2899 318.36925413231484
1712 2972 94.6728211645953
1712 2973 105.06205655061949
1712 2974 56.69193699079347
1713 1737 323.57578039144676
1713 1793 564.3247113513753
1713 1802 808.7525178493476
1714 1722 886.1179501888149
1714 1724 319.34085236861876
1714 1729 1716.8351967686865
1714 1731 3160.250613469587
1714 1737 2250.548195015764
1714 1743 2269.0361885646184
1714 1744 512.430567083804
1714 1746 1750.598703924108
1714 1747 3854.8195013221884
1714 1752 1034.6222869289995
1714 1761 446.63194579157846
1714 1764 457.53466886430743
1714 1766 1140.6376696499542
1714 1770 2522.4123614751247
1714 1771 395.99556125920594
1714 1773 669.9662810552949
1714 1774 856.420182208792
1714 1779 257.32645278425076
1714 1782 783.4756235184652
1714 1783 1607.2664001157452
1714 1793 2204.7931860629265
1714 1795 2416.91356024961
1714 1798 1014.2749404055334
1714 1799 1400.3466861047725
1714 1802 1199.318010490455
1714 1803 971.4617862862334
1714 1806 1201.0108836183624
1714 1819 428.3842911055706
1714 1820 1320.9482455162017
1714 1822 341.41798121915696
1714 1824 1163.467926025773
1714 1827 3906.538526104025
1714 1828 1650.3794428355948
1714 1830 7973.401345419207
1714 1831 1632.3650992289238
1714 1833 3895.0629706761633
1714 1841 313.1026951729316
1714 1842 1141.0769094548373
1714 1845 2576.4099946720544
1714 1846 128.8437415834628
1714 1849 742.9850699332984
1714 1859 1721.9985840725017
1714 1865 1011.5412801646804
1714 1872 453.2236793384989
1714 1877 1154.4552277208627
1714 1886 271.7860281910694
1714 1890 1950.7709216738624
1714 1893 1618.7276790007904
1714 1895 1877.4312150014132
1714 1896 457.1025608181728
1714 1897 2127.642810757925
1714 1898 230.61428993855841
1714 1900 3907.784609225248
1714 1904 850.287569419459
1714 1905 3576.004731118215
1714 1906 1510.8839103615471
1714 1949 276.11558703369974
1714 1986 716.4407230432907
1714 1989 336.6330589764557
1714 1992 1031.2490746300311
1714 2010 956.2041438570807
1714 2037 1254.0839327985227
1714 2199 1815.494357067746
1715 1731 466.41100632925117
1715 1747 641.1331927176324
1715 1827 552.6246608127972
1715 1833 1207.2712901728917
1715 1843 841.2958110662867
1715 1845 1042.2032237540216
1715 1870 703.4159443890065
1715 1877 2306.9722266425956
1715 1893 1832.542589739888
1715 1905 837.206394275266
1715 1947 318.61563706792793
1716 1793 651.3883173391855
1717 1845 972.0822083003068
1717 1893 720.8799370904088
1717 1905 1766.6617801653922
1717 2832 1874.072056114749
1718 1731 1606.6051293645462
1718 1737 349.0847727565197
1718 1739 902.2074742251763
1718 1740 740.031375215647
1718 1743 386.1239506213814
1718 1747 2684.398892962927
1718 1770 399.27005765319916
1718 1785 512.2425662477023
1718 1789 476.0458880133558
1718 1795 304.9756289037397
1718 1799 878.3373154519694
1718 1802 1158.02798293446
1718 1810 378.7331846986721
1718 1868 942.5203898018474
1718 1876 471.02824693358497
1718 1881 519.1956598526313
1718 1890 382.9567960831083
1718 1895 701.3448283233178
1718 1897 291.37265931501736
1718 1997 932.0606506378274
1718 2923 528.4276692654282
1719 1731 646.9777281752323
1719 1747 787.6493419142322
1719 1845 954.7408058732632
1719 1893 1464.8724784272908
1719 1908 107.80046013426175
1720 1737 204.45994588930523
1720 1793 474.9989283547344
1721 1747 4326.719057024144
1721 1830 263.06703034094556
1721 1843 3834.1212681055804
1721 1845 5351.476512674778
1721 1861 151.01541308223858
1722 1724 599.5589869374464
1722 1725 750.5999123172497
1722 1729 854.0465227978704
1722 1776 1048.3039870816422
1722 1782 1024.675055555473
1722 1793 1683.397810270452
1722 1802 508.99209446362397
1722 1811 906.8954959457344
1722 1846 762.6559469867619
1722 1852 1306.8130442274426
1722 1877 1212.2524545305348
1722 1886 643.6124189418822
1722 1904 251.4632555618123
1722 1909 856.9570906009376
1722 2015 982.0663197186228
1722 2155 574.2019245895306
1722 2198 834.4165089438492
1722 2422 614.8236547991405
1722 2425 734.681998731709
1723 1753 306.0229746263351
1723 1772 338.41527659875845
1723 2147 48.819765182187226
1723 2152 49.78412204708381
1723 2417 88.28921896194869
1724 1729 1450.4858874048628
1724 1731 2972.068900663169
1724 1734 770.4119339949567
1724 1737 1941.633650908096
1724 1741 657.0558987631523
1724 1742 1313.4368747847666
1724 1743 1958.8382854286874
1724 1744 328.62521163015316
1724 1746 1483.6040352660175
1724 1747 3738.1479442218956
1724 1748 840.2067291566456
1724 1749 1383.247204913299
1724 1752 802.1077179401758
1724 1753 375.7311055585932
1724 1764 229.7109786227648
1724 1766 837.1513178778226
1724 1771 477.4245430693077
1724 1773 365.09413763159097
1724 1774 628.0482338089022
1724 1779 573.8880535641957
1724 1782 651.2508272620186
1724 1783 1311.8747036410225
1724 1787 753.0305821560447
1724 1789 1425.834024431739
1724 1793 1914.944492812406
1724 1795 2114.3693252900944
1724 1798 701.5809807465464
1724 1799 1154.3820742895978
1724 1802 880.0945486243228
1724 1806 902.4851663295093
1724 1811 344.7817123969113
1724 1812 1153.0655843487934
1724 1819 703.0772186880433
1724 1820 1021.6411521696878
1724 1824 1018.8630891979305
1724 1827 3773.2316401373373
1724 1828 1382.747217931824
1724 1831 1440.8661835036185
1724 1833 3654.803130275829
1724 1841 479.9914724439595
1724 1845 2369.193860384433
1724 1846 191.6053073962213
1724 1849 518.6193373697723
1724 1859 1438.2661189729592
1724 1862 342.21867699652194
1724 1865 715.0302299886355
1724 1868 1050.592270418082
1724 1872 476.36820393172616
1724 1874 503.65089910970556
1724 1877 982.6203520192857
1724 1883 515.2555458109746
1724 1892 399.62980089753927
1724 1893 1494.8481218411202
1724 1895 1559.353554325986
1724 1896 774.4802348688814
1724 1898 511.6530280654507
1724 1902 1270.8433718067963
1724 1904 532.637414749799
1724 1905 3353.5809573129213
1724 1906 1224.1285848228292
1724 1986 399.0395646793567
1724 1989 653.625207471365
1724 1992 760.2549584513966
1724 1995 665.1212420391429
1724 2010 636.9204440441638
1724 2036 1372.864956829537
1724 2067 440.2646691970574
1724 2068 985.3239803727855
1724 2155 399.33336295417195
1724 2218 450.2344443362525
1724 2418 459.4692190726512
1724 3110 807.7489173816705
1725 1729 1576.1075698830314
1725 1737 2162.885650842188
1725 1782 798.861870237397
1725 1783 1472.0999703662146
1725 1859 1583.6703841814995
1725 1877 1156.3416668108316
1725 1906 1373.4746240283898
1726 1845 175.52369986898358
1728 1853 406.01756994628005
1728 2981 135.66845930590395
1728 2983 91.48839721691037
1729 1737 1551.5369718909603
1729 1743 1537.8300923685147
1729 1744 1603.328070355124
1729 1747 4367.613796755584
1729 1752 1620.8586504888
1729 1753 1769.6362017511015
1729 1761 1298.943027762323
1729 1773 1097.9701547610873
1729 1776 1897.3341999218737
1729 1779 1916.170955109614
1729 1782 1818.2998681142674
1729 1783 316.7997877968276
1729 1790 1803.381681729247
1729 1793 1798.9264400651753
1729 1795 1775.6760640999219
1729 1798 1142.8544480084036
1729 1799 1702.2565031734705
1729 1802 936.4426543712405
1729 1806 1277.9493126079
1729 1811 1734.5731557518973
1729 1820 514.0969844523132
1729 1822 1453.2551300644373
1729 1824 2003.7850427516312
1729 1842 1880.6904458979716
1729 1845 2739.036828273044
1729 1846 1600.629674186181
1729 1849 1569.1147985194386
1729 1852 2150.9907977460193
1729 1862 1723.291659499724
1729 1872 1880.0593065228709
1729 1874 1891.8927372471267
1729 1877 1905.3959954367676
1729 1886 1492.712403266651
1729 1892 1761.4471805292153
1729 1893 2396.0194112655886
1729 1895 1082.8305225698202
1729 1898 1942.1136729292073
1729 1903 233.49817732825343
1729 1904 1019.2752699267
1729 1905 3492.10536125925
1729 1906 285.9017909626268
1729 1985 1065.807888830582
1729 1995 1394.446434643996
1729 2010 1000.7847497730035
1729 2425 1580.852642457781
1729 2817 1952.7099056373575
1730 1893 409.89761504258104
1730 2919 247.30326397953954
1731 1737 1922.351613210498
1731 1747 1106.7160299460668
1731 1750 947.568184505029
1731 1752 2175.077441025061
1731 1770 1749.192148857037
1731 1773 2927.9239818035394
1731 1778 968.7445603878698
1731 1779 3360.035375908229
1731 1781 923.2630856947679
1731 1782 2377.8948217413003
1731 1793 1589.4665617701637
1731 1795 1746.6066792872064
1731 1799 1855.8975505080596
1731 1802 2553.607715159081
1731 1804 805.1964691183939
1731 1806 2254.6603803747425
1731 1827 1011.7541796265738
1731 1830 4813.151281786281
1731 1833 1008.3482404287695
1731 1835 897.8491138031012
1731 1842 2020.465332211375
1731 1843 938.9303867470925
1731 1845 627.5906910226412
1731 1846 3092.818834412911
1731 1853 3412.9584144728124
1731 1862 3193.606355726635
1731 1866 677.2481081284416
1731 1870 853.725413637435
1731 1871 659.3739861671695
1731 1873 356.60830559878264
1731 1877 2006.1575958782694
1731 1880 870.9746644864897
1731 1886 2993.4965148140673
1731 1890 1487.7159635174921
1731 1893 1591.5355523900691
1731 1895 2296.2405309998244
1731 1897 1391.5942526314388
1731 1900 946.7800657469709
1731 1901 513.8078989667619
1731 1904 2773.597845505612
1731 1905 591.9394142377927
1731 1906 3103.287668893951
1731 1908 745.8631741800289
1731 1947 741.553870668328
1731 1989 3333.3899368416432
1731 1997 793.5939938318221
1731 1998 558.759315071076
1731 1999 623.3647564757209
1731 2000 576.0042277923153
1731 2005 329.6605870913969
1731 2034 347.580076174572
1731 2035 437.7419091622144
1731 2048 816.3704209167191
1731 2058 992.4316851158793
1731 2059 303.23692975338855
1731 2060 922.5077717145867
1731 2061 844.0222830520447
1731 2077 855.5700429378495
1731 2129 702.067513990273
1731 2146 280.98928125373226
1731 2159 1390.516335566017
1731 2160 659.0443258839931
1731 2189 480.0721110074131
1731 2416 321.00852904450255
1731 2436 241.37765043985914
1731 2441 259.6777450142821
1731 2624 837.3332099824457
1731 2946 295.30438751859367
1731 2947 211.86587324228316
1732 1768 1469.8967445205794
1732 1782 595.0700542894183
1732 1802 997.1350393354795
1732 1822 151.03107845449816
1732 1845 2366.8232048833315
1732 1846 134.44891394404638
1732 1877 953.8849974143903
1732 1904 664.4781975324724
1732 1906 1372.5713947555817
1732 2105 1333.4697170040304
1733 1845 679.2854701832496
1733 1877 748.5791120613426
1733 1893 532.8104714745782
1734 1782 119.16652262830453
1734 1802 1016.6403286018262
1734 1877 286.6249855808766
1734 1893 730.5962161304356
1734 2105 1585.5414804926081
1736 1898 257.2375044989783
1737 1738 2293.805541463587
1737 1739 1071.8917292532137
1737 1740 475.2398512375128
1737 1741 1410.4149774316586
1737 1742 785.1838103762944
1737 1744 1797.488343871723
1737 1746 1549.4076883063256
1737 1747 3013.40930387953
1737 1749 563.8370866976738
1737 1752 1359.5247484756783
1737 1761 1859.9661794002675
1737 1762 309.40198315815064
1737 1764 1930.4807070937084
1737 1766 1366.7236571303781
1737 1770 306.10647823222826
1737 1773 1675.29486540026
1737 1778 1503.4536859316665
1737 1782 1730.8750771228833
1737 1783 1265.0269268463435
1737 1785 689.2762786261417
1737 1789 603.3200608223614
1737 1793 361.621114036232
1737 1795 225.2375804384961
1737 1798 1240.5249047471455
1737 1799 1075.6082837024712
1737 1802 1107.5641045626016
1737 1803 1678.9012606740323
1737 1806 1056.526373529869
1737 1807 484.644573102587
1737 1811 2277.134346475145
1737 1820 1312.0462494720446
1737 1822 1913.3800847813154
1737 1823 118.95663836732864
1737 1824 1586.073013398484
1737 1827 2933.72821874514
1737 1828 1535.3061229759674
1737 1830 6272.492601916218
1737 1831 1293.079397654869
1737 1833 2093.1524206980175
1737 1834 421.3306587801015
1737 1835 2142.264638410815
1737 1837 497.4658076221399
1737 1840 323.7597010538753
1737 1843 2583.223939547794
1737 1844 805.8360006676066
1737 1845 1387.496146875281
1737 1846 2129.486450569389
1737 1849 1586.251965658403
1737 1854 266.9448573010401
1737 1856 685.6400991283627
1737 1859 1383.7536311138585
1737 1865 1485.8300644525436
1737 1868 903.6501175287432
1737 1870 2585.9413560857784
1737 1871 1302.161835988886
1737 1875 509.9804609953375
1737 1876 736.197475115644
1737 1877 1490.6539416977666
1737 1880 2039.2239684720535
1737 1881 832.8542243091542
1737 1884 407.17735029745944
1737 1885 263.56280599771
1737 1886 1985.792206057547
1737 1888 305.9346960867498
1737 1890 692.8363680258699
1737 1893 1666.9139627566467
1737 1895 489.5353838522793
1737 1897 637.4443963377614
1737 1900 2162.812570041211
1737 1902 848.55114984333
1737 1904 1466.898731067306
1737 1905 1962.7919180992785
1737 1906 1372.0023007112882
1737 1934 11345.858927588979
1737 1974 8173.324247131713
1737 1992 1268.150019099666
1737 1995 1332.707468189184
1737 1997 1195.6911144388357
1737 2007 9532.453684825405
1737 2010 1345.6460559256047
1737 2012 604.4699048757286
1737 2034 1575.1279347178022
1737 2068 956.364280777979
1737 2155 1568.5358274929713
1737 2199 706.8313831337157
1737 2450 197.91453907421604
1737 3178 12932.555720147138
1738 1845 1356.7726989717323
1739 1743 1087.2523856007895
1739 1770 797.229614886425
1739 1793 885.3737559176196
1739 1795 848.8737126397048
1739 1802 2059.557267894855
1739 1845 908.6582731233005
1739 1846 2929.306847510983
1739 1877 1987.564453722737
1739 1905 937.9245233953172
1740 1743 445.8502829959083
1740 1770 376.1544170703236
1740 1785 773.7151784310897
1740 1795 441.0022558668643
1740 1876 918.8896696556212
1741 1782 940.4329106861799
1741 1793 1480.4725644120829
1741 1802 307.5889828174565
1741 1811 993.4379405287661
1741 1822 645.7746344076545
1741 1846 841.2445262344862
1741 1877 1072.985050326794
1741 1904 142.7126300279293
1742 1743 784.0518918859784
1742 1746 852.9306098158573
1742 1783 530.0714571943264
1742 1793 969.8717598276231
1742 1802 437.3386320662604
1742 1806 630.1451955206006
1742 1877 1280.9284136629135
1742 1904 785.8367335374764
1742 1906 612.6985575339086
1743 1744 1819.9142577570772
1743 1749 577.7293607752634
1743 1752 1387.2649992960983
1743 1770 308.77986373601783
1743 1773 1687.6336713112346
1743 1779 2526.2860791781254
1743 1783 1254.9610096322588
1743 1785 708.7140853080688
1743 1789 634.1043507906811
1743 1793 398.3038746158078
1743 1795 238.37951834707485
1743 1799 1107.880248050146
1743 1802 1118.1823889791472
1743 1806 1078.016534492143
1743 1811 2295.5881546559795
1743 1820 1310.4678924081913
1743 1833 2108.425051449023
1743 1840 300.720290598064
1743 1842 1509.806695718219
1743 1845 1421.884236982447
1743 1862 2296.0950163017283
1743 1865 1491.2291228800973
1743 1868 916.9254244386365
1743 1886 2003.322821275309
1743 1890 730.8711153716192
1743 1892 2355.2253092570886
1743 1895 485.88216208843215
1743 1897 675.1074240378427
1743 1900 2179.7352779284934
1743 1904 1479.132240745165
1743 1905 1984.6606504268793
1743 1906 1364.0019133611652
1743 1997 1220.6126384334802
1743 2010 1358.0753928301858
1743 2923 789.7992050814657
1743 3074 916.3776714178592
1744 1746 1634.3875122432344
1744 1773 528.3442136795701
1744 1782 323.16663791006897
1744 1783 1407.540106218784
1744 1793 1715.7106909738218
1744 1799 889.0805911560936
1744 1802 847.9795241587367
1744 1806 742.6270315426276
1744 1811 537.5278505922979
1744 1822 293.24943386766887
1744 1842 645.714425925714
1744 1845 2070.9578171324665
1744 1846 429.56896989927833
1744 1859 1558.0919817043657
1744 1862 545.3003886861563
1744 1874 651.4384679154899
1744 1877 662.2332334598735
1744 1886 337.69081600754225
1744 1893 1166.7435731016417
1744 1904 590.1289403798029
1744 1905 3066.56418579806
1744 1906 1344.837623060082
1745 1769 327.40292612981256
1745 1853 1162.7867751638269
1745 1878 807.2821621958237
1745 2835 94.18473040977985
1745 2954 242.55286084364215
1745 3011 137.45032246726743
1746 1747 4379.468034245186
1746 1752 1645.8572387728611
1746 1761 1332.1102101685767
1746 1764 1293.6778147647126
1746 1773 1130.4332594854004
1746 1782 1847.083048005308
1746 1783 329.1517429688691
1746 1793 1802.1711736990885
1746 1799 1721.7004682396855
1746 1802 959.065884984079
1746 1806 1299.4241582388108
1746 1811 1768.379769474877
1746 1812 648.3959638575344
1746 1820 540.3544521217245
1746 1822 1486.1650056783465
1746 1833 3642.5562025359695
1746 1845 2748.6957589276144
1746 1846 1634.2426699170155
1746 1849 1597.8528557267507
1746 1862 1757.1239431765132
1746 1865 790.4566304205391
1746 1868 1065.3506462886205
1746 1874 1925.772735662553
1746 1877 1930.0430094744718
1746 1886 1525.9452576318508
1746 1890 1879.5306075863598
1746 1893 2418.078444550887
1746 1895 1084.5944670213576
1746 1903 201.9270609905264
1746 1904 1049.4017345971718
1746 1905 3494.158712262554
1746 1906 309.9735577831556
1746 1974 7118.924680097314
1746 1986 1146.3135090841135
1746 1990 153.70194218514328
1746 1992 1468.6259887383667
1746 2037 1681.46955631809
1746 2105 344.7862228343736
1746 2165 3173.586129398022
1747 1750 1555.1878068800108
1747 1759 4345.038689777147
1747 1770 2854.232758684094
1747 1778 1957.4906478832377
1747 1781 1509.6377296237033
1747 1782 3093.0118267129596
1747 1783 4050.9736703164294
1747 1793 2668.156672024137
1747 1795 2847.3769225436386
1747 1799 2744.3487730007387
1747 1802 3504.9818990215454
1747 1804 1205.6635397556277
1747 1822 3701.633066456815
1747 1824 2719.2935448569683
1747 1827 208.03452701404663
1747 1830 4307.916246298365
1747 1833 1692.2497169720782
1747 1835 1540.3695111523386
1747 1842 2782.173703821883
1747 1843 1121.9883327638918
1747 1845 1645.0681034191066
1747 1846 3817.659163875493
1747 1853 2325.643658287258
1747 1855 150.38753731157496
1747 1862 3886.6432729395888
1747 1866 907.3184334243659
1747 1867 1092.7718066695272
1747 1870 975.0906631141717
1747 1871 1715.80669889366
1747 1877 2761.7554390435184
1747 1878 2461.5792810395255
1747 1880 1590.3929279405668
1747 1886 3748.14211304852
1747 1893 2244.8115555557856
1747 1900 1576.1020280943187
1747 1904 3660.410685299906
1747 1905 1395.1111327578428
1747 1906 4104.692265148787
1747 1908 821.556520735562
1747 1934 8373.354525902474
1747 1946 401.2047918960536
1747 1947 419.4082662496194
1747 1951 1462.6397720524299
1747 1997 1897.3238996781815
1747 1998 871.3283351867696
1747 1999 1065.4337122178863
1747 2058 376.2222069703093
1747 2060 566.0336451028608
1747 2061 366.41005148380424
1747 2077 607.8680928213007
1747 2129 623.5996663503055
1747 2400 341.1874417878743
1747 2453 165.8304144861012
1747 2624 275.97082732241444
1747 2907 158.2287513675115
1747 2929 994.9232552987744
1748 1768 827.342508240807
1748 1782 814.0251492664801
1748 1793 1116.2360893410055
1748 1802 171.04925710194996
1748 1877 806.916407449407
1748 1904 387.9755258601594
1748 2105 789.9555461198373
1749 1793 655.277363646161
1749 1802 546.9883462231824
1749 1842 1073.4175069193834
1749 1877 1091.9454974430075
1749 1904 903.3948467697206
1749 1906 944.8798271774322
1750 1795 1969.3434613357665
1750 1822 3656.8936324721035
1750 1827 1362.4364668848632
1750 1862 3958.334540723822
1750 1870 623.7764431551091
1750 1905 371.50975723379287
1751 1846 208.1909978649023
1752 1773 785.2761288086372
1752 1782 371.37154953563413
1752 1783 1350.6724370838795
1752 1793 1223.9907300179013
1752 1802 696.2662632954172
1752 1811 1059.9142706658818
1752 1822 764.7239913412897
1752 1845 1567.6193581778655
1752 1846 943.9054954721377
1752 1859 1524.8098436768294
1752 1862 1067.3048864884022
1752 1877 285.5955833971319
1752 1886 828.357443725544
1752 1893 808.3696355552597
1752 1904 688.0614526099046
1752 1905 2552.8634613983204
1752 1906 1335.8924829661908
1753 1782 811.166211610485
1753 1783 1662.992790015757
1753 1802 1255.4488487639644
1753 1828 1703.3719198847787
1753 1846 185.70089815418496
1753 1859 1776.6084378815162
1753 1877 1184.8978597861108
1753 1904 907.0754327740535
1753 1906 1565.888846444317
1753 2147 261.1959543890256
1753 2152 293.71272874513176
1753 2417 239.30405490074747
1753 2427 307.03101387585895
1754 1799 325.27555570678595
1756 1997 370.68403305358817
1757 1877 638.9199950359746
1757 1893 232.03461502012541
1757 1905 2243.759969012748
1757 2832 2226.195248873056
1758 1853 639.4674032275633
1758 2546 116.28673339922427
1758 2550 218.79249535181737
1758 2837 245.48477903281147
1758 2841 246.33383238901573
1758 2922 151.39016228301224
1758 2950 263.05637382233834
1758 2955 63.95220328051129
1758 2956 38.64171647244127
1758 2957 21.415182601829542
1758 2958 124.3190915625299
1758 2959 121.00742264827878
1758 2960 114.49542103455387
1758 3001 152.99944701336187
1758 3005 113.9422996576905
1758 3008 231.76923275404275
1758 3009 107.61278931135885
1758 3089 159.87393565546145
1758 3090 178.9723575221363
1758 3153 12.561491488637765
1758 3154 9.151549861589805
1759 1830 163.3724826120823
1759 1833 4300.497639742492
1759 1843 3964.5636707151943
1759 1845 5486.727011707339
1760 1999 317.78992273447074
1761 1782 733.9230461450057
1761 1793 1859.4655803828123
1761 1802 773.1810325753415
1761 1811 469.75394780712656
1761 1822 160.4840512223616
1761 1846 319.04378431236853
1761 1862 463.5061220488016
1761 1877 1031.6460806009907
1761 1893 1558.9251405647753
1761 1904 412.47438250530405
1761 1906 1075.3075025436756
1762 1793 304.81132452025156
1762 1802 885.5746171694119
1762 1845 1274.3213449443351
1762 1905 1996.752445771278
1763 1853 256.271949596382
1763 2899 341.51723360300457
1764 1782 851.2548912456243
1764 1793 1947.3594113600725
1764 1802 829.7080953009746
1764 1811 476.4649155012718
1764 1822 253.10821293158764
1764 1842 1131.1361942814617
1764 1845 2493.00568394845
1764 1846 341.46751884305894
1764 1862 466.35213749812016
1764 1877 1151.6799755079787
1764 1886 256.8906789892115
1764 1893 1678.9035280279259
1764 1904 465.3685574539665
1764 1906 1055.309042459456
1765 1793 435.0107575330877
1766 1782 1137.352078826142
1766 1793 1485.9709984280503
1766 1802 344.8013527964841
1766 1811 1162.939544471636
1766 1822 830.1357659890464
1766 1846 1013.8436012571788
1766 1862 1155.4731108946512
1766 1877 1245.452566077313
1766 1904 344.0278664121671
1767 1808 294.1365642165997
1767 1853 864.5363585518161
1767 2836 315.8897254020154
1767 2843 195.4785261441651
1767 2844 261.7311754393795
1767 2951 235.2374835321597
1767 2990 103.0070901502633
1767 2991 151.95320239195192
1767 2992 116.64564809312272
1767 2993 91.31007721086998
1767 2994 175.11524573792897
1767 2995 98.88903990103267
1767 2996 209.13712019589389
1767 2998 203.0630364045915
1767 2999 164.79961593389638
1768 1776 1722.9405809316524
1768 1790 1700.858959967834
1768 1796 1323.806391641245
1768 1798 887.1245627832848
1768 1803 1684.0971393019704
1768 1831 1813.4338224495132
1768 1841 1790.657099522377
1768 1852 2033.4101745642204
1768 1909 1495.7262616873768
1768 1948 1668.9640854602553
1768 1985 836.9671428127708
1768 1986 946.499123250097
1768 1987 2148.729178517021
1768 1994 1077.15431159328
1768 1995 1140.045116076815
1768 2006 1690.8824709860614
1768 2010 778.0213192047811
1768 2014 1524.1717986750377
1768 2015 1471.023914873553
1768 2017 1755.8648423174225
1768 2020 1556.0361076867018
1768 2038 1664.7739286685962
1768 2071 952.7488653443751
1768 2159 2445.986981915006
1768 2192 1441.238739750334
1768 2198 1564.0176982633998
1768 2202 1569.2872672883132
1768 2422 1162.773285630323
1769 1853 1005.3802113613395
1769 1878 598.7383115965833
1769 2954 95.70655626509492
1770 1782 1954.3502910622171
1770 1783 1561.9368933865633
1770 1793 397.96267402016485
1770 1799 1265.8832955775918
1770 1802 1404.70033183777
1770 1806 1321.6264443962036
1770 1822 2189.3042319235146
1770 1833 1814.3784453430967
1770 1842 1668.4153422284908
1770 1845 1279.9411199487972
1770 1846 2404.2486328670993
1770 1862 2550.8565155112606
1770 1877 1677.4266002813451
1770 1886 2261.9679876145137
1770 1893 1767.7912379362367
1770 1904 1759.8797397304527
1770 1905 1717.4657853822673
1770 1906 1672.2347628497805
1771 1782 475.21049300927825
1771 1783 1739.5168346905323
1771 1802 1206.6724034648864
1771 1811 408.03209547965486
1771 1822 464.52768987138313
1771 1842 839.6354725648011
1771 1846 413.91048269411135
1771 1862 424.0561936009055
1771 1877 847.1974035075732
1771 1886 446.47493180686956
1771 1893 1257.0879196995631
1771 1904 922.8962666655125
1771 1906 1665.5645953879307
1773 1782 806.940953532232
1773 1783 946.8836178427687
1773 1793 1704.521257710565
1773 1799 1072.0286516076098
1773 1802 572.2491834850953
1773 1806 710.1632503654788
1773 1811 693.0091101650962
1773 1822 360.7243132115351
1773 1842 1016.1608900079359
1773 1845 2306.4709094694617
1773 1846 542.2512982818035
1773 1849 582.4940864593636
1773 1862 686.5039894562368
1773 1874 855.7828508831878
1773 1877 1039.2160048681703
1773 1886 411.54011479422815
1773 1893 1576.1589097331257
1773 1904 208.51220629970354
1773 1905 3252.8228920638844
1773 1906 861.4475434686634
1774 1782 266.9217939189418
1774 1783 1335.2265163758666
1774 1793 1384.486285034543
1774 1802 696.9624212543725
1774 1811 881.7975652482263
1774 1822 590.4903272375544
1774 1845 1741.4203750301253
1774 1846 765.7223212263192
1774 1877 386.1029897673671
1774 1886 652.3530192078224
1774 1893 922.7369590651336
1774 1904 595.8603842592707
1774 1906 1303.3187534307215
1775 1853 95.07612466660915
1776 2105 1606.5091871763605
1776 2935 1820.8027072510836
1777 1802 817.2215509212859
1777 1845 2460.8013660780707
1777 1846 323.55469143941116
1777 1904 452.73666045850894
1777 2105 1028.6440878591552
1778 1793 1305.6826531172899
1778 1802 2474.9605225106347
1778 1827 1802.2082123099244
1778 1833 590.4426740289915
1778 1842 2313.812783388109
1778 1843 1160.0348066918357
1778 1845 1028.8138010193345
1778 1877 2309.491598022778
1778 1893 2087.277642622731
1778 1905 586.9109714883986
1779 1782 987.131716235924
1779 1783 1831.6815288584867
1779 1802 1453.424251268635
1779 1806 1456.9232798237856
1779 1822 597.9317749105858
1779 1833 4122.785193742975
1779 1842 1352.6425745604556
1779 1846 382.34022224899724
1779 1859 1935.6258506638542
1779 1877 1363.4249173826222
1779 1886 527.120093194043
1779 1904 1099.9345870318268
1779 1905 3794.4499449375508
1779 1906 1728.6230010790082
1780 1846 171.86068848706336
1780 1904 595.6251607672629
1781 1805 299.1601196084332
1781 1827 1316.3999350500917
1781 1843 476.7016359409378
1781 1845 1366.1479751189586
1781 1862 3958.4176715681433
1781 1870 577.2682069902964
1781 1905 358.723689705561
1782 1783 1584.8083344290103
1782 1786 461.4151471796532
1782 1789 1133.9477777768448
1782 1790 769.6029149070747
1782 1793 1586.4210129500573
1782 1795 1848.5278814639582
1782 1797 561.5859345802382
1782 1798 713.9459342571641
1782 1799 707.1017606940786
1782 1802 958.1989148783763
1782 1803 192.62541381055098
1782 1806 734.9611387916545
1782 1811 805.1359489051896
1782 1819 861.6036690030174
1782 1820 1311.4478309520587
1782 1822 616.2912567454034
1782 1824 380.79831777453734
1782 1827 3134.94983804356
1782 1828 1752.0399099890733
1782 1831 856.4254891149446
1782 1833 3142.1860685468087
1782 1841 600.7576609060749
1782 1842 366.54847807204766
1782 1845 1802.2992508821644
1782 1846 728.0532409541006
1782 1849 249.24650255591786
1782 1859 1749.1837911005089
1782 1862 816.7240552703242
1782 1865 1075.789361383177
1782 1868 1006.7618059955978
1782 1872 386.89960105551796
1782 1874 880.623123265611
1782 1877 376.3891522682665
1782 1886 656.7387565405178
1782 1890 1268.3023764128855
1782 1893 848.2461776778595
1782 1894 708.6795869901978
1782 1895 1492.27394743072
1782 1896 1072.7512853052622
1782 1897 1445.9709707090174
1782 1898 785.150446237985
1782 1904 805.6972526167007
1782 1905 2808.02352251744
1782 1906 1543.649351807924
1782 1934 10654.457389542338
1782 1944 10520.826778101125
1782 1948 532.3044397670692
1782 1949 567.2916239020852
1782 1985 756.7419484796594
1782 1986 740.8016044996718
1782 1989 978.3523141142683
1782 1992 492.44876283223493
1782 1994 615.1997941837504
1782 1995 476.378209932344
1782 1996 584.4759503313912
1782 2001 333.76849341131293
1782 2010 819.5168215095667
1782 2011 502.7216130874828
1782 2013 181.05979513313767
1782 2015 205.61118940471638
1782 2017 690.7623600153354
1782 2019 583.4642740077051
1782 2020 555.6590853915093
1782 2021 476.1756238927933
1782 2038 598.6154615026578
1782 2067 214.60563121657958
1782 2068 893.2945463994857
1782 2078 158.30857052018442
1782 2079 607.1013709607824
1782 2151 262.5053410441814
1782 2155 452.23161824663833
1782 2156 639.9108421181129
1782 2174 482.5238290545709
1782 2198 681.7981980008944
1782 2199 1149.3724636268716
1782 2202 251.37485832627846
1782 2401 319.08597417519167
1782 2410 457.8014815597439
1782 2438 390.9290056702081
1782 2898 491.77033778515187
1783 1793 1492.6953429413873
1783 1795 1490.2579704193406
1783 1799 1400.3193429597216
1783 1802 654.9526612461068
1783 1803 1679.0721879751823
1783 1806 986.4589663552791
1783 1811 1628.2917347789514
1783 1812 321.8351450840017
1783 1820 291.8162902063495
1783 1822 1306.8690701409516
1783 1824 1733.2034317321602
1783 1827 4013.171647598211
1783 1828 280.4020444136359
1783 1842 1606.907144517846
1783 1845 2422.519590895896
1783 1846 1482.7392137201668
1783 1849 1337.248403172132
1783 1862 1619.5265924381881
1783 1865 597.2523194352361
1783 1868 740.4749556461313
1783 1872 1698.7671543212557
1783 1874 1790.5397613578712
1783 1877 1631.25689962464
1783 1886 1357.9069113280568
1783 1892 1665.3001818864882
1783 1893 2104.7701134359613
1783 1894 1448.9186393138455
1783 1895 783.9640067224639
1783 1898 1821.015202603808
1783 1903 387.96257599207655
1783 1904 818.8147161574241
1783 1905 3187.455838807547
1783 1989 1939.3005974436262
1783 1992 1172.4440415250806
1783 2050 1670.3514573486627
1783 2067 1442.3689049611562
1784 1893 280.0559172725006
1785 1793 496.1383223993798
1785 1845 908.153404480281
1785 1905 1277.916316819991
1786 1802 1247.5356953093076
1786 1877 279.3045060508777
1786 1893 404.9322329555729
1787 1802 230.33884031343084
1787 1904 225.4999892171926
1788 1845 928.3634961983332
1788 1893 876.3910044658985
1789 1793 489.1107915289914
1789 1799 476.45978314751153
1789 1802 727.1612895599242
1789 1811 1743.621161320977
1789 1842 876.1084226654056
1789 1845 1238.6749704665526
1789 1877 889.4118720397342
1789 1886 1465.7162905589275
1789 1904 1028.7684726841599
1789 1905 2078.61464598152
1789 2105 1230.4992737241398
1790 1846 205.22362954134778
1790 1906 1593.6720551703404
1791 1853 188.43184194551097
1792 1799 190.91765091860387
1793 1795 306.3886888958744
1793 1798 1239.4013151562453
1793 1799 885.3794599027884
1793 1800 181.49509607437952
1793 1802 1174.5334459361275
1793 1803 1498.3482634030327
1793 1804 2109.099433070285
1793 1806 1014.1497133531931
1793 1807 639.0939792983429
1793 1811 2231.3626975741695
1793 1812 1231.9222422612474
1793 1813 144.08296164829594
1793 1817 367.83435731061456
1793 1820 1475.2438376219254
1793 1821 1083.5052608309127
1793 1822 1882.4805310067893
1793 1823 264.4580374546137
1793 1824 1373.5767300772256
1793 1825 253.3326619362378
1793 1826 788.4230011202245
1793 1827 2597.054511035629
1793 1828 1772.1218349053104
1793 1830 6080.928826378199
1793 1831 1005.6030201112867
1793 1833 1880.4338500054769
1793 1834 469.7861541241448
1793 1835 1908.3447408621555
1793 1836 699.2788228390125
1793 1837 778.159421673173
1793 1840 571.759084039761
1793 1843 2310.2179815559157
1793 1845 1032.0994314717093
1793 1846 2092.879548401709
1793 1849 1488.693621752695
1793 1851 290.2558483402376
1793 1854 216.6849728335835
1793 1856 866.3365840902305
1793 1857 884.6890277919273
1793 1859 1634.272156919598
1793 1862 2234.899219019468
1793 1865 1585.2285688784095
1793 1866 2160.506009204735
1793 1868 959.0509772490295
1793 1870 2298.4490911554512
1793 1871 952.5676743467329
1793 1874 2363.1878091611034
1793 1875 756.2942789632048
1793 1876 452.8599349177596
1793 1877 1290.6470876758801
1793 1880 1808.3710442319725
1793 1881 501.52550894438497
1793 1884 615.7442495077714
1793 1885 164.6302600037129
1793 1886 1954.7712505267884
1793 1888 457.26417927147884
1793 1890 381.9187298172489
1793 1893 1372.5798108035008
1793 1895 719.4409790010563
1793 1897 282.3634191155497
1793 1900 1934.8613055750634
1793 1902 1029.7090137298644
1793 1904 1503.2090042743919
1793 1905 1694.8022639285866
1793 1906 1582.4179175485758
1793 1934 10986.717285212691
1793 1974 8533.660223196564
1793 1986 1604.739234489839
1793 1987 1188.4207041188338
1793 1992 1177.7998503935987
1793 1995 1261.1215757281811
1793 1996 1032.4386622529555
1793 1997 913.8139395119249
1793 2010 1384.3685896106806
1793 2011 1110.238878031506
1793 2012 803.1214219077613
1793 2015 1381.689272946632
1793 2017 1104.0871803031998
1793 2020 1082.5331413655513
1793 2023 1114.3751566991145
1793 2024 695.1070384889492
1793 2034 1242.2541931585017
1793 2038 1112.2921708964045
1793 2048 1344.8844065403132
1793 2068 967.7410341268144
1793 2070 998.8834660102119
1793 2144 225.32116733995295
1793 2155 1520.2833406151958
1793 2159 1559.5019592243887
1793 2185 1014.5991813451731
1793 2192 586.5193252975902
1793 2197 526.5689469179091
1793 2199 451.82000406148586
1793 2420 904.4795886750397
1794 1802 713.2840377513427
1794 1904 791.2313077462454
1795 1802 1305.993091890565
1795 1806 1215.9781378585221
1795 1822 2084.366377232475
1795 1833 1870.0543740537717
1795 1842 1565.1663088519058
1795 1843 2371.4150321360107
1795 1845 1248.8245455425026
1795 1846 2299.100610444575
1795 1862 2445.4667360608296
1795 1870 2379.333527143368
1795 1876 549.8120020596751
1795 1877 1574.5660616742548
1795 1886 2157.0407436677074
1795 1893 1678.9030726218
1795 1895 713.2970169097214
1795 1904 1659.0342675114316
1795 1905 1751.1264053772275
1795 1906 1597.0125465367976
1796 2105 1236.8833783881785
1797 1877 488.16909448067065
1798 1802 245.00402606988544
1798 1811 1040.6618092958536
1798 1822 674.3923531813675
1798 1845 1866.3531393528615
1798 1846 890.8046236029863
1798 1877 764.5499639434411
1798 1893 1274.4936333292692
1798 1904 283.9953161425305
1798 2105 823.7660966744737
1798 2935 1006.6709344201333
1799 1802 779.0062616286543
1799 1803 614.1935790676898
1799 1806 437.41112072677856
1799 1811 1425.8469885200877
1799 1822 1117.67008085954
1799 1824 511.0471557976352
1799 1833 2501.1756676414266
1799 1842 404.1642969163333
1799 1845 1235.5107028819796
1799 1846 1306.0081974865818
1799 1849 657.4176285300467
1799 1859 1577.609927530761
1799 1862 1432.828396515557
1799 1877 415.41923518640203
1799 1886 1184.487989625438
1799 1890 563.3597041924048
1799 1893 721.6534870444287
1799 1895 973.599901308043
1799 1897 741.788709622557
1799 1904 924.3758495561657
1799 1905 2201.8684085654672
1799 1906 1419.9320316599333
1799 2016 177.0223761533586
1799 2407 235.25923387596512
1799 2409 183.301093093878
1799 2423 239.2818898417232
1799 2434 301.35764153733214
1799 2449 150.5141747642273
1799 2901 162.13603755269298
1799 3074 1022.450499192652
1801 1842 410.51051118461584
1801 1904 530.8311502766462
1801 3073 872.801733479479
1802 1803 1032.3049800166289
1802 1806 344.4335552586469
1802 1811 1224.8692474714467
1802 1812 360.3689502685931
1802 1819 1545.8904477483127
1802 1820 434.44634160441257
1802 1822 859.0323476237007
1802 1824 1078.3548342634579
1802 1827 3489.1660595240896
1802 1828 877.999463076204
1802 1830 7233.935140996056
1802 1831 1195.7734162059257
1802 1832 696.3178781903636
1802 1833 3037.6874251493896
1802 1834 719.8339641173184
1802 1838 274.7084497735828
1802 1841 1277.6362354250384
1802 1842 951.9618412981729
1802 1843 3397.6466988961097
1802 1845 1926.6204909363034
1802 1846 1071.5944332565916
1802 1848 127.56232601769396
1802 1849 720.4066003784171
1802 1854 1289.7915237547695
1802 1856 485.9352482428508
1802 1859 830.2636301212814
1802 1862 1222.095126946079
1802 1865 416.0635828212429
1802 1868 215.52327898620888
1802 1870 3359.749434839825
1802 1871 1902.5405613148819
1802 1872 1147.0642038736146
1802 1874 1382.321318370176
1802 1877 976.3291777270539
1802 1883 605.8856332428148
1802 1884 720.9302235972099
1802 1886 927.5320501290009
1802 1888 803.6423632390301
1802 1890 1082.2640850815521
1802 1893 1459.7201432672448
1802 1895 683.5728502204587
1802 1896 1651.7485875809882
1802 1897 1221.6468561477927
1802 1898 1372.1436749344593
1802 1900 3081.27854960557
1802 1902 402.4898920101792
1802 1903 1042.3440315235218
1802 1904 364.5675840312083
1802 1905 2804.831782764035
1802 1906 650.7372434667699
1802 1934 11487.14557530355
1802 1952 589.7135081970027
1802 1974 8075.981359536767
1802 1985 264.35809206807653
1802 1986 492.6072128332588
1802 1987 1535.4534180601759
1802 1989 1531.0699042540432
1802 1992 518.1198850701687
1802 1993 734.7566530446071
1802 1994 575.0025834978319
1802 1995 489.49815210805167
1802 1996 563.5679597335098
1802 1997 2038.3361123297252
1802 2010 246.59211987754585
1802 2011 858.2504370967852
1802 2012 565.9752763138254
1802 2013 961.1190355734551
1802 2015 819.1750844286274
1802 2017 1117.5040546446846
1802 2020 909.7147169304465
1802 2021 1232.4578918964326
1802 2036 716.7906064260261
1802 2037 1844.3684987782806
1802 2038 1020.0420630474605
1802 2050 1039.0130252837598
1802 2067 851.3035945171704
1802 2068 242.9639756212515
1802 2070 236.0135647753946
1802 2071 365.28467659706627
1802 2078 1100.822782140994
1802 2143 133.36393934511614
1802 2149 386.3736819992604
1802 2155 585.0677080671651
1802 2156 1149.0936444457097
1802 2159 1807.9652527981063
1802 2184 428.5232855134727
1802 2192 904.9743102778667
1802 2198 1113.7534753183547
1802 2199 946.5508752584714
1802 2202 912.7670940667625
1802 2218 640.3398130141587
1802 2397 234.66571534687117
1802 2406 383.5540495848355
1802 2418 531.2317038742907
1802 2432 317.5595474958893
1802 2435 519.4261394571224
1802 2448 406.54578194204595
1802 2451 335.3429191310592
1802 2920 593.6026355552146
1802 3074 386.7856919596717
1803 1811 992.322706702583
1803 1822 806.3398062248194
1803 1845 1629.0801812740071
1803 1877 219.7249118271093
1803 1886 848.7289993707686
1803 1893 655.6267620536219
1803 1905 2637.471816092025
1803 1906 1650.8085272315097
1803 2105 1614.484851062164
1803 2832 2508.6148809245333
1804 1827 1008.9221399418902
1804 1833 505.31931955239565
1804 1845 1354.7844831518262
1804 1905 415.7344822839787
1805 1833 151.01577612362976
1806 1811 1227.677882537142
1806 1815 209.88790894344373
1806 1820 778.8332308248722
1806 1822 871.0415307541298
1806 1833 2812.0782017530396
1806 1842 636.330023199501
1806 1845 1627.5864202722503
1806 1846 1084.3018907548148
1806 1849 543.3837704099097
1806 1862 1229.76294551899
1806 1865 705.8260318078512
1806 1877 659.4859816689382
1806 1886 943.6468770477553
1806 1893 1119.0703696493429
1806 1895 758.8329181026432
1806 1904 527.7913653638547
1806 1905 2548.865352876252
1806 1906 993.0008960734455
1806 2010 426.0788706931993
1806 2398 389.40193288206046
1806 3074 646.5295844289687
1807 1905 1756.8420058970746
1808 1853 879.9434991315776
1808 2840 126.72136500172243
1808 2845 77.4777798765971
1808 2868 90.93690182391603
1808 2968 237.25115543540346
1808 2984 207.48236383615875
1808 2985 119.32377543432888
1808 2986 94.74289101971881
1808 2987 248.70234831888138
1808 2988 69.4627322573407
1808 2989 119.00405922695145
1809 1822 167.55774871985025
1809 2106 43.63228188946868
1810 2421 142.1925596725511
1811 1819 415.0213989222802
1811 1820 1342.6101762693963
1811 1822 367.46436819385605
1811 1824 1184.6680846118884
1811 1828 1668.3002736976002
1811 1831 1655.4034574736727
1811 1841 318.53865054876024
1811 1842 1163.932876263433
1811 1845 2599.813238534171
1811 1846 153.59486032913563
1811 1849 768.4389341645667
1811 1859 1741.6045694732375
1811 1865 1033.1487604836318
1811 1868 1392.6296626721876
1811 1872 468.75078958031156
1811 1877 1177.056758292924
1811 1883 805.8345886270832
1811 1893 1638.071750291729
1811 1895 1903.37255411353
1811 1896 433.38349841412577
1811 1903 1946.7898246139996
1811 1904 874.929054601696
1811 1906 1530.9583231576112
1811 1986 741.0856422582124
1811 1989 313.3010572667773
1811 1992 1057.6121392542036
1811 1993 490.5084572478279
1811 1994 651.671506829659
1811 1995 970.4424105192691
1811 2010 981.4518547184624
1811 2036 1687.0202908418582
1811 2067 636.7053085937262
1811 2199 1841.6232104324308
1812 1904 623.0712889138027
1812 1906 366.8843788761995
1816 1830 87.8439477653005
1816 1887 43.52812347452666
1819 1822 710.6045023958706
1819 1846 539.6079125775259
1819 1862 429.1766257989779
1819 1877 1225.1126097109109
1819 2105 1885.9893694849725
1820 1822 1015.8044995308776
1820 1842 1367.6676418792804
1820 1845 2324.918164447062
1820 1846 1195.2402898823398
1820 1862 1334.470111438335
1820 1877 1392.425173038061
1820 1886 1068.0337392127612
1820 1893 1890.2790885141856
1820 1904 529.4149522819947
1820 1905 3155.7909833823683
1821 1845 403.2931563383685
1822 1827 3736.254074846357
1822 1830 7739.574508028987
1822 1833 3618.3348754410313
1822 1841 476.9256749079288
1822 1842 927.0850982730308
1822 1845 2331.6969431368752
1822 1846 216.41242551568763
1822 1849 481.0065099644262
1822 1862 366.32041164998014
1822 1865 711.3304255907832
1822 1870 3785.3060783960896
1822 1871 2349.7214728155795
1822 1872 457.06917059594156
1822 1874 523.2913818303676
1822 1877 945.4059326067709
1822 1890 1649.9336404260716
1822 1893 1458.7027183225146
1822 1895 1536.03848931858
1822 1896 793.0425488585903
1822 1897 1824.0726458025044
1822 1898 522.7293325688416
1822 1904 517.371779345077
1822 1905 3316.4520946134185
1822 1906 1222.0244324048263
1822 1934 11173.265458566306
1822 1986 384.7874699034757
1822 1992 724.7825525188545
1822 1993 124.70057874276704
1822 1994 284.53236354838367
1822 2010 617.8504071401409
1822 2068 957.4212391061695
1822 2079 383.7550745070534
1822 2106 192.8401495460529
1822 2154 225.52008982318628
1822 2155 364.7912183292635
1822 2174 214.43934851081752
1822 2405 344.70559506510295
1822 2411 242.3323661636104
1822 2418 457.423207146994
1822 2429 164.39249600271123
1822 2857 88.09035173498532
1822 2920 283.50937767026824
1822 2937 146.28333261078458
1822 3178 11127.355169330996
1824 1845 1437.9705461040858
1824 1846 1108.1413117462353
1824 1859 1907.7443543219774
1824 1877 107.70574178119777
1824 1886 1029.4970827999718
1824 1893 477.60886213233726
1824 1895 1455.620246421696
1824 1904 1047.783825730792
1824 1905 2446.9529150257217
1824 1906 1719.0040279591794
1826 1877 506.82865660718375
1827 1830 4188.150033051472
1827 1833 1502.616165422822
1827 1835 1350.8014837783999
1827 1842 2810.937298637312
1827 1843 916.3887184721009
1827 1845 1592.1772002071923
1827 1846 3862.5590276405533
1827 1853 2476.736563366623
1827 1855 356.30914054323017
1827 1862 3938.8713051970008
1827 1866 715.5965344628618
1827 1870 770.9657561241177
1827 1877 2791.6594873767954
1827 1880 1406.4530790144388
1827 1893 2288.6932703335165
1827 1897 2384.5400652578305
1827 1900 1384.546770205414
1827 1904 3664.4987449702307
1827 1905 1227.6662717056113
1827 1951 1263.0298485750805
1827 1997 1786.658223445137
1827 1999 1090.4151413497862
1827 2058 169.84067960506795
1827 2060 358.1125734100631
1827 2061 187.1305031734583
1827 2129 670.1817808245971
1827 2428 387.92776003187595
1827 2433 274.5567319900896
1827 2624 279.3575107289455
1827 2906 292.2852733885616
1827 2929 787.4271357531545
1828 1846 1533.6972543361603
1828 1862 1657.1438207777642
1828 1874 1826.012953326896
1828 1877 1843.69580384027
1828 1886 1425.0999791613817
1828 1892 1695.7664565409284
1828 1904 952.0066297402706
1829 1898 253.18393291711072
1830 1833 4200.735471453279
1830 1843 3885.8576697458757
1830 1845 5407.904236500711
1830 1853 4474.055996897099
1830 1855 4369.718937655035
1830 1861 135.72410372704613
1830 1862 8006.7576037353765
1830 1870 3959.4347466442573
1830 1877 6819.188446574065
1830 1887 117.21296911081029
1830 1905 4440.490918964271
1830 1934 7352.76446439981
1830 1944 6466.851268148738
1830 1977 6613.672864721268
1830 2040 4416.604887729564
1831 1842 491.72745935398234
1831 1845 945.9161702382828
1831 1877 480.10856955066424
1831 1893 373.99342671680427
1831 1904 1310.677920868962
1831 1905 1952.2021561754655
1831 2105 1809.2132451849532
1831 2935 1943.1902509195818
1832 1904 354.95173598161387
1833 1842 2776.0039257438393
1833 1843 671.3862686144805
1833 1845 1371.326324574564
1833 1846 3805.9527440869583
1833 1855 1840.444882242196
1833 1862 3928.043026388821
1833 1866 787.019925871019
1833 1870 772.6273872608235
1833 1877 2768.0716366430474
1833 1886 3685.6142002270003
1833 1893 2462.7992542379693
1833 1895 2568.2707292224036
1833 1904 3335.3807356266407
1833 1905 416.4147056045078
1833 1906 3451.566060600724
1833 1950 603.7457864041024
1833 1992 2897.8919858394
1833 1997 1009.2515814277151
1833 2929 818.6044983182875
1835 1842 2739.5635045881263
1835 1843 536.4293395613785
1835 1845 1315.7317695295985
1835 1870 627.3228293458827
1835 1905 316.7302450810136
1839 1845 465.4670189054454
1839 2945 223.33652650273334
1839 2948 318.7744330026589
1840 1876 774.4451960145735
1841 1846 367.32597245752964
1841 1862 335.60355426422507
1841 1877 973.9044026151533
1841 1893 1380.5378432055234
1841 1904 971.6699598060829
1841 1906 1697.7566024002615
1842 1843 2950.3272214164685
1842 1845 1437.3420016766174
1842 1846 1072.9361773562757
1842 1849 454.2722342133892
1842 1859 1781.9948188606388
1842 1865 1199.406863254266
1842 1866 2697.5455372246724
1842 1868 918.5644907594368
1842 1870 2873.969285787924
1842 1872 751.7563105856829
1842 1874 1246.424954935099
1842 1881 1414.2085696709426
1842 1886 980.5465332160945
1842 1890 937.5069781259119
1842 1893 560.316424409127
1842 1894 1048.91603365495
1842 1895 1330.3885069922742
1842 1897 1111.33264084176
1842 1898 1151.5995187947537
1842 1904 940.149622462728
1842 1905 2441.8897980425095
1842 1906 1595.4107851062238
1842 1989 1344.5909547394276
1842 1992 436.76357163175555
1842 1997 1800.9356978524813
1842 2010 905.0065842727446
1842 2923 749.2848743093158
1842 2934 302.33278187353187
1843 1845 1522.3270560986493
1843 1862 4124.788633832657
1843 1866 303.08075355734826
1843 1877 2937.1184169200164
1843 1893 2530.0546360398816
1843 1900 550.4706019019483
1843 1905 620.4762953564596
1845 1846 2500.3940527262635
1845 1849 1852.6442633542672
1845 1853 3863.057042161184
1845 1857 488.105718245458
1845 1859 2584.0286926092103
1845 1862 2609.78570159704
1845 1863 144.36572776324215
1845 1866 1290.8904205744313
1845 1868 1740.0230597561936
1845 1870 1459.759486789582
1845 1871 117.43525915711662
1845 1874 2682.9051787447256
1845 1876 734.3540669704489
1845 1877 1426.0239854575102
1845 1880 1246.834871021037
1845 1881 578.6078359808373
1845 1886 2393.5495663833235
1845 1890 870.032222477476
1845 1893 1092.353975255235
1845 1894 2473.233911743832
1845 1895 1708.0876165990287
1845 1897 796.2930421125849
1845 1900 1359.6875925725487
1845 1901 370.2007675252114
1845 1904 2148.205057901157
1845 1905 1009.3660130547812
1845 1906 2486.3493755682916
1845 1908 1003.2120496605671
1845 1950 1540.772432583464
1845 1951 1471.3936360975283
1845 1986 2200.6252651758514
1845 1987 776.9059896624858
1845 1992 1643.6175188732352
1845 1997 562.6637932821999
1845 1998 843.2180298079838
1845 1999 732.3829502426722
1845 2005 652.9376439385197
1845 2011 1338.8266548309466
1845 2017 1111.692169545442
1845 2020 1272.6311533184341
1845 2034 340.7474246915727
1845 2035 830.7570519189381
1845 2038 1206.5202230932978
1845 2045 831.2711018651208
1845 2048 483.98092911195295
1845 2058 1599.7349352769863
1845 2059 736.0048841634713
1845 2060 1546.8576201275114
1845 2061 1442.2766834213653
1845 2067 1965.1966629948492
1845 2068 1683.6998779009148
1845 2075 674.387489281846
1845 2077 1209.8430511840427
1845 2129 1091.42200441031
1845 2141 193.45727216151312
1845 2159 1008.4709678956131
1845 2160 504.0346141333977
1845 2186 446.1581690486305
1845 2187 226.9361638988681
1845 2188 450.12792219503484
1845 2189 629.7197823632463
1845 2192 1022.6379589086122
1845 2199 990.0780385077123
1845 2404 241.38437632431365
1845 2413 469.7874612272614
1845 2424 182.12227696382385
1845 2426 365.3993764909269
1845 2437 619.1684804906516
1845 2441 417.1568302776881
1845 2444 577.6510139017482
1845 2624 1369.5302504208305
1845 2904 315.6674221033717
1845 2905 475.6955949784394
1845 2923 1067.7437190071055
1845 2930 201.23677282315091
1845 2933 244.3759624921876
1845 2938 785.8582552894545
1845 2940 356.1396022695674
1845 2941 289.8339495369273
1845 2942 349.52211897108873
1845 2945 289.0759353917139
1846 1849 652.2690773562608
1846 1859 1600.7149518967985
1846 1862 150.61981206112264
1846 1865 886.1055134191562
1846 1868 1241.3676121007866
1846 1872 448.46614380739913
1846 1874 314.6707714298952
1846 1877 1088.3251731143441
1846 1879 462.6458258943298
1846 1883 666.0028826080024
1846 1886 144.85242745344274
1846 1892 208.4885464363786
1846 1893 1574.4255060334478
1846 1895 1750.8856820624399
1846 1896 585.8535298036144
1846 1898 341.67541809782733
1846 1904 721.4742186957094
1846 1905 3494.4189363079263
1846 1906 1388.5574083061915
1846 1943 8083.072350071781
1846 1948 289.64415338887727
1846 1949 308.5253337222334
1846 1984 251.96959029749968
1846 1986 587.626066308576
1846 1989 465.2627650638264
1846 1992 925.4692974552006
1846 1993 337.8496747817427
1846 1994 499.3232732403169
1846 2010 827.9105956655302
1846 2037 1262.0861886727935
1846 2067 537.7069763991734
1846 2079 267.121065428797
1846 2151 481.4758638134344
1846 2156 168.08406363572166
1846 2174 246.2087724944079
1846 2198 88.39392694768642
1846 3178 10918.625456576092
1847 1877 699.8973055263405
1848 1906 524.3092161188242
1849 1859 1500.5726906989987
1849 1862 775.5475722577263
1849 1866 3130.364732162873
1849 1877 474.7978893825863
1849 1886 540.9918887981264
1849 1893 1005.5194694525095
1849 1904 558.9288418625224
1849 1905 2842.7947349989854
1849 1906 1294.5132027384825
1850 1878 430.0442633635748
1850 2838 97.94302281516966
1850 2842 69.63577146649477
1850 2963 110.36832678795696
1850 2964 53.97013035150119
1850 3007 40.50042663379275
1852 2105 1893.7972887296262
1853 1860 462.8517271654267
1853 1877 4568.383582493008
1853 1878 418.93930734816274
1853 1889 995.4664522539796
1853 1893 4042.004516930371
1853 1899 201.09038587469453
1853 1905 3703.486613737664
1853 2541 1913.2773158102884
1853 2547 352.6810124691903
1853 2549 510.0754355990553
1853 2839 708.896528754378
1853 2860 894.6107109085965
1853 2951 629.82222033272
1855 1880 1736.9912138068835
1855 1905 1536.2602640225798
1855 2832 1944.1896657686343
1856 1877 1255.4653314596803
1856 1904 846.2250814505718
1858 2105 1344.9395299117723
1859 1862 1731.6474280116563
1859 1874 1902.1901734137884
1859 1877 1806.4276798503618
1859 1886 1482.8559696800146
1859 1893 2282.2353949310996
1859 1894 1568.5182399108728
1859 1903 220.17767785565138
1859 1904 968.0241488905929
1859 1906 215.06628097471554
1860 2873 83.71990547916783
1860 2875 224.22586964572284
1860 2977 69.0684509379369
1860 2978 343.0799088323656
1860 2979 133.41314182996166
1860 2980 20.95399662236857
1862 1865 1025.0091581766121
1862 1870 4047.325145612862
1862 1872 483.69794834614817
1862 1877 1187.8372277204385
1862 1886 295.3613523048697
1862 1893 1651.2762538801069
1862 1895 1901.4923369594944
1862 1896 439.8969171388091
1862 1904 870.5304133494983
1862 1905 3609.2875087753023
1862 1906 1521.3907155845002
1862 1934 11088.805743835432
1862 1953 6745.701323489791
1862 1974 8534.836800354855
1862 1977 11154.729053842746
1862 1992 1062.288781432201
1862 1997 2931.4461918652314
1862 2036 1678.0116907234385
1862 2037 1226.7451982527225
1862 2165 4098.172851996364
1862 2467 2407.4288630929486
1862 3178 10769.473368201696
1863 2452 404.56277306273444
1864 1905 576.8223989754487
1865 1877 1224.1033721710241
1865 1886 760.8060169087775
1865 1904 270.5513068646619
1866 1877 2683.07665533471
1866 1905 555.783091473417
1867 1891 293.6885572096974
1867 2551 131.99229846704569
1867 2975 26.420334298405585
1867 2976 72.4772134615089
1867 3004 89.37805048597748
1868 1877 941.2125096500914
1868 1886 1096.5433847634686
1868 1893 1375.297900628609
1868 1904 563.7832535815263
1868 1905 2598.144807310934
1868 1906 771.1791487203741
1870 1877 2859.7982292036704
1870 1880 707.1960335712237
1870 1893 2436.4583522581456
1870 1900 650.3769949197848
1870 1904 3602.988341806491
1870 1905 638.6832052856906
1870 2217 332.6085378298099
1871 1877 1462.9073372965904
1871 1905 970.4868499966286
1872 1877 759.6407114303192
1872 1886 452.9749135574234
1872 1893 1178.9451509983057
1872 1904 879.9953995690016
1872 1905 3189.462095810661
1872 1906 1630.0318644341396
1874 1877 1256.9849817033746
1874 1886 455.7197009979719
1874 1893 1686.2265630021654
1874 1904 1035.6962262451673
1874 1905 3688.3111572055573
1874 1906 1692.2159924173982
1875 1905 1945.7739324236716
1876 1905 1244.2194906218763
1877 1879 991.2256047365287
1877 1880 2653.030875910491
1877 1882 737.2773796023517
1877 1886 997.9718967120314
1877 1890 941.4523793007605
1877 1893 536.9960616267083
1877 1895 1349.251741511989
1877 1896 1444.4322690492306
1877 1897 1114.2421637086106
1877 1898 1160.5144965565803
1877 1900 2771.928658484596
1877 1904 964.580003914333
1877 1905 2431.6962069146534
1877 1906 1620.0853695999092
1877 1934 10519.085035201168
1877 1948 908.667031555804
1877 1985 863.1532673130756
1877 1986 948.4725661389846
1877 1987 742.5314515901853
1877 1989 1353.1036045122466
1877 1992 461.46218635806696
1877 1993 909.9747490539144
1877 1994 852.9231535510722
1877 1995 520.5594488519106
1877 1996 439.4314025332949
1877 1997 1795.9189395427516
1877 1998 1903.3594554610136
1877 2001 360.0114687566224
1877 2010 929.8173953383008
1877 2011 187.1469699027634
1877 2013 196.16118704630497
1877 2014 342.4534733650727
1877 2015 251.627664455977
1877 2016 251.70259411833447
1877 2017 314.98991472705876
1877 2018 345.1017673609193
1877 2019 342.24427117208865
1877 2020 208.96069258466406
1877 2021 258.3241609977111
1877 2022 431.1197761207445
1877 2023 217.91398450634156
1877 2024 804.4481193996005
1877 2036 1692.8154564379067
1877 2038 223.9235878173107
1877 2048 1251.3467325544225
1877 2050 358.4532059292371
1877 2067 551.3010574146706
1877 2068 822.2339117941449
1877 2072 551.8828417744132
1877 2078 356.8897082349782
1877 2148 633.5010085982442
1877 2155 669.2259206460027
1877 2156 1013.62237511724
1877 2159 894.7746072299589
1877 2174 847.4240449865426
1877 2185 280.2222670114295
1877 2192 705.112161088347
1877 2198 1050.3920859733096
1877 2199 839.8270399616473
1877 2202 134.882421528792
1877 2219 235.80508195962886
1877 2399 375.4172372643734
1877 2407 299.7638351372918
1877 2412 578.9281998792763
1877 2415 431.92767949067553
1877 2431 190.148303059327
1877 3178 11458.106387195134
1878 2833 407.15573351511426
1878 2842 360.781657422904
1878 2903 291.26278419050504
1878 2961 277.0058882172113
1878 2962 325.91811055160014
1878 2966 173.26139043466634
1878 2967 166.31314371049933
1878 3007 466.12389920677094
1878 3012 208.6177668846719
1878 3014 118.33831816646038
1878 3015 133.020975795389
1880 1893 2336.342719956459
1880 1905 279.0364661230329
1881 1905 1217.7217774099252
1883 1904 296.94348116463306
1884 1904 1085.1741404202992
1886 1892 353.30441211703476
1886 1893 1503.629832206661
1886 1895 1606.165947384689
1886 1896 726.4725148429295
1886 1897 1894.4565417127405
1886 1898 464.4464009454999
1886 1904 580.7090487197448
1886 1905 3381.1247680078163
1886 1906 1268.9994600524892
1886 1989 605.6137326580057
1886 1992 794.6549215183405
1886 1997 2682.0480571584467
1886 2010 684.7113078928566
1886 2050 727.1766506402868
1886 3074 1285.5837516095733
1889 2874 30.819177650553815
1889 3002 59.13488755611111
1889 3003 132.67242782455855
1890 1893 991.3537529501083
1890 1905 1727.086323140629
1890 2105 1600.0865256627915
1892 1900 3997.065669811457
1892 1906 1565.045630846977
1892 2935 1745.295093100189
1893 1895 1675.7716548465924
1893 1897 1118.4003593164
1893 1898 1572.2592402543512
1893 1900 2445.7429475754757
1893 1904 1496.0752818615388
1893 1905 2087.7686600472025
1893 1906 2110.440266258722
1893 1908 1423.377703215461
1893 1987 315.48032109179775
1893 1989 1753.3677908034645
1893 1992 971.0185115481426
1893 1995 1045.193530488458
1893 1997 1577.0345552932215
1893 1998 1402.3114644528803
1893 1999 1199.9434918921813
1893 2001 602.6286446418169
1893 2011 602.9593958765604
1893 2013 684.1556779279795
1893 2015 783.9243786236689
1893 2017 354.9319609277561
1893 2018 191.89706708314145
1893 2019 280.5651519819531
1893 2020 550.2374173022569
1893 2021 378.86996090192724
1893 2022 122.51996164009499
1893 2038 440.64379960156555
1893 2045 619.4414664704358
1893 2048 785.5462093837501
1893 2050 787.9257219597312
1893 2077 1646.0593406364112
1893 2078 743.5454966364175
1893 2129 1625.7549396208622
1893 2157 320.4711343953177
1893 2159 358.72654390188217
1893 2199 960.642390727917
1893 2202 660.515531413586
1893 2396 412.44791697943384
1893 2401 759.7782665232688
1893 2402 309.7713891465581
1893 2440 305.4103649627306
1893 2624 2012.5879480896926
1893 2902 412.3851969449568
1893 2919 183.0327591294694
1893 2938 771.5302590670452
1894 1906 1355.9064069232293
1895 1903 1034.3011094043509
1895 1904 1047.2207964162203
1895 1905 2409.569465988356
1895 1906 885.5175909164888
1896 1904 1306.798857505468
1897 1905 1583.8430477726233
1897 2105 1705.0756750642959
1898 1904 1039.7542021631666
1898 1905 3591.52144160411
1898 1906 1729.0405105135837
1900 1905 364.46890051463765
1901 1905 1062.9066646058582
1902 1904 740.4352835344553
1903 1906 433.0184126606225
1904 1905 3076.5919453641013
1904 1906 755.2039580374802
1904 1907 159.69852496020567
1904 1952 671.0494958558663
1904 1985 147.1255589402586
1904 1986 133.8481735672903
1904 1989 1185.9893939829378
1904 1992 539.2869712071043
1904 1993 393.7551137717949
1904 1994 250.29888948640843
1904 1995 453.07120971664494
1904 2010 121.40212637548986
1904 2012 928.1632524502419
1904 2036 882.7211602977084
1904 2067 635.5455560362741
1904 2068 535.468485104961
1904 2070 598.9133873716816
1904 2071 192.5750572819713
1904 2155 356.01097044988944
1904 2156 819.0015505847097
1904 2198 773.278376042891
1904 2199 1210.867652672067
1904 2218 306.3140706776964
1904 2418 189.28010794662185
1904 2422 378.89414902703487
1904 2430 282.11453927470404
1904 2921 325.73957151791626
1904 3110 333.20368472317415
1905 1906 3276.0974962074124
1905 1908 1305.5938149795952
1905 1934 9668.472354946343
1905 1950 601.878115438332
1905 1987 1774.1248628665724
1905 1992 2607.314731193838
1905 1997 781.1177719930466
1905 1998 1129.02927520449
1905 1999 1214.727744988069
1905 2006 2337.229840367321
1905 2017 2118.6550049405228
1905 2020 2268.577243786413
1905 2021 2425.265196704012
1905 2034 674.3261192635733
1905 2038 2210.0413227128874
1905 2045 1684.9143356842171
1905 2048 1355.3454013031019
1905 2050 2782.531780861126
1905 2058 1125.7658139155994
1905 2059 867.3961932394592
1905 2060 964.6375421464435
1905 2077 1361.9355458041528
1905 2129 1208.135490258958
1905 2159 1937.2022110320738
1905 2192 1941.2643666345305
1905 2199 1867.4012499692597
1905 2202 2559.64551259542
1905 2420 1559.579252730913
1905 2447 497.85977257546676
1905 2624 1179.736191423637
1905 2832 444.0562007722181
1906 1989 1839.6938424797695
1906 1992 1158.6581976897553
1906 2011 1508.8274963037982
1906 2050 1631.0111170802836
1906 2067 1388.5125302166628
1906 2425 1328.7218728948103
1906 2817 1757.8660438831487
1908 2832 1576.2816085728225
1909 2105 1388.981399690769
1909 2935 1599.1025454139349
1910 1934 3668.6821896141755
1910 1935 596.7089509246936
1910 1936 703.3583116081555
1910 1939 477.0025014731584
1910 1940 379.15357707213
1910 1941 407.8390166281262
1910 1942 2958.596397814591
1910 1944 4310.4383344074695
1910 1977 4160.632530010454
1910 1983 535.383626084677
1910 2007 7058.750958020776
1910 2031 7224.097168212233
1910 2043 4855.755260755402
1910 2063 3052.4338747296883
1910 2084 231.23890047995724
1910 2085 2139.384645989967
1910 2164 1987.5949281524286
1910 2182 5496.78240531516
1910 2212 4777.484320780201
1910 2652 1679.614918134555
1910 2916 819.0695675508467
1910 3178 5279.969648259725
1913 1942 284.81629762032645
1914 1915 330.0641770164222
1914 1917 970.955400453614
1914 1921 883.8190828362385
1914 1932 577.4037293620185
1914 1942 861.041054009081
1915 1917 1213.0570308139986
1915 1921 680.5182671188145
1915 1928 1018.8797755686701
1915 1932 263.5147082218844
1915 1942 531.8490929651765
1915 3113 652.0887623584442
1916 1917 1136.5797167338185
1916 1921 624.6073319530126
1916 1922 495.8331680532472
1916 1928 961.5838832888076
1916 1932 269.9238182268643
1916 1942 563.5276609290609
1917 1919 428.6210729198997
1917 1928 1445.0453424828474
1917 1932 1348.3325436791572
1917 1942 1644.0820091353803
1917 2683 717.0443661705386
1917 2684 566.514426268621
1917 3125 474.021476664669
1918 1919 190.89097493937442
1921 1922 352.7520253346298
1921 1928 338.36201843298346
1921 1932 489.4092993171297
1922 1932 534.2329129200274
1922 1933 544.476177074395
1923 1932 587.3056448543703
1924 1926 231.78516970192175
1924 1942 777.1958189822715
1925 1926 264.96385868470117
1925 1927 198.9167883207119
1926 1932 1235.5433251519812
1926 1942 946.0288399339483
1926 2673 492.4253453686754
1926 3113 826.0894328756934
1927 1942 519.9456736331816
1928 1929 516.4204401874703
1928 1932 817.9187036138071
1928 1942 853.4132846228871
1928 2674 385.3762824957732
1929 1932 1303.4294515262268
1930 1942 387.6529498084372
1930 3113 266.0709866326895
1931 1942 572.8462999742561
1932 1942 302.9934459861061
1932 3113 413.59050956809386
1934 1935 3382.2913696566156
1934 1942 5271.635853108877
1934 1944 973.1509552482948
1934 1977 860.2980489385188
1934 2009 2732.3748379423496
1934 2031 10054.720159220105
1934 2063 820.8348685246518
1934 2085 2544.8755941792765
1934 2089 528.8949515496573
1934 2125 3030.3621891030175
1934 2215 728.6355595735349
1934 2216 1114.9744378485157
1934 2553 593.8285974726972
1934 2791 1146.13846718096
1934 2816 653.5923785891201
1934 3178 7052.5051746657255
1935 2047 119.54812656023262
1935 2081 191.68795824593442
1935 2100 87.06190985949073
1942 1977 5245.981145597389
1942 1982 1764.4113340233225
1942 2673 453.66180664683634
1942 3113 121.95764489632525
1943 1953 2111.283899549923
1943 1957 1779.250656456572
1943 1963 1837.1838385866802
1943 2007 2206.3067570422577
1943 2110 262.7609177683851
1943 2111 212.9389474022367
1943 2112 285.7438628093319
1943 2113 145.6455154297617
1943 2114 157.5181051751941
1943 2115 144.9378628020369
1943 2173 566.2701603025864
1943 2456 105.38289027844992
1943 3178 2957.875435974732
1944 2089 1383.8645370806114
1944 2216 401.943628763195
1946 1947 41.712720481598055
1948 2105 1538.626051299818
1953 1955 205.97056293884867
1953 1956 267.5139434445711
1953 1963 2260.1562118543543
1953 2007 877.4112647119729
1953 2118 1295.0560336233427
1953 2173 1822.7351014335832
1954 1981 2333.4597721637015
1954 3150 2123.5495499266813
1956 1962 1868.9221007451504
1956 2007 807.9592265676281
1956 2331 1711.0302772602704
1957 2007 1763.0513483349566
1957 2043 3253.528854886723
1957 2066 2419.287644184561
1957 2150 1788.885178134384
1957 2182 792.8479696881121
1957 2204 1275.9230992385428
1957 2207 689.9643429435864
1957 2212 3884.5508267787095
1958 2007 1687.3450277503848
1959 1960 64.73884449570056
1959 1967 714.3950486705882
1959 1970 569.5368084875565
1959 2031 1859.9027868771632
1961 1963 278.86053769478076
1961 2007 1557.700170420387
1962 1963 212.15999776909828
1962 2611 984.410077872094
1963 1975 610.0091147789891
1963 2007 1611.4960657408403
1963 2080 936.9309612578235
1963 2173 1308.3002690741052
1963 2207 556.9032841927876
1964 1967 511.7495860118545
1964 1970 560.8589854578821
1964 1971 539.1656508888984
1965 1970 199.26144596788015
1965 2073 260.48484833196136
1966 1970 155.83438509451716
1967 1970 306.9654123676435
1967 2381 1202.9650000614363
1967 2540 534.360987043671
1967 3178 1545.9928577101264
1968 1970 298.22887387250773
1969 1970 854.677688424113
1970 2031 2032.347904147278
1970 2073 451.6657747264413
1970 2540 492.0144284721368
1970 3178 1333.2929669376201
1972 1981 1113.6324054779489
1973 2173 504.8348529595899
1974 2032 2037.5381278268194
1975 2182 654.3771000138481
1975 3178 1420.0479514063527
1977 2063 1648.783392049767
1977 2089 1303.390803269236
1977 2793 1418.706847692202
1977 3178 7905.080728654825
1979 1980 90.040002991863
1979 2256 434.6633720616538
1979 2257 177.12000059783065
1980 2255 200.81295924449378
1981 2007 3125.6679253644156
1981 2104 1110.3141331503425
1981 2118 1365.5136894711472
1981 2331 1574.6023068235677
1981 2376 719.2951962855756
1981 3052 305.1763595668023
1981 3115 1982.2873293167697
1982 2175 1112.6043455865372
1982 2707 628.7890832932853
1982 2719 366.9720110192682
1982 2720 717.5229706451858
1982 2734 645.5307695704814
1985 2105 750.5013696710743
1985 2935 948.3828904422543
1986 2105 823.0378974563811
1987 2105 2148.0315075540775
1987 2832 1724.8670622425027
1994 2105 957.7050787821596
1995 2105 1075.742426922037
1995 2935 1260.0217236136095
1997 3069 98.30678279411728
1998 2832 1387.2292291298504
1999 2419 304.7260952109564
1999 2832 1414.9931416237757
1999 2939 392.8566247211927
1999 2943 322.0658899105817
1999 2944 339.66998636850667
2006 2105 1651.1577036468304
2006 2832 2206.500253266224
2006 2935 1817.209976212618
2007 2008 7179.212768700244
2007 2029 3063.2382751858167
2007 2043 2789.6867750018428
2007 2066 1691.491781167659
2007 2104 2146.843290615451
2007 2150 378.23498797032124
2007 2161 2892.6811459747455
2007 2173 1731.8245397604417
2007 2195 2864.8096575438553
2007 2196 1157.8470703698863
2007 2204 686.8285831331233
2007 2205 2356.116544799348
2007 2206 2250.5759917350165
2007 2207 1591.4513955315158
2007 2212 3323.3517195151176
2007 2213 2450.08987788401
2007 2598 2047.6225670110439
2007 2601 3007.2154450113226
2007 2603 1743.9524296473594
2007 2605 3920.6469390811276
2007 2609 6226.029506878731
2007 2615 429.7971835842242
2007 2616 751.831637989193
2007 2618 3093.0282164037717
2007 2620 1460.339928326995
2007 2621 1439.6941579051422
2007 2622 1099.9531302891512
2007 2625 1954.783590016668
2007 2626 1908.4020679876016
2007 2629 974.6312707691259
2007 2631 2171.604584471625
2007 2632 1723.778483065648
2007 2633 2873.2304344733443
2007 2634 2986.0014498102705
2007 2635 2982.3656421665814
2007 2636 2921.8517589218513
2007 2637 2123.4627148425834
2007 2638 2254.5329169493602
2007 2639 2775.0703228470556
2007 2640 2985.3217656994752
2007 2641 537.0802945825498
2007 2643 1903.1400285027557
2007 2644 951.433512457096
2007 2645 595.1962907103581
2007 2646 1452.2426653193397
2007 2647 527.7069421526586
2007 2648 489.65419035952146
2007 2664 7735.880095949539
2007 2829 2624.205278682285
2007 2853 1359.1145102657485
2007 2925 892.3840203659503
2007 2931 672.2653371100638
2007 3047 2989.9175267865953
2007 3066 3064.0588144875355
2007 3078 1230.9157196003564
2007 3086 3673.2742403637767
2007 3120 3115.5330456073143
2007 3121 2023.067893477303
2007 3122 1773.3440061888307
2007 3178 3531.9398561082503
2008 2063 2199.6660904230193
2008 2065 1267.9018221124024
2008 2164 939.4016187901462
2008 2754 2279.778984840586
2008 2762 583.7084000850704
2008 2763 656.5660390828652
2008 2764 338.53792101817515
2008 2768 1378.4379227020179
2008 2793 1837.5565804704897
2008 2795 1582.7073694245723
2008 2803 1533.122614628424
2008 2820 1876.3969281501602
2008 3129 1891.0348991115743
2008 3165 1061.635424810231
2009 2063 1958.1889390348565
2009 2754 1866.7145941544964
2009 2803 685.1402361357176
2009 3077 261.83874638630454
2010 2105 686.5776452812961
2010 2935 887.1029325771393
2011 2105 1477.0196023682513
2014 2105 1443.150502653227
2014 2935 1639.2727235458772
2015 2105 1403.4541907780588
2015 2832 2483.8689488126124
2015 2935 1590.5869249196028
2017 2105 1736.6846503309837
2017 2832 1992.334449935513
2017 2935 1884.8321433827184
2020 2832 2107.8480548006696
2020 2935 1684.1388437000442
2021 2105 1838.327848742473
2021 2832 2333.7906099066304
2022 2832 2031.3689633482902
2030 2414 83.3723654418369
2031 2073 1587.8218130200605
2031 2102 2875.1612229533894
2031 2381 1002.3820374215653
2031 2382 1475.1231771223925
2031 2386 411.6502719406821
2031 3178 3352.6761425308227
2038 2105 1639.623498344763
2038 2832 2068.863100066083
2039 2220 121.73146570967012
2039 2221 155.94621199643774
2039 2222 231.62869060714598
2039 2223 644.6176530424002
2039 2224 330.2200937665547
2039 2225 380.5904868394028
2039 2226 234.1673363982995
2039 2227 97.21334385871447
2039 2228 251.33578168737967
2039 2229 358.07726559948344
2039 2230 299.78916282414514
2039 2871 257.2570378024659
2039 3070 216.3885229565987
2039 3071 503.4308007465216
2039 3072 306.41191903304434
2040 2492 498.9759628263912
2040 2493 1434.407399730335
2040 2909 656.5115290752934
2040 3050 732.475488456953
2043 2066 1098.2175833709757
2043 2195 1607.2640074457308
2043 2205 1272.8891796849284
2043 2212 631.1727229695737
2043 2605 2006.9898661192285
2043 2625 1543.839942911813
2043 2626 1038.4451962968967
2043 2633 1903.685980600578
2043 2635 1817.5632690675916
2043 2636 1759.9059694682282
2043 2917 2407.9588920608685
2043 3086 4032.518653838457
2045 2105 2620.098543470644
2045 2832 1758.0255585446305
2046 2056 1723.805391716622
2046 2063 1002.1362880766477
2046 2093 1144.841591968377
2046 2215 1750.4704570199913
2046 2752 562.9949690504156
2046 2754 757.3419046543322
2046 2771 411.78840230028834
2046 2821 678.2190574793461
2046 2823 351.29618744245107
2046 3119 309.59498708718223
2048 2832 1406.2117702283174
2051 2121 302.26362670748875
2051 2125 398.4344262797954
2053 3108 140.95198170580736
2056 2771 1312.130945967706
2056 2779 872.1264532648946
2056 2799 613.1610606499819
2056 2803 1346.8266318712085
2056 2805 331.9527460933045
2056 3081 1083.3963198210683
2056 3149 1262.9877202810944
2058 2832 1562.6753880163678
2059 2832 1135.5200058625371
2062 2367 519.2324371337573
2062 2368 686.5458879717168
2062 2885 295.07094344107367
2063 2089 757.2420575879102
2063 2215 1068.428195048907
2063 2752 644.1542587211585
2063 2755 856.3897092212292
2063 2794 1020.6832099123066
2063 2795 1051.3535116267617
2064 2089 1129.732885823579
2064 2748 926.0057890804726
2064 2760 947.2164413980594
2064 2762 1271.187551901832
2066 2205 1147.2195724179496
2066 2206 862.054166844052
2066 2214 325.2628130029426
2066 2625 1047.4817547898444
2066 2626 477.66124118294795
2066 2627 547.366439569484
2066 2628 470.27587162320907
2066 2631 1000.7857123111312
2066 2633 1913.5292769979296
2066 3086 3681.7891351831136
2071 2105 862.8953508397377
2073 2381 1086.0875081003717
2074 2164 742.4621308634065
2074 2750 1832.415573119852
2074 2758 215.65452101398907
2074 2759 1006.0828660032502
2074 2762 380.4880825393608
2074 2764 142.66190906805375
2074 2791 1342.9486906081722
2074 2795 1378.1747519987548
2074 2802 1116.019145416374
2074 2818 1356.0270379353676
2074 3165 920.8861631709799
2075 2132 125.02897169043992
2080 3178 1139.7376305756661
2085 2125 657.0144438760501
2085 3178 7209.028849574002
2086 2682 176.54126962119074
2089 2092 1234.6195927373064
2089 2093 990.0683179474842
2089 2563 647.464832157594
2089 2749 384.1167328897904
2089 2751 858.7974805406545
2089 2752 977.9480799129229
2089 2753 1135.2100217433715
2089 2754 836.2464491150023
2089 2756 520.1147985318279
2089 2787 883.0281200658976
2089 2789 855.8490055229869
2089 2792 670.5219169387323
2089 2793 1160.3961027153891
2089 2795 1545.020124081601
2089 2796 957.8390004279047
2089 2797 1402.0588267123094
2089 2803 2016.1203614388367
2089 2813 801.958669006108
2089 2823 1173.8707188562607
2089 2913 939.5656158488002
2089 3116 742.5688649643628
2089 3126 344.4262311070183
2091 2551 49.815715094316
2092 2758 1498.729163676807
2093 2787 133.82177899325598
2103 2372 340.8446071818244
2105 2156 1483.2844665348161
2105 2159 2427.413790879571
2105 2185 1452.7075310772668
2105 2192 1470.9231243285906
2105 2198 1421.830924785584
2105 2199 1480.154937992186
2105 2202 1509.300463665071
2105 2411 1173.328807837731
2105 2422 1073.2182759649895
2105 2434 1138.2568992278007
2105 2439 1842.5926887790574
2105 2857 1257.1397841796636
2118 2169 1038.8166279812137
2119 2125 468.69146295999343
2120 2125 223.08656573657018
2121 2125 202.10984847789382
2123 2125 318.01715005187896
2124 2125 237.21014535795055
2125 2564 141.7706300670508
2125 2566 175.52333155787707
2125 2927 228.29750350581423
2127 3035 340.9010284479341
2129 2832 1527.1044636831016
2130 2716 160.75928358636358
2133 2658 132.5538165214662
2134 2135 105.64742143661415
2137 2515 105.21261428908701
2137 2516 46.527735945982734
2137 2518 105.88394380850146
2137 2519 66.86470047384073
2140 2826 49.19818988088767
2142 2350 40.17443510107906
2147 2417 42.46683080898204
2148 2832 2025.4078316860182
2150 2195 2565.6097383261567
2150 2633 2589.627674177104
2150 2636 2622.493206008835
2150 2641 782.0296018550894
2150 3086 3603.7103282343464
2153 3095 6766.408488469589
2154 2411 46.894690373799605
2158 2176 470.32840113272096
2159 2832 1963.7683190565047
2160 2441 419.5886833804825
2161 2212 450.11018600167876
2164 2762 363.75752546207315
2164 2764 683.1182565817815
2164 2797 733.5635407403863
2172 2173 429.7500788046897
2173 2182 1998.5440938356885
2173 2454 736.262018104328
2173 2459 1162.70357180787
2173 2460 756.7094480774084
2173 2464 245.56463857950334
2173 2611 1140.8718756941194
2173 2867 1058.5278631393512
2173 2888 1080.6328441768878
2173 3049 787.7330339520105
2173 3109 573.6088585225609
2173 3141 910.5372522598145
2173 3178 2693.919486908221
2178 2179 92.08459069402807
2178 2180 156.51780899941852
2178 2181 240.46538661197062
2178 2194 197.53866419447482
2178 2351 142.23444006739746
2179 2180 66.69101121369417
2179 2194 111.81938278804616
2180 2181 130.69114187123913
2180 2194 47.22503654265563
2181 2194 94.56096005930733
2181 2352 55.51566216172286
2182 2539 528.5024791436036
2182 3054 731.0179098974799
2182 3178 1128.7000629417225
2183 2526 732.6410435663779
2183 2527 578.3873579746727
2183 2529 1018.5431588786562
2183 2863 473.8158406671873
2183 2893 1013.990857182117
2183 3178 1439.118655465761
2185 2935 1602.9463806379902
2188 2413 118.78650151962547
2190 2349 126.93349153169608
2191 2339 49.1337019285027
2192 2832 1711.9311867426404
2192 2935 1569.556197951966
2195 2212 1483.0869456663688
2198 2935 1641.2264383484462
2200 2207 367.1204959173928
2201 2207 1156.5885674142498
2201 2213 803.5389170754873
2202 2832 2410.8907800986885
2202 2935 1691.1114249161808
2203 2209 786.7011344569103
2203 2210 651.0412883197633
2203 2614 240.52729561401952
2205 2625 445.6617775479572
2206 2625 556.3830994673875
2208 2209 319.1985178243339
2210 2630 1033.1018570071112
2212 2619 1288.5706872520104
2212 2633 2428.0276570213928
2212 2636 2267.602598120222
2212 2917 1808.8174820730726
2213 2601 657.5300799095611
2214 2626 254.4110422844858
2215 2752 1188.5679030738736
2215 2754 1116.775782737177
2215 2816 328.26115924391286
2215 3126 265.1328310431719
2216 2554 358.6573794889632
2217 2408 89.82666015084902
2221 2228 109.78404192016484
2222 3070 66.11663121244324
2222 3072 75.19761703534259
2224 2225 50.82731557238265
2224 2229 116.44745159862603
2224 2230 45.440941221155946
2224 2871 72.96775035807812
2225 2229 116.57930980465419
2225 2871 123.52581220355628
2225 3071 162.50518624530204
2228 2871 145.11929657825877
2230 2871 52.38210832893095
2231 2242 619.4941540231009
2231 2245 281.0846225205854
2233 2237 391.73853715987747
2234 2235 278.1701885987648
2234 2242 276.9710167931912
2236 2245 251.8581902300256
2237 2244 94.39692008901346
2238 2240 380.35270536794997
2238 2245 262.2728248261405
2240 2245 605.722445384973
2241 2243 65.95466116221291
2248 2250 37.5944424546278
2248 2252 40.366752289513435
2250 2252 77.35152500331215
2250 2253 22.475722606050187
2254 2256 641.7330613685632
2257 3118 22.292761171295634
2258 2856 87.98014308532014
2259 2283 110.24482434916716
2261 2263 54.29924714605711
2262 2265 95.71423626998356
2262 2280 270.14257086987885
2262 2311 21.124729425174067
2263 2266 40.15126768582023
2264 2268 96.86420141800838
2264 2304 101.14164706155354
2264 2309 168.04038064912007
2265 2311 75.86783632315947
2265 2319 75.77543011645704
2267 2282 138.93915580131704
2268 2304 37.945753339492526
2268 2309 120.66125113190873
2269 2285 180.17495818758098
2269 2294 259.56061815508224
2269 2302 88.58262238549352
2270 2271 33.559929693694876
2270 2291 29.011178440434303
2271 2892 47.816800064572696
2272 2322 139.65197210965061
2274 2311 88.80706019729064
2275 2288 115.23322078829025
2275 2295 84.26955557951734
2276 2305 302.13117332971643
2276 2318 87.95979106032999
2277 2892 105.54332498855712
2280 2311 282.8917909202257
2281 2318 9.111225561463131
2282 2297 70.48733920577969
2283 2290 77.8836293223611
2283 3016 42.43461149021836
2285 2301 159.64879927492564
2285 2303 355.21646089780756
2285 2310 167.4024795503419
2288 3017 137.30076788216647
2289 2294 182.8182748297861
2289 2300 241.5267344726057
2290 3016 66.09935869861893
2291 2892 107.43144606876743
2292 2293 178.15883475882708
2292 2315 119.67683092855647
2293 2846 97.6093403786327
2294 2300 353.25102456133743
2294 2317 85.29257455873648
2295 2847 72.84616515393056
2297 2313 92.95944003019729
2301 2303 234.51036832718884
2301 2310 167.27474101157844
2302 2317 89.65338939137295
2303 2846 181.1909175107582
2304 2309 84.63411175667524
2304 2312 93.16372666279327
2304 2323 144.79770434652963
2309 2312 177.63575003840154
2309 2323 224.197035704551
2309 3111 223.74338820928486
2312 2323 66.17635268115772
2315 3017 206.5550685202775
2316 2882 53.302529949619675
2319 2321 57.588959817098235
2319 2322 62.94962156185049
2323 3111 34.931530181521545
2333 2334 27.4786865397977
2334 2335 26.457677405655033
2334 2337 15.3294769260823
2335 2338 2.8226636445538444
2336 2337 11.187836155427174
2343 2347 93.88522352246913
2343 2350 44.91666551660547
2344 2346 45.617954730648044
2345 2346 223.06773385184707
2348 2349 92.81132643542942
2355 2357 35.9902680653046
2363 2364 559.7760057580523
2367 2368 242.0092038994974
2372 2377 912.3090410877788
2377 2378 106.0941119254196
2379 3045 384.8437920316755
2380 2382 533.2728169197048
2381 2382 581.105744536853
2387 2881 85.76123561659935
2387 3046 270.9508044084812
2402 2437 254.63992471603254
2403 2936 64.23465869567909
2405 2937 202.19751102402103
2420 2832 1454.950032298952
2440 2902 107.06911376800515
2448 2623 222.40080704657126
2454 3049 285.02117377772134
2465 2466 13.76217699023202
2486 2488 84.19579236041666
2493 2494 125.85549044976662
2493 2495 109.9821684632384
2494 2495 73.95757738008949
2496 2497 27.993333435642096
2496 2498 122.05613537495196
2496 2509 62.85535930686748
2497 2498 113.27921366321758
2497 2510 186.9741744828511
2498 2509 142.47815647984834
2500 2505 43.45140244770981
2500 2508 59.53245313190605
2500 2512 40.88516479219127
2501 2507 65.91162731873511
2501 2510 83.05778069300719
2502 2510 99.94193955116354
2503 2512 13.032170527976533
2504 2508 62.35716312032528
2506 2510 108.2785550167165
2507 2510 109.51903668508231
2508 2510 66.77392535944095
2508 2514 45.49107967806099
2509 2510 148.4334843813504
2510 2879 51.52586528392114
2516 2518 73.24151806405122
2517 2519 31.25076572814078
2528 3178 384.1859516030193
2534 2538 348.8084618634377
2539 3178 1292.5593633999365
2542 2974 40.51603006151285
2543 2545 26.785710590740997
2544 2549 68.54857439810982
2544 2834 55.28876268506582
2546 2549 42.558873260924756
2546 2960 58.26984490526292
2547 2549 254.39197032216197
2547 3010 63.452641079723456
2548 2839 20.163538210660246
2549 2952 123.51161977178832
2549 2953 17.307054075114404
2549 2960 96.23840294125483
2549 3013 126.23294824240666
2550 2837 29.02753891992049
2550 3008 33.88336880705996
2578 3098 90.27109537243328
2603 2604 187.14767703357398
2615 3133 487.51621711424366
2624 2832 1573.8181420286512
2625 2631 301.2169649221043
2625 3184 542.9887499082123
2626 2633 2314.6883178780436
2627 3117 183.72820721535544
2628 2631 645.7278282848592
2628 3117 306.75933660287933
2659 3181 176.64845736840223
2660 3130 125.67516447531926
2662 2670 723.9492100444804
2665 2666 181.2473186858022
2675 3182 302.82133918942
2679 2680 100.06077250685672
2685 3143 261.43340656699513
2686 2699 157.19892597118482
2686 2714 182.82760680930642
2687 2716 105.73630481557726
2688 2691 172.8760444312447
2688 2744 336.9950703076291
2689 2721 254.23293989408148
2691 2693 165.50482845378912
2692 2700 78.31771173310808
2692 2726 126.5503866825619
2694 2735 134.9517452439746
2698 2742 291.78111762609075
2698 2743 177.8528190933646
2699 2714 110.29822829143718
2700 2726 147.02514672821448
2702 2719 145.45639879900585
2703 3067 149.85543181355067
2707 2734 193.5756692989895
2708 2727 64.67761632714856
2710 3172 144.85313742467963
2711 2747 200.34538565039495
2712 2737 67.25759005468274
2713 2738 589.2573472626119
2716 2746 170.67320985527138
2717 2724 114.48037644347677
2718 2719 71.89156678459197
2726 2728 230.8458520095284
2740 2744 207.1114763243998
2742 2971 331.4835072435888
2748 2749 345.01585632241995
2748 2750 485.91633576269066
2748 2751 249.7202425163903
2748 2752 404.7271004537729
2748 2753 549.7239933578616
2748 2756 846.4891558882653
2748 2757 460.88520389789795
2748 2764 2142.6038629975856
2748 2766 828.1187254774638
2748 2767 925.0089131261333
2748 2770 889.3601517030113
2748 2772 691.7175700644198
2748 2773 607.5629125897068
2748 2786 1224.5187831551743
2748 2787 619.8117800966423
2748 2789 556.1587085353294
2748 2795 1382.3044293766245
2748 2798 1222.5009624853687
2748 2815 1026.6780521744713
2748 2823 559.7111661124762
2748 2917 1090.4405243838435
2748 2918 818.9068651666396
2748 3051 1882.9987607796436
2748 3058 1950.8425641968233
2748 3138 1717.637185375479
2748 3162 1012.3243315890483
2748 3167 1791.898578959662
2748 3185 1217.0043981225442
2749 2752 609.1001305928582
2749 2753 765.8592738294292
2750 2751 425.1044038085178
2752 2754 377.2573545509517
2752 2755 905.2927265982394
2752 2756 1012.2733524538327
2752 2757 481.24612710438566
2752 2823 225.20835671671696
2752 2917 1060.0338918026528
2752 2918 441.8510550022491
2752 3119 343.14084669819545
2752 3174 286.77608333577075
2752 3177 964.9796787970232
2753 2754 476.5791916033794
2754 2758 1932.0083807424553
2754 2795 1286.7961749488527
2754 2819 472.9550106687629
2754 2823 439.54640022663756
2754 3176 274.03615602974827
2761 2762 383.8154093034855
2762 2763 475.3621926010515
2762 2783 450.8847586114344
2762 2788 1088.8404809154476
2762 2795 999.1375079673744
2762 2797 1053.3951887517774
2762 2862 271.35262503383507
2769 2771 648.9579642001123
2771 2803 619.1220297248549
2771 3079 614.6648650716638
2771 3085 299.5869387969599
2774 2775 345.34552116760153
2787 2798 611.0488721671575
2789 2795 826.2220860353889
2789 2797 652.0043714057855
2790 2797 525.4975404083922
2790 2798 681.8747808816698
2795 3055 738.9000820523858
2795 3080 674.1068905321167
2809 2861 633.1022563580705
2812 2912 454.5116023134351
2821 3185 374.90424133496714
2828 3039 89.19334102146307
2832 3068 768.5374552242329
2832 3152 877.6843880049792
2835 3011 96.61229965366364
2836 2844 61.6846165571844
2837 3008 46.905403809783756
2838 2963 190.0038858141536
2838 2964 55.660588650382365
2839 3006 108.51832199857803
2840 2845 69.75364061995506
2841 3090 67.61187948271403
2842 2963 115.48376914415188
2843 2994 114.5880138828682
2848 2965 127.43470993347559
2868 2985 73.70937086066432
2876 3005 113.19611905688811
2894 2896 241.82789199436283
2897 2917 252.72630197296942
2903 2962 92.76225485730242
2912 3137 305.6191627001318
2922 3001 27.90033910827873
2940 2941 90.43062381039445
2950 3000 14.599020171054716
2950 3006 55.61072975566414
2951 2996 118.11323144792306
2951 2997 78.33355212742573
2951 2998 57.49828715195915
2955 3005 52.17720681763573
2958 3001 48.471566275821836
2958 3009 18.588508547124924
2959 2960 38.2956640435756
2962 2963 102.29527324313611
2963 3007 111.5389200304145
2964 3007 23.157867641056523
2967 3012 43.140657460496335
2968 2984 38.73787767344755
2968 2987 11.869801813607287
2977 2980 61.42002020273861
2982 2983 28.38406879250405
2984 2987 46.94230120215243
2986 2988 30.884597781386717
2990 2993 11.705356994350936
2990 2994 81.85980314890384
2991 2992 35.79745383121772
2991 2996 64.11427335205073
2992 2995 24.744291582508904
2994 2999 10.341505496774971
2996 2998 63.29074113774095
3028 3034 225.42523788021217
3028 3103 170.00426393081474
3033 3103 131.17411414392905
3039 3104 74.2262431004393
3041 3097 110.60087001552031
3054 3178 1025.138364097265
3062 3099 136.42193650251232
3086 3178 360.27874181412164
3089 3090 22.534831735806083
3099 3101 100.57276890970223
3153 3154 11.028527255583613
