0 1 343.9521176781784
0 2 132.80560754233449
0 7939 210.91137316834647
1 5 85.78984984734836
1 6 129.91058561155145
2 6 331.7093414093166
3 10778 122.20049090663166
3 12310 219.70936802473273
3 12732 144.144193786747
4 11236 101.03185788837094
4 17138 79.1452877766308
4 17144 80.38559477204404
5 9300 19.308402813819377
7 8 261.1858010041233
7 11 68.51104890228059
7 17 142.73309766985145
8 16 356.76465372693076
8 18 46.36936445448954
9 12112 122.50378498086451
9 17149 91.58491870236445
10 17149 76.38591930321475
11 16 22.72881036809076
11 19 314.95659269087173
12 13 99.3815422558261
12 17146 230.08684000866228
12 17148 70.39183964818977
14 18426 71.78183656259449
15 4753 52.69657813512134
15 4754 123.10292300082835
15 4979 124.38628992654911
16 9085 76.31297279373689
17 19 108.9532449590764
19 17143 75.5002610790649
20 42 8.322141469418463
20 8481 167.29800622363356
20 17107 11.06707853173398
21 22 21.01786636542374
21 34 88.97434549448963
21 13964 36.5344849964799
21 17927 345.92279165322736
22 33 41.27170353427598
22 16144 112.99458439248619
23 45 115.67462309886591
23 12218 77.97225629754709
24 35 151.2362577171006
24 13681 52.08288416626399
25 26 35.11429402020246
25 14853 90.64211829882065
27 28 47.92304291961449
27 17466 418.45504589347826
28 14706 811.6847374969957
29 17461 74.43195232324388
29 17777 74.09911681154192
30 31 124.61616710256496
30 39 97.23284656839655
30 40 93.07149044564157
31 39 78.7302497927434
31 17107 115.20343147281021
32 49 128.54326488672137
32 5737 220.92122459503332
34 2643 406.7187847124244
35 36 160.60464503606144
36 37 145.61706709148953
36 44 37.72156375803875
37 17462 48.530175671736565
38 39 18.193060578147815
41 15422 155.10582330936734
41 17117 110.35181407482168
41 17118 138.26205323638194
42 10740 243.44422921696395
42 17107 55.24800912389915
43 44 248.61266085234007
43 50 69.79511503720029
43 7294 662.8356473724904
46 47 175.0656156228815
46 10740 254.5335265748547
46 17106 85.81008872674447
48 6772 910.5300871316359
49 17108 25.99631221488782
51 52 100.95264851181938
52 53 100.96466074757933
52 11219 73.07586722634251
54 55 136.54796058841066
55 56 89.95605362611074
55 4272 74.8448210450292
55 19721 114.22510484837885
56 57 76.48612816473563
56 13357 198.83423023624977
57 58 78.6986500484862
57 3449 199.22116097622555
57 18641 52.97494991846814
58 59 75.8240455951657
58 13221 133.04613533562636
58 13222 198.28775299935745
59 60 82.24581733344408
59 1700 135.58708681876578
59 1701 197.40599295298216
60 4044 134.7151778839356
60 4045 158.09473608586418
61 62 87.94334797406555
61 1119 72.19899480963116
61 1120 71.58998259387602
63 64 97.87051765141294
64 65 161.85845705956936
64 7681 202.93385198737818
65 66 50.278410443470186
65 12191 96.11219011026098
65 15609 94.39889481816967
67 68 77.47467163000141
67 11296 85.14529802101706
67 11297 97.98535103035556
68 69 35.79879461762458
68 13079 117.59410051136956
68 15595 111.43021098093706
70 71 68.44872725756204
70 10277 77.92713320633116
70 10278 162.66294810905717
70 18852 33.65354914198835
71 72 63.42914842183074
71 13364 164.56097141866528
71 14890 123.93917627348505
72 73 48.79153169428419
72 6593 131.45424219263376
72 6594 165.38137855772743
73 74 56.54568291424025
73 13022 399.8237925077227
74 75 98.28936490641095
74 12973 400.5892517182766
74 12974 166.64381679737454
75 76 102.8823742808484
75 945 176.80317590130753
75 946 101.24359584207741
76 77 98.48651977735982
76 11503 69.38787909524683
77 78 124.44339156391686
77 15823 104.50133635062232
79 80 93.30511711797975
79 7156 170.42498733911088
79 16479 266.94723343836756
80 81 74.11673528944415
80 4092 319.2682448926849
80 12807 133.5885267894958
81 82 16.008441291581793
81 2720 132.84626494758754
82 83 59.495926876651595
82 2696 319.87998841475985
83 84 30.458728256215984
83 9860 132.58910060242778
84 85 50.273260032079655
84 5857 212.0917776524603
85 86 401.7987036674541
85 16172 101.95796839215926
85 17907 391.96177725131605
86 3516 35.77928974562037
86 5140 178.4684035423759
87 4264 183.19952699766935
87 11055 315.92221279370517
87 18762 99.36497321119998
88 5548 42.60017212025088
88 5549 91.7493619553841
88 18763 177.16117243987884
89 90 141.54563894523136
89 6377 78.29929923344007
89 10270 77.56189998223576
90 91 139.99881078019473
90 6378 79.0994005681626
90 13843 79.22469772951959
91 92 140.31763848380777
91 6379 80.07171253211163
91 10478 79.04383368363526
92 93 140.9085618817262
92 6380 79.48535525506986
92 12598 79.62592479381644
93 94 139.6609932334239
93 6381 79.46006854160112
93 13844 79.89146871396143
94 95 106.08012088912733
94 1439 82.61172937479476
94 1440 78.87490064137839
95 96 95.5982945703642
95 6382 79.03103595489085
95 9663 83.15730700478804
96 97 140.29843622238738
96 6383 79.27002053841933
96 8812 84.1131790026377
97 98 161.328052024534
97 5943 84.6186931004402
97 5944 78.49899209919765
98 99 20.476671810037285
98 6409 63.30653434878078
99 100 156.43150412024684
99 10834 72.9370568033821
100 101 125.55191488345926
100 6410 83.75682183446628
100 9600 81.56902589621063
101 102 120.39144986439752
101 6411 83.7645807426513
101 7422 83.08415800866209
102 103 129.41113412863498
102 6412 83.6304692573933
102 10504 84.44723165054388
103 104 140.4183023133256
103 6413 83.37055264960588
103 17595 74.56562818364466
104 105 142.81945508666206
104 6414 83.50066309587683
104 13195 83.59407220356334
105 106 143.7569601560984
105 6415 83.63813634669233
105 13846 83.07755251674965
106 107 139.8973012331286
106 6416 83.44981355988722
106 10169 83.5354320207263
107 108 110.68394316309868
107 6417 83.35388621739477
107 12153 84.01557664968132
108 109 202.59032866643344
108 6418 83.40658808457094
108 17596 83.91760636894871
109 110 79.10591897991088
109 5240 114.16746824103909
109 17593 80.19064212773975
110 111 88.57731957633517
110 5914 75.50990086265688
110 16810 59.80241089608462
111 112 125.50608569867651
111 1544 75.88063429999961
111 6401 62.39368707136733
112 6402 62.69577640169529
112 13211 76.23130911136758
113 114 88.05757329560315
113 7878 137.80942124854667
113 8473 28.499338326044334
114 115 17.131625409355834
114 1645 286.88383476936093
115 116 57.60979346530085
115 1640 182.90531865933207
116 117 83.19070608139353
116 13054 152.19320369993926
117 118 88.7194677997327
117 4183 283.8402268431846
117 12005 206.02186743318398
118 119 72.13644947653647
118 4184 226.12269578680858
118 6635 50.84957715676299
119 120 47.28971920521882
119 4185 171.53874301036953
120 7499 219.23387410824685
120 14838 123.28080605464844
121 122 49.39897057949428
122 123 30.1784101368742
122 10214 73.2709648708106
123 124 124.16327142284325
123 10215 403.7059640037196
124 125 37.852747548814676
124 4102 289.17838866744717
125 4101 66.33773704104145
126 5317 47.62763967502248
126 9168 33.6966220882527
126 14257 200.39227870505022
127 13909 93.49687087940424
128 129 155.2151273724932
128 12226 81.18568553079916
128 14917 78.20469194394691
129 7823 77.09155362498613
129 16932 66.46246610731842
130 131 169.73132657482438
130 9383 79.34901598816701
130 10034 28.87244805224526
131 10939 80.66095127527495
131 10940 77.76988126611256
132 133 99.6270199689477
132 160 23.440667743461944
132 12225 53.329219407482974
133 134 76.34283880986087
133 2401 174.3029593936745
134 135 34.69174632186767
134 2402 175.09083840331567
134 17581 34.42514314786054
135 136 42.58222054007794
135 17581 7.261143224429637
136 137 75.93038108091699
136 2403 175.22464971848768
136 17581 42.502737950533124
137 138 76.1723186712046
137 2404 175.51430725467372
138 139 23.255895305065803
138 2405 175.60290303293502
139 140 55.40880710332746
139 6623 75.28139521009034
140 141 75.61126366175833
140 9328 84.14236985064863
141 142 77.85248867458141
141 7020 44.63385950424666
142 143 96.99677052078808
142 8128 75.3585057567088
142 12227 84.96698643394818
143 144 104.16615795051896
143 13775 188.78212626581416
143 13776 45.52807285001825
144 145 95.16304847713727
144 3246 188.35949230613707
144 3247 241.60444220325013
145 146 84.18453478597677
145 2393 228.23388538743941
145 11225 187.90720232354334
146 147 83.55056676505306
146 2393 147.3448739519506
146 15784 188.4538602000387
147 148 83.93927786306291
147 2394 146.42409854207793
147 15518 188.54898109933487
148 149 83.30173897272626
148 2395 146.9799029845177
148 12966 188.6342233954475
149 150 83.54438119497249
149 1738 188.84470921387154
149 1739 147.09591242290932
150 151 65.02167901878192
150 2396 146.40049172138393
150 10266 189.748123006164
151 152 79.34594064676534
151 2397 141.55550600933032
151 10267 194.51971049686
152 153 78.62829315106076
152 2398 140.655470560203
152 4290 180.54314538899126
153 154 79.20691279144124
153 1803 143.00604944260076
153 1804 140.7258143861006
154 155 78.6598543378155
154 2399 141.00985851755215
154 4291 135.81874043717383
155 156 78.22979271267894
155 7015 159.5663563054481
156 6631 205.246321208436
156 19867 31.017181989527387
157 161 42.682399704649555
157 19866 34.56295958568288
157 19868 27.93866960777885
158 159 207.2591771274938
158 8122 75.40865039306686
158 12224 76.51403522285524
159 160 186.21932584085027
159 8124 74.62306986710418
159 10352 75.95115519634373
160 8126 51.250759449195826
161 162 60.22364672869322
161 9824 245.09867247238697
161 13957 245.97083359918938
162 163 60.54051061791339
162 9825 245.14162126811763
162 19106 226.00779241780978
163 164 76.74902160283291
163 6898 245.375749939088
163 6899 234.31843759974936
164 165 75.9093005015846
164 7584 246.01270969058393
164 17963 192.3050075821009
165 166 76.12419844668055
165 8608 245.62821711394082
165 8609 150.96248231723723
166 9553 110.30846490093359
166 9827 245.10891877672714
167 168 65.61335441091914
167 18107 50.673335463963966
167 18548 73.37321315188663
168 3367 113.94639534035966
168 3368 35.540205298742514
169 170 319.0125772672278
169 382 223.40652140489348
169 19299 333.24908769775124
170 171 337.1406018481506
170 17787 258.7876836347299
171 172 187.56151001613017
171 16875 226.33447238179298
172 360 496.5301853203938
172 643 140.00722878769133
173 174 426.10671617714075
173 17083 217.15008876668531
173 18144 525.5137777283904
174 16951 287.58404029640724
174 17046 322.83035098107786
175 364 542.2323766301436
175 16953 439.1431022152392
175 16954 757.1030602983235
176 396 845.8146506765809
176 16954 144.71887707964981
176 17048 920.7900748902434
177 178 937.063508317195
177 216 843.0619552639976
177 16858 171.95857916280272
178 17195 20.803477375596078
178 18137 12.376755442952227
179 180 116.38984842978923
179 16870 574.2626762662615
179 19601 772.5712425920915
180 181 214.96304632892765
180 17805 433.9812571283985
181 182 471.137446423607
181 18606 319.38330300706787
182 183 163.88190216269157
182 635 263.97874275097655
183 184 115.19203088277234
183 16855 315.52384145529066
184 17196 195.24437075611593
184 19247 362.3801451209708
185 186 623.8562063108094
185 572 411.29433675938253
185 610 397.5761910963183
186 511 398.67221644467605
186 16950 202.67865005524925
187 365 484.62805223672575
187 16858 765.8873476715887
187 16952 590.6171840234972
188 2062 154.67485276740422
188 11462 90.565508348508
188 13676 53.3779328286423
189 190 94.92332050957617
189 11462 87.1320001813974
189 11463 245.32064738062957
191 192 290.92141678883814
192 8760 26.26496478784563
192 15062 121.30382247206401
193 194 19.478065774991865
193 195 38.117343731294866
194 18973 38.17173929744688
196 197 280.67942339026104
196 594 1010.4170439234703
196 17810 3182.1506527159486
197 198 107.37560885284651
197 395 115.55342188079356
198 395 63.79980932643687
198 16714 113.55120675164778
199 219 25.83403520540868
199 3831 77.00044926443816
199 7773 78.81431900704985
200 9734 975.8823877282198
200 10711 2317.8260494162528
200 13278 560.4077990141893
201 572 524.2270172876047
201 16340 87.25534771916793
201 18448 303.4717120836136
202 203 249.70321051172917
202 424 705.059894484275
202 16957 560.3844103270122
203 204 422.2247008787265
203 425 245.9892900307844
204 14202 665.1182119140392
204 14203 392.0107398689096
205 8110 78.25778147091451
205 14420 80.90894989001292
205 17336 17.208285788629304
205 17339 238.34564231523115
206 18443 317.9218050422926
207 208 29.50257391057388
207 13945 26.49832926748679
207 17159 21.699839905710927
208 209 68.69944166267364
208 13945 40.31786549799846
208 17159 36.19325377187238
209 17160 28.50543256797128
209 20023 27.39432471944999
210 211 66.34840985388709
210 683 55.76565517884616
210 18089 1811.2175131944296
211 212 207.93114188139796
211 683 45.393240180751604
212 18282 32.86477645781027
212 18283 45.95383870634245
213 3746 24.1958834748184
213 18283 12.679151206038688
213 18436 66.95625422350744
214 3115 82.09777229818754
215 396 782.1669212967342
215 17746 860.7870024704459
215 19250 244.36460752264418
216 698 516.9794932844162
216 16860 617.8578698853696
217 218 383.8265468426425
217 382 508.76286966286534
217 19359 571.6544150298565
218 5036 423.8914837245089
218 16871 662.005906425251
219 220 201.01598200609547
219 17452 94.39851094328071
220 16870 452.6856530784779
220 17767 61.49692790268733
221 222 111.20085263853402
221 4078 87.48283283421323
221 5143 28.621490697012668
222 2710 533.314893189056
222 5143 103.4775635443964
223 522 73.29498256408729
223 17749 122.57607083076758
224 225 555.4181161955772
224 334 117.91243153651163
224 8717 94.09603801854661
224 8718 69.21211009704798
224 17194 234.46410278601687
225 684 753.1334885157299
225 18760 444.02928402171716
226 522 52.17452982226378
227 406 536.5783313942406
227 16860 302.6588408202284
227 16954 726.1077450535863
228 229 55.16318048609668
228 681 54.27201522796361
228 17786 77.56423530283695
229 681 34.17366717143294
229 6998 77.6715263157663
229 12122 84.28292597225695
230 231 355.722226933434
230 232 592.6867703989423
230 5038 404.7339457488652
231 232 255.02824853507772
231 296 145.95645903022609
231 1759 19.593942265247392
231 18136 39.976512741173096
232 528 300.1374427572418
233 234 312.1840081091117
233 677 277.75118962434703
233 678 499.769498416105
234 235 79.27291739372076
234 373 114.17384211996286
234 13114 74.59890318053176
235 374 113.04945945010803
235 3482 182.89193310383973
235 17167 397.02901047613005
236 342 131.92403057082933
236 429 961.5373438237099
236 18404 9.010622381950549
237 1151 77.06966071062459
237 8444 78.5238578468806
237 19030 23.484962841982856
237 19478 69.67251644578604
237 19872 21.744740237427273
238 239 416.9302154560477
238 15506 187.9850675754301
238 18869 105.8857649838734
239 240 160.12961831530114
239 5037 264.99386442461633
240 241 247.95245497644328
240 16877 540.1264720433715
241 281 471.95220447138735
241 5037 669.9865436873072
242 4080 60.26793719082691
242 4275 101.25627788822875
242 5206 71.57890892052434
243 244 63.02034602328874
243 8238 163.64695324872233
243 18260 7.82680423441514
244 13099 56.294459853552425
244 13100 22.667218942312545
245 246 92.71819560409102
245 18204 108.57776091194509
245 19169 109.63477750921146
246 17008 439.3175899759078
246 19169 103.14175688093492
247 248 167.49276297585027
247 19936 161.60467607612662
247 20030 132.87976536257423
248 249 917.6861672885574
248 378 433.1917989907747
249 250 322.9045790624951
249 377 290.971240955056
250 375 564.9852983292401
250 379 1197.6473762532341
251 7598 385.32558877365324
251 13930 220.30868151242652
251 18650 161.6750769540273
252 6861 93.46397644477537
252 8470 160.90520548288015
252 17933 140.19394254759774
253 429 199.14158954317617
253 6859 51.18760186899367
253 17933 111.47166938267878
254 6639 24.14397475399152
255 256 278.98474201468616
255 14202 1593.8442413364853
255 19245 297.6446070535822
256 257 50.90176777677598
256 627 73.86450166404276
257 627 67.22963074081329
257 14212 31.88155396672596
257 18165 29.90042019488944
258 259 157.47953461079192
258 11760 271.84171394034803
258 11761 183.83620506022785
259 497 664.2792631548537
259 19393 596.6839929823931
260 261 292.08581863042355
260 352 392.3792028137459
260 17362 714.7361368330983
261 268 531.4816228575195
261 16864 629.304114263771
262 17391 55.85715868519144
262 17393 85.11755727937258
262 17394 62.6255302547254
263 8206 153.51937506481937
263 17391 45.79646112697717
263 17512 58.317940830357955
264 8949 230.35888165645923
265 266 83.69360011126243
265 606 168.3629938520887
265 17005 32.281321128629386
265 19578 27.34264651036362
266 605 168.0648430860624
266 9170 66.04122327239821
266 16814 472.41789670418393
267 3823 342.7056362829348
267 5041 739.745164829065
267 5042 429.9988979302794
268 270 533.8237561147738
268 472 501.71745446413195
269 387 519.7195943929225
269 434 407.63825972113807
269 18053 426.6302267579199
270 18621 128.92762924077584
270 19388 104.77825591913768
271 272 222.8046271727882
271 553 73.70912327401216
271 17280 294.13493648614974
272 363 867.1071308170212
272 17280 505.5674786484605
273 274 316.70210715020073
273 16341 1478.0646228312678
273 18064 698.1707991425078
274 275 60.54274515982935
274 554 75.78990584250215
275 554 64.5222074766252
275 13508 21.340417949327477
276 13279 173.3313274462903
277 16936 372.5811265000281
277 16937 268.1745089234763
277 19248 46.312293862098436
278 567 1259.2908534792286
278 16812 577.7070951580554
278 16964 693.1388687826234
279 280 58.4263825441443
279 696 64.46237349336835
279 13899 24.98205416435826
280 281 345.9408873756071
280 696 44.00575414252722
281 525 1253.299867725848
282 356 67.98704428381146
282 10840 8.2534813639697
282 17419 77.00384473635144
282 17420 109.69746888227021
283 698 241.4474874480182
283 5038 838.0209017792052
283 17419 300.56259811572534
284 14199 599.732429573378
284 16957 276.93720954474253
284 19253 660.0351737807954
285 440 50.00496322434139
285 15540 103.78924231932821
285 19392 85.80299755256816
286 287 308.48439093195645
286 5040 1084.70525314126
286 19601 709.8908338133895
287 621 781.2883317670025
287 645 192.94290154184617
288 1827 1138.0127730693966
288 6821 261.16684522160887
289 18079 138.91812160028408
290 333 125.58608250725855
290 19793 224.93997609616162
291 333 95.34440624413682
291 5966 175.68528730347322
291 8717 68.36951786882722
292 293 44.59201781976553
292 698 346.4042068349852
292 9232 74.73833271318614
293 17419 258.7709901024463
293 17956 72.07671562257342
294 1982 75.12649854651197
294 15955 47.48080123456762
294 15956 79.17366557072106
295 296 313.5159169970849
295 298 578.7258132413924
295 17072 402.44822161827676
296 297 46.18235450727665
296 19262 41.48924157538992
297 298 237.96265029875545
297 5795 159.3270224819199
298 345 255.54689477558793
299 300 181.26797288562005
299 534 360.89634974388895
299 5040 176.60466790108995
300 449 354.3897856184666
300 621 366.38999726004664
301 302 298.84346536336676
301 17071 185.10840345809189
302 362 101.10999786432318
302 14992 71.58364858540317
302 16965 287.6402277052837
302 17776 77.88033835219039
303 13509 229.05321285683405
303 14994 430.5671740835326
303 16765 501.1942541471303
304 305 291.40221299674437
305 362 72.87374987099665
305 17796 54.71307221099494
306 4584 263.9789254825722
306 13281 412.56170682531587
306 18065 82.97099055273563
307 11019 82.7577542859816
307 12726 240.40838744952728
308 2289 263.31186209965176
308 3838 179.8156483021952
308 3839 43.412600575075416
309 310 27.009295457838345
309 16880 94.63232089264562
309 16884 43.62097455515956
309 17273 393.1191812056047
310 311 112.48165285421196
310 4836 384.5203741353147
310 19939 7.713821479891116
311 3167 32.79034909643562
311 19939 110.25889018738309
312 313 68.07125258953982
312 419 257.0837264597891
312 16876 402.23007963603163
312 17429 26.024578195158078
313 17414 23.787238822826577
313 17429 60.3291782991341
313 20150 61.376640542818066
314 2844 78.91116504004032
314 14828 78.99818756629496
314 17772 36.90925231822281
315 8874 593.7868771421063
315 12110 599.1429523700648
315 18620 975.3170976842147
316 2282 142.3720905374094
316 7209 99.31787859002682
316 15559 161.98483207873974
317 318 128.96856495866308
317 662 162.37024880542467
317 12957 124.59851207032833
318 663 178.02195429764328
318 17748 70.4246834729111
319 479 94.43963204863982
319 12502 76.66155074570469
319 16097 77.70368038282434
320 1698 107.76684048698142
320 4564 79.78284370954401
320 14717 157.0947610793553
320 19449 357.6283309949459
321 8046 169.9897948456532
321 12541 75.01508966414002
321 12542 74.33811481381312
322 3571 170.31987666909535
322 7505 73.20231597189033
322 12541 78.57350898799484
323 8409 78.67131390999874
323 8410 158.2700132544907
323 14728 150.70751976282082
323 19240 366.3057325736995
324 2755 284.63175327620587
325 326 52.5920590778613
325 2959 1960.2652383729735
325 18954 65.44321064314062
326 327 113.7356215565147
326 18954 42.648800838894815
327 328 36.92956496438128
327 17951 53.91289376816518
327 19889 46.107163602682036
328 17951 31.685522496763518
328 19889 32.738576747416325
329 3338 316.69637432358945
329 12239 48.863127824032766
329 19087 73.89226034718104
330 331 263.32173874251777
330 484 86.43634765069955
330 11948 50.58525222478461
331 332 52.05406785230953
331 20129 27.790628739727797
332 3338 200.00072834927113
332 11949 225.85662373293536
333 3688 132.2729254105644
334 684 436.8368172893837
334 17194 254.7974086034975
335 336 52.74840170228643
335 397 267.63293948600256
335 19003 46.55607828110306
336 337 115.62362863060352
336 17337 200.6597394889572
337 338 44.85430405865725
337 509 59.462673537932446
338 509 27.239572655055365
338 641 78.46841967716274
338 11286 81.81728140502518
339 7521 79.81630559968728
339 17338 78.75196548530472
339 18906 54.958143975038396
340 341 95.33015851962764
340 19118 21.992445052463527
340 20087 107.10381693070748
341 342 32.69247202069934
341 391 31.874092235715228
341 19117 12.29636326512105
342 391 43.80524841505419
343 391 105.27399140212866
343 16869 130.73974846476162
343 19478 169.86495815567034
344 416 37.9268378259433
344 17416 414.25364619277195
344 19872 135.479244186988
345 346 294.8726723411992
345 16862 289.65117968799245
346 411 51.1504036732036
346 3086 93.74626435087463
347 660 24.76373757652612
347 8206 153.81048059153318
347 17395 96.63959544829846
348 4668 178.69197093225839
348 5229 91.3977215641406
348 9785 333.9811922388859
349 350 70.8615645244915
349 632 101.13023925453625
349 3056 358.25708485584175
350 632 141.66065289231278
350 19573 166.4378679618984
351 352 451.37059350780646
351 400 768.0972426213292
351 16864 515.6944990909008
352 693 106.17287481141898
352 10138 63.83264849880074
353 386 761.0519390349968
353 16864 722.9985713319315
353 19273 414.97975921030974
354 1589 401.240126515829
355 422 314.181471151742
355 17072 792.0079060353884
355 17956 426.4754222270886
356 357 78.73329579709744
356 8799 8.775747390167169
356 16861 397.2127113816621
357 17072 429.94073884858284
357 17424 289.0423205652603
358 8338 79.57237890222557
358 17423 12.619802329550796
358 17424 41.06936721687871
359 4247 81.44468751532237
359 6285 88.29540224091775
359 11178 79.3916507837806
359 18434 34.4999434551535
360 18144 410.78281187674594
360 18434 509.75552743027384
361 9026 59.29582170418158
362 363 344.70505246568604
362 15125 89.03054009553553
362 17796 59.77905070180274
363 16343 552.1930505239736
364 365 730.7640995982733
364 16951 195.9325945647616
365 19042 187.2778545574923
366 11711 78.67691643283173
366 15721 80.45624271483648
366 16950 281.87806064356613
366 17979 78.83974020340327
366 19425 79.5881106208618
367 9431 132.2034506178085
367 10968 82.85158089202764
367 16187 114.23411733515381
368 4585 262.59207883254203
368 6424 883.7348877109933
368 14425 85.49177864229586
369 2018 218.83347632785305
369 13280 425.0102022480688
370 3845 273.5646068403603
370 17028 80.24373027652922
370 18174 78.08121945661314
371 10328 74.52762665320228
371 13342 323.24749402790775
371 19902 273.8823958108295
372 373 524.397908398075
372 424 289.7802778581877
372 16948 286.5138739411982
373 374 78.87737708677592
373 5434 60.482091681581736
374 375 371.2231684830574
374 9049 234.82017932158973
375 424 683.2686175790982
376 633 833.2690930538112
376 16964 449.2200272382652
376 18909 861.1902041277283
377 378 186.92306534210127
377 568 157.82319365144008
377 18337 63.153592467486774
378 379 402.9078598086194
379 546 646.1821244578581
380 381 36.41907753872998
380 11762 36.397340978979756
380 19390 123.48239997546243
381 6601 48.50836745154515
381 11761 684.2023553824738
381 19273 131.50440091551937
382 5041 533.5420193776507
383 480 17.000228834639255
383 4838 89.17404806895027
383 17032 136.48225670473914
384 513 39.50273219637559
384 514 40.593644408999516
384 12262 54.66041747796023
384 16934 95.01151806346645
384 17158 21.471930403547752
385 513 440.0983390572126
385 564 1216.2375252328463
385 19239 1299.36622540483
386 387 604.1235189295805
386 9863 150.1045850240041
386 19388 10.805589267928934
387 5039 292.90966417743965
388 507 214.04642985797625
388 17006 15.03847452580278
388 18206 285.37684272158407
388 19212 149.49507736302718
389 390 153.84198214001324
389 2479 38.46435260884793
389 16943 74.73774913750033
390 2480 52.58433023080273
390 19191 470.0666940911363
392 15239 139.128311906244
393 394 298.3550013835685
393 495 2166.6384075116716
393 5037 630.6983707774001
394 395 350.8754199410654
394 18869 263.77196753040784
395 4095 208.85011573819264
395 17231 11.80434709482768
396 422 588.0566006661601
397 449 48.39132162275969
397 4922 19.90034919263781
398 11729 107.3499859533415
398 13073 78.85853390829509
398 19825 79.0900747881218
399 504 120.94062781907883
399 5756 36.18379751163174
399 9737 70.19624808981263
399 18060 49.12329356780662
399 20118 19.593430730176813
400 401 418.7120260740685
400 16862 783.5361759755217
401 402 378.3655561028428
401 18185 913.8797814956887
402 403 81.08240873707985
402 405 70.9221101503846
403 405 43.49896411851742
403 14918 545.2330870181731
404 7675 145.53623519589752
404 9745 327.376308180401
404 18806 59.92929514531901
405 16129 80.81487118128288
406 543 753.1952462540535
406 17888 274.5637891633879
407 7342 24.99611499788302
407 12756 170.31172006080072
407 19335 40.10501323405601
408 4037 61.29299881197333
409 17449 25.788733830058728
409 19598 225.2194614923353
409 19688 2417.7046195866697
410 2960 70.10215597826353
410 2962 123.57617813729887
410 9144 168.4267026522966
411 452 66.15097462110367
411 16862 316.3217056549044
412 6371 194.7158606622023
412 7274 85.2526209915354
412 8918 103.51311192544435
413 4924 70.52213952298277
413 13417 72.22126303537821
413 15648 155.36291170463636
414 415 268.11702204944163
414 19033 340.90169609339114
414 20086 110.30511392246034
415 7771 20.111347619128086
415 18086 27.658296998134446
416 465 271.0033596165252
416 18403 72.41243016232723
417 418 41.47946795739766
417 442 33.22572681211954
417 18098 5.288432108957482
418 442 28.2677875536994
418 16865 158.69940320222216
419 443 680.5695285089744
420 13838 467.2087632082295
420 18194 830.6691401250282
420 19250 268.2143976002107
421 443 1425.2969893629406
421 5043 483.1288913551613
421 17415 281.82108285222665
422 16861 268.99514822213484
423 6494 618.8406432000368
423 6495 55.194092939042285
423 20122 124.30054885829834
425 16948 132.79323805296104
425 16957 575.592243804174
426 14203 205.71148854981834
426 18159 185.07103560876422
426 19057 181.3030415399177
427 1237 549.5811192710999
427 16710 68.42915307812059
428 16102 423.730177837554
428 18031 85.47885945938222
428 18413 142.84392273362084
429 430 195.42275280146643
430 17091 1016.8095969241945
430 17477 275.6545307192789
431 3595 83.614133062132
431 3596 85.5381631588451
431 15965 398.58187511421335
432 18200 11.568950546207128
432 18201 434.64139195296843
432 19215 36.34122736192409
432 19371 487.6891599973988
433 444 291.6133301790436
433 18200 523.0844559892669
433 19764 606.8457364639115
434 19388 180.52979688943333
434 19389 275.78119928286065
435 693 39.68551618883709
435 17362 351.44633480040056
435 18098 101.78441478526427
436 437 618.4564562399279
436 16876 387.1710920983463
437 460 1809.0716647789689
437 16876 216.19223700433903
438 9344 67.90436431469215
438 13063 301.44448429034867
438 15860 108.01816180587517
439 5203 75.85214779287398
439 13550 79.67188651356672
439 17083 22.158450762309414
440 12313 614.223376686436
440 15540 90.33309004381987
441 17091 186.8010023496744
441 17094 358.12451255171317
441 17884 22.918477897274748
442 2837 42.31726231592499
442 19344 182.46981010645942
443 20150 491.2305308825053
444 19215 376.4998213707329
444 19371 606.2336795687507
445 3158 369.40330285055956
445 3344 45.5432939069722
445 15314 74.32903979736564
446 451 50.438723421015816
446 533 102.9971320940775
446 19029 136.49692153241588
447 12717 758.5570410094286
447 17008 341.64836359084984
447 19362 333.4863942433867
448 2111 80.85028459998752
448 2112 40.40719708091828
448 6752 39.674854002353186
449 8237 335.4398214569887
449 17435 199.0101997856014
450 6282 78.75611998080659
450 6283 82.57641995997324
450 14586 87.60172849217167
450 15037 83.4580575880022
451 981 79.29919959226987
451 1778 66.97050184222107
451 19727 17.243270310292058
452 529 60.28893633262823
452 16863 293.4646716476979
453 454 86.52478697816096
454 12959 170.6654244548586
454 13928 43.495649385437034
454 16383 33.27796383962668
455 12959 294.5869472376944
456 457 53.56250215803682
456 560 36.77592448470687
456 18053 288.00582494855445
457 560 46.18537107841293
457 15327 136.42351750010135
458 17334 13.988661689732613
458 17337 167.6338021071663
458 17343 8.705610319917374
458 19003 191.82468412833376
459 2821 125.73073583122607
459 2822 380.94361808478914
459 9063 133.35182341454282
460 461 244.24973732248893
460 525 579.7257123775204
461 462 30.964787438079696
461 526 30.85665301757058
462 526 35.08745974685459
462 6954 242.39344704268692
463 464 45.01301462921358
463 10900 109.66736923982732
463 16747 17.329061768281857
465 17778 446.6253993893097
465 19032 236.98022736054398
465 19724 8.887002383502235
466 467 574.6853316460849
466 19253 1094.4862219075424
467 14200 1097.131394773404
468 19762 1011.942324643388
468 19763 1306.4548504521867
468 20031 353.73052415681616
469 470 624.4424017257787
469 17886 180.09336228037412
469 19762 463.3085669366904
470 568 51.041006905035466
470 1521 115.52826597586093
470 2880 38.95394123090171
471 11322 72.44852177459174
471 18909 511.1464590915213
471 19252 543.2166929822129
471 19579 323.2317468151206
472 473 158.88517378671284
472 476 351.851531645169
473 474 91.97777030367004
473 3986 156.03888874703136
474 475 97.1826902263216
474 3986 106.06650926538993
475 547 11.052458085935008
475 548 223.1751591828157
475 600 54.900555748477316
476 547 339.72743650128075
477 4317 25.16464027090803
477 15725 79.3639518640529
477 17272 79.25929898282408
478 608 415.97423127735823
478 6500 276.79367721642075
478 18760 1226.745286804804
479 3994 167.30236701392798
479 16935 556.2134471984665
480 9893 80.49521611354723
480 17940 74.1252379758358
481 16886 60.039557995245055
481 17273 643.0356786369024
481 17940 345.32953742477054
482 483 47.817435498877316
482 10546 241.27033575339698
482 15198 220.04625675300287
483 484 64.23546808022137
483 485 111.50663439113097
484 485 91.39124461607157
484 3458 70.9111827287961
485 11947 42.590451422344714
486 487 51.06910774494145
486 605 55.31264878877798
486 9171 79.02278633055528
487 488 78.13095660372987
487 9171 52.675635646909726
487 13817 70.25449101153627
488 587 92.12150106738551
488 20138 38.141418624930125
489 9441 282.8923896201186
489 10137 75.05171071358184
489 18100 759.7439580681457
490 5041 1783.1730332885486
490 16936 407.3175925335141
490 19248 79.63858381763248
491 2838 56.120836624202894
492 493 26.724299583033407
492 18194 245.40282531509027
492 18195 35.91502053964367
493 1880 80.38302810484325
493 11723 80.83705404098278
493 18195 27.272179614085243
494 6060 86.87583131781047
494 11533 79.8384626676564
494 12537 101.7328856202923
495 16871 718.4733183855132
495 18085 138.4056504190504
496 11812 160.89659750891397
496 18084 22.192433971174413
496 18085 25.893017088272007
497 498 203.63783654123608
497 17426 216.68699458316567
498 3305 59.50793808573305
498 11760 243.69301120357386
499 3555 249.73790824522678
500 8853 46.390939890515625
500 8864 71.50589081776741
500 14382 28.956829992557246
501 1746 163.96214406104102
501 2171 933.3614814050309
501 16984 148.80487005654703
502 10789 81.49646550841328
502 14727 161.72428399966702
502 17047 76.5353632759123
502 19242 225.8055328209598
503 1828 83.28662419753842
503 1829 93.85758439356148
503 3313 313.72879302693445
504 527 523.4129380472775
504 5756 108.50986589643887
505 12956 41.114929085414964
505 17748 44.127670392599654
505 19985 591.3508090409781
506 1270 299.7433084327914
506 1271 406.28313976089333
506 3313 194.07229427802295
507 608 41.79553043634071
507 17193 345.62191557380993
508 16964 767.6297694174606
508 19253 1237.9047780273918
508 19371 790.9491076987714
509 12042 52.43900960569198
509 19594 157.516296715635
510 1988 74.76583752216067
510 9603 80.24949192360866
510 17422 88.98074486008437
511 4241 77.91014394860248
511 17046 77.32095632264672
512 610 80.13855437819437
512 13551 79.72012094515065
512 19428 76.87842472830717
513 18848 47.312924972803316
514 9729 158.23623223974508
514 18848 10.132755275287469
515 9529 56.677021661358516
515 16958 104.03626930949538
515 18971 20.57955648192216
515 19216 30.579468947150495
516 9530 82.57291582953225
516 16544 12.798513065481776
516 18971 84.02904775779096
517 5647 90.11293249869371
518 541 8.771764562311672
518 12688 26.393204731245717
518 19277 249.9362716407315
519 1393 273.8636408131274
519 1455 151.4350054626836
519 8713 30.438209855634813
519 10500 158.4064912061442
520 592 99.02916781693006
520 18447 54.400400635412666
520 18896 102.93245868537258
521 3280 901.2893632295762
521 17012 690.6786591417654
521 19348 34.99481554901414
523 3924 148.4100666011855
523 5283 78.69846715867972
523 12585 48.52210787539491
524 3897 39.8225178902099
524 6783 39.792227631744325
524 17088 35.428640816341314
524 18950 7.680068366545759
525 17088 145.54023124771675
526 4065 29.51135689492916
527 2113 181.88712920309183
527 16953 347.24990878268704
528 529 293.86831500086737
528 16863 290.7372519843153
529 2003 31.012152048821452
530 9525 123.84780444742509
530 9528 121.51235014109244
530 18869 29.885069812761994
531 13517 13.13113827983484
532 4206 99.37278838342358
532 4207 411.66571220789825
532 19373 121.34761356410822
533 5193 208.55836610966526
533 10006 499.7519453040828
534 4922 261.2770654153975
534 16942 253.0884068308039
535 6273 367.8921193375834
535 17152 76.84418874474373
535 17466 443.4999801838246
536 537 51.02793077508281
537 538 31.564469433646213
537 12218 186.31327689926422
539 540 231.9867936656342
539 14201 640.1290896298998
539 19240 1126.1964335031605
540 562 173.58968708648652
540 563 96.67965974895222
540 11929 56.69912015526989
541 10918 122.21331414872091
541 18294 444.04656161228326
542 7808 140.4456234578228
543 544 196.60721986127638
543 19249 338.1195481367984
544 3167 273.06240271167314
544 4104 101.67128788884588
544 10131 78.91000144480768
544 11723 147.82828882809312
545 671 60.218802118831775
545 1892 128.08078167959277
545 5714 98.58702919467359
545 18614 85.31809682874515
545 19079 8.952786467935626
546 16813 1164.76173031998
546 19013 454.924424217182
547 548 213.64730389909644
548 12847 68.35833776935335
549 2579 73.72503403326995
549 19210 13.65144493398416
549 19615 34.585834798418205
550 5043 319.4957534541732
550 19615 33.44742978536385
550 19616 21.115258613548644
551 552 423.8537200772439
551 18760 324.1300341096215
551 19244 740.4804726061932
552 17006 164.4531655156067
552 20039 279.39828126925266
553 13508 29.560421422905982
553 18064 309.164347315225
554 19041 141.4138356574686
555 609 232.88626789729065
555 16956 531.7378336250093
555 19764 736.1230290902071
556 3428 183.87551557590965
557 19744 48.881583266026105
558 559 198.64635129539786
558 12846 141.2084563020155
558 18099 59.18392695528803
558 18945 184.86600786787525
559 560 113.01289037075937
559 16796 257.8305701436116
559 18346 195.82648497200012
560 573 45.151300150269506
560 616 69.61634879485047
561 4241 101.16256325484454
561 5663 85.28762605255821
561 13191 53.06967219458828
561 13550 80.49393658531648
561 17046 90.89863650883612
562 563 77.722095548465
562 1890 200.14533991607829
562 1891 177.46703983633932
562 11117 69.43262281600983
563 564 231.7067274049358
564 19124 107.31390492849167
565 567 805.4494212423994
565 677 543.3004137754995
565 19251 687.0832182990667
566 567 385.56112707634674
566 678 194.5363504717456
566 19251 265.3544283423148
568 17170 449.6988142776204
569 8204 382.6802027959075
569 17348 212.00615647694218
569 19029 241.06273724045624
570 19051 444.33499198083763
570 20032 10.271374185355407
570 20033 317.93022927149343
571 4654 47.19263973249315
571 4655 106.17709359495046
571 14201 248.19336000871292
571 19246 264.12591669071423
572 17196 507.18789528467585
573 574 240.7078654043537
573 616 82.65633395843719
574 18053 440.06517518576874
575 6947 157.92048335508403
575 13452 130.04791411321435
575 17401 202.66456263560104
576 6947 160.0021238312786
576 13289 402.48334830589806
576 17401 204.5655604194907
577 578 46.485135558023075
577 4870 36.30637508087763
577 16942 21.208557558417567
578 4870 27.428002903627416
578 8239 52.30689887276618
579 9785 873.7670025557888
579 11402 341.28718491245473
579 18078 1603.7079029303018
580 582 31.724718011442086
581 6178 135.8544386051566
581 6179 81.03804085882464
581 17974 33.61336775850657
582 8183 135.369620904846
582 8184 81.67105235031632
583 17795 315.9712935855023
583 18045 103.77484428990624
583 18046 12.929441488041887
584 17063 64.50454951472472
584 18046 33.799954129930214
584 20144 51.95076697863364
585 7598 163.84865325950128
586 1233 196.79936955118825
587 5021 90.64495800542515
587 20138 102.49151004194246
588 1908 130.32879207850442
588 4655 46.6915011276037
588 16996 43.33443243403636
589 16480 63.948323072735796
590 1570 88.58893715052507
590 4686 24.648560827799386
590 4687 78.69516058557492
591 5898 103.16624471253834
591 17094 172.67965625865196
591 19788 99.01500983964007
592 3176 39.56427212600069
592 16855 26.524345589151547
593 1120 109.181549022742
594 601 575.6955009861942
594 16877 354.6307696250159
595 596 45.29792357802272
596 12366 62.41605316057285
596 14593 43.3385897819565
597 4498 58.37946603011426
597 10377 202.7321179288548
597 12375 76.05174809574153
598 11995 130.17078417411156
599 1263 105.89157772482376
599 1264 203.56495331459215
599 2460 139.48360069435284
600 9700 44.564717284397624
600 12846 304.9072986357087
601 602 207.99509883100706
601 5043 1809.053480940761
602 14554 35.50823660053108
602 14557 61.494064307022654
602 14558 40.33101870900306
603 646 79.08718825702523
603 10407 187.8610146681062
603 11021 88.2896880625618
604 605 448.950033063194
604 19763 923.4745588272984
605 606 83.09273529536063
606 13817 113.15936210156994
606 19763 401.2904969476495
607 608 469.34766350665234
607 17193 413.12463421856813
608 609 15.261148745345587
609 17006 253.72708208256716
610 1790 76.82597880953904
610 1791 81.49207043196712
610 11711 79.40923196723665
611 16796 185.73017954809046
611 16797 138.83268709740884
611 18346 256.1500521387299
612 656 80.2786659911558
612 6563 82.33305143485671
612 14695 79.00053716656464
612 18606 27.34184415900978
613 3103 115.34845892637111
613 4784 79.01789585656105
613 4785 264.19045131364277
614 9840 1700.4296426796463
614 17380 284.602533047288
614 18071 49.779173150318805
615 18082 62.225269964320816
616 18484 74.03202103502984
617 4213 142.2220605901523
617 4214 91.4441244587213
617 18400 66.81410302745293
618 983 55.62946395773614
618 984 46.27747489054289
618 19710 77.3477226974242
619 10000 97.44032209212682
619 16444 130.77020992132822
619 18388 101.3829493860887
620 2444 149.44725358514992
620 5556 77.46573961362026
620 19923 12.810014865168082
621 19241 698.8438068195607
622 19185 116.54525461518745
623 8458 248.87157789490237
623 15359 319.81339679640666
623 17448 218.28080566977886
624 5371 123.1610546485495
624 5637 190.61300906666276
624 19245 96.64392330494834
625 19005 463.93124096297925
626 4549 421.60798118457075
627 10115 29.057298658999827
627 10116 42.44249750362377
628 4401 79.46097949015447
628 6335 76.57470498949056
628 6336 80.87605068136352
628 16943 48.00353531314461
628 16944 125.08102056307938
629 3844 274.63749376603016
629 6655 244.71948129935777
629 15150 186.62741456381065
630 4261 78.45710812977423
630 10616 43.778019002402694
630 10617 45.79187804736511
630 11064 1114.2444944799927
631 3572 244.90377413695984
631 3573 112.2130073624133
631 16398 109.21255298899146
632 15198 372.47307938642666
633 634 348.4996861185725
633 695 451.3534763843536
634 11077 250.80471976175983
634 13308 390.3371172549653
634 14715 54.699561376303976
635 6542 177.80778934765064
635 9485 52.0877760106569
635 14696 42.466376687152376
635 18606 121.4683229481725
636 6193 157.1967724156643
636 19289 158.05405689307815
636 19292 78.78537702379819
637 5117 212.23970258871145
638 18569 63.50167576734134
638 19859 53.757322041838925
638 20139 43.4878604754689
639 2830 143.70091661964878
639 2831 95.91993215857934
639 9073 83.36381360282144
639 20139 48.66639745835958
640 3579 117.23386578922425
640 7490 62.64376803320065
640 16012 73.68790090580035
641 11287 81.74084876521846
641 14418 152.10531977679807
641 19003 167.55023261666645
641 19558 78.24688875771605
642 16342 1125.6441012857742
642 18144 715.0549513628879
642 19247 154.16730512426165
643 644 181.26500434313664
643 16340 613.3741025332534
644 15041 80.687358889468
644 18622 232.51108926015704
644 18896 78.68314302058914
645 7314 79.36597682031366
645 14483 159.1994267273482
645 17435 42.65474420255036
646 15451 201.14545022746586
646 18247 91.09023101579558
647 3174 208.23017189357358
648 649 54.774087213919955
648 977 161.44228473379826
648 6657 278.28501507704556
649 978 133.1476972976459
649 15846 28.03210875395363
650 2539 97.8505708625091
650 2540 63.414556782102935
650 4003 89.53810532862377
651 7825 163.02144808673097
651 18418 27.648957195128318
651 19069 29.378134866682387
652 653 175.91364034435318
652 6744 71.69613278218571
652 18418 178.46666270520052
654 6837 99.64104114139434
654 17026 334.96369498620925
654 18976 24.30064716273353
655 15395 46.1263354636226
656 16875 135.20838572942972
656 17787 23.97292418964257
657 5508 72.57947773135481
658 10210 44.62291647599622
658 11755 54.36909687332829
658 18224 141.5720210764973
658 19774 61.450145517250974
659 11724 81.46246888247215
659 13694 327.0764642146469
659 13838 79.51737311776847
659 17888 48.4104253746632
659 19335 31.220562661487868
660 8205 42.309850432344135
660 17390 155.40184153070186
661 3977 130.08477097322515
661 10667 130.41182720044534
661 16409 437.06253721144924
662 663 298.8755589822874
662 17746 1106.1751758776309
663 9233 203.4679243811707
664 9840 298.350025274327
665 13807 122.78139390304582
666 988 135.84821563601005
667 16872 62.6838137391524
667 16879 41.51476856631061
667 17809 26.42540354710713
667 18034 342.4841174461373
667 18035 105.13749748246937
668 13428 69.29077059642836
669 3134 74.1767646996762
669 6199 83.0410856061102
669 13968 160.1837932158695
669 15016 77.58656752774519
670 7879 50.632437498668146
670 10783 60.84791606660336
670 19372 110.96677992376576
671 4655 99.32014450086174
671 16996 190.66844723681345
672 6932 140.37855592205167
673 6932 321.862676226651
674 2582 41.84539600371328
675 763 78.02395583032312
675 10775 200.0824971540286
675 13953 152.07545302155327
676 9235 117.09760712479331
677 17167 509.59673342074177
678 13898 62.411712794695916
678 16948 133.3142729497347
679 5468 48.520701399032454
679 7380 162.16844427982946
679 14202 203.4581474995462
680 2843 163.06013172487357
680 2844 80.34321050230557
680 14828 79.17295932260407
681 9564 39.795368070692135
682 14929 94.18489993636977
682 17825 165.36239818160573
682 17827 10.04420979194246
682 19826 48.2931332091529
683 11363 184.54501004161455
683 18282 267.68795584542795
685 2528 263.43642589933637
685 12576 62.375922840446314
685 16055 67.38247607630086
686 4559 76.05705632503332
687 688 118.86619098014877
687 12716 118.92611502634674
687 17910 276.16955198730096
688 17410 211.16259482739477
688 18202 177.40084776141765
689 8138 37.35126162399332
690 6160 43.72208569978572
691 3279 84.99246933571995
691 6657 76.00259357125314
692 693 499.19168875657317
692 5039 898.1471391680318
692 18185 1030.5383825510944
694 3167 133.8747501498931
694 16884 21.3110661835764
694 19398 70.85718165977735
694 19939 41.37441519726868
695 14203 970.2989022370139
695 16812 896.7224381985758
696 13205 169.71114663140762
696 13903 38.99660327628311
697 1014 73.84327001329163
697 19043 93.92416410872542
699 3173 253.41873993451955
699 6376 65.47969454761534
700 702 135.61209149548066
700 17008 285.50507280103994
700 19088 41.55435733224964
700 19362 39.87849664115941
701 702 112.26488990936883
701 17911 158.1550511081003
701 17912 302.4499799172452
702 12234 110.17351253451318
703 704 90.93301890846047
704 1811 351.0859602015766
704 16070 54.701198738985376
705 706 56.55102158722202
706 2393 71.00091529266398
706 9546 209.19098536381276
707 708 70.24200336915864
707 3378 164.62213050888533
707 4437 118.7616835486785
708 709 48.603135359704474
708 710 229.30806310931115
709 710 57.5031115959572
709 1355 64.6968532816511
710 711 41.25536683607397
711 1473 243.6364563229269
711 10950 141.25760423726027
712 713 114.74973114536112
712 8964 175.40945413709116
712 19010 272.1024863250843
713 714 169.051640812799
713 4206 115.47139644631436
713 7491 253.2708190169748
714 715 100.62342968150429
714 7491 100.06835532904103
714 7492 82.88364821274696
715 716 100.10248097270626
715 3615 108.19562824185954
715 3616 199.5054070458326
716 717 100.54320690996303
716 13157 200.665080471408
716 14657 108.17506002901638
717 718 102.12501506977537
717 12939 201.30974813905294
718 719 119.24956671967854
718 10403 108.24056516598392
718 10404 98.79727506372153
719 720 80.51917064269134
719 1483 297.61477666367364
720 721 68.40782072012608
720 15182 342.76837812097415
720 18563 401.12987378264773
721 722 26.416567671035267
721 7471 56.33468658672492
722 723 55.564525120748584
722 2751 250.26351979553922
723 724 95.9626164292438
723 16756 134.96669511438262
723 17495 195.75694083541993
724 725 98.38774788670268
724 5905 291.1628392246914
724 11960 198.8267182125718
725 726 87.74589615844373
725 5904 197.90472756761082
725 5905 97.57875771811412
726 727 75.93635250402723
726 1460 297.5671874983215
727 728 87.41211151303135
727 1461 297.77274983569725
728 729 92.92198014793034
728 2933 120.48931246969737
728 2934 101.65552189554155
729 730 77.48392504864125
729 14653 110.10164157988054
729 16080 118.06912633183696
730 731 75.07443661463124
730 14654 116.05272319050194
730 16834 157.77930255796463
731 732 77.90692450641728
731 14600 115.35972377816226
731 14601 82.26112385458842
732 733 75.45926449697296
732 11876 115.03651586469917
732 11877 85.81430601882039
733 7689 114.02173819377202
733 14655 115.24129199449413
733 15126 83.07101964525124
734 2308 78.95857234710026
734 2309 80.62784171905818
735 736 109.46354568446523
736 737 215.8577195575047
736 1868 98.78613325278536
737 16226 101.27008266104768
737 16930 81.20132500280491
738 739 83.976834272764
738 11040 80.70187016166018
739 740 80.397185220304
739 3385 65.79000453247572
740 2754 182.08403357021075
740 13156 66.50299388053472
741 742 159.0855551519597
741 6865 80.04934685049736
741 6866 78.93781537127163
742 743 154.2898460590345
742 4968 79.22871389883089
742 4969 79.29554762127346
743 744 155.4061342679799
743 9461 80.10713075333967
743 9462 79.04309797686214
744 745 154.36311441094875
744 11435 79.60493184819
744 11436 79.0041131438825
745 746 155.2510294142198
745 10239 78.72724582056613
745 10240 79.67215682273175
746 747 85.6803104307866
746 11643 78.82641703875487
746 15883 78.85957805476522
747 11644 78.94844885182617
747 18959 12.055596503696574
748 749 154.83620325805805
748 9291 67.76397498450335
748 9292 67.44027997732682
748 18959 68.29916651913848
749 750 155.07757125004466
749 11257 67.77368393673181
749 11258 67.56215497015829
750 11645 68.47403216633793
750 15884 67.06754448602378
751 752 206.36407473388195
751 16483 94.51766260252566
751 18275 135.54294971513548
752 753 105.03826874906875
752 802 64.59740130190816
753 14104 152.96234240739585
753 17557 391.5523051279208
754 755 289.11468417714775
754 3214 76.15794764490686
754 12998 76.16909384770489
755 756 242.56985395658396
755 3216 76.31783338531102
755 4380 76.09368305201302
756 757 160.14842701902296
756 3217 76.38334615090015
756 12999 76.5278936019523
757 758 112.25254365693243
757 13000 76.28002040810213
758 2341 163.31285768374934
758 3783 76.79098704028314
759 760 72.81148930580757
759 3230 116.6349741828739
759 11845 102.65926282751711
760 761 201.65114149698576
760 3231 78.0803375781096
760 18586 79.29911226029202
761 762 203.21112943438678
761 2360 78.42293073123528
761 2361 77.84251171980767
762 763 200.70009480886335
762 3232 78.1380060328159
762 10775 77.31622236982493
763 3233 78.5083711045058
764 765 49.520735259712126
765 766 158.02770081266686
765 7888 251.84637624233318
766 12439 251.69558099808364
766 12440 108.14930015854736
767 768 80.26144558600218
767 1485 79.54644468714683
767 1486 80.6985081650434
769 770 34.1824187496576
769 784 5.177584351721276
769 17950 25.192002568106226
770 771 57.754847822922045
770 17950 24.840246817252844
771 772 79.86369864265876
771 13006 109.97223668035468
772 7086 96.52107017072568
772 17792 92.95374673970223
773 774 81.41176562558675
773 8131 78.43883770970882
773 13949 80.02817275254354
773 19797 642.5859036454548
774 775 78.91507124316261
774 6868 78.79330934490686
774 6869 79.84953304053593
775 776 79.45318613705301
775 8132 78.99391242893293
775 13950 80.2162452548577
776 777 154.508045162094
776 4971 78.88935052833845
776 4972 80.1063081882846
777 778 154.9837060682314
777 8133 78.90662578952352
777 9464 80.60532470344528
778 779 154.57925820873555
778 11438 79.4829872112519
778 17935 79.72764867472512
779 780 155.7257793182829
779 8134 79.21593246337746
779 10242 79.68241572075557
780 781 154.93778167325064
780 8135 79.39539212897591
780 13951 79.18249100941841
781 782 154.50211482045987
781 8136 79.5852562615539
781 9295 79.24899764024643
782 783 160.8019900842199
782 8137 79.30434845564419
782 11260 79.0153688574073
783 784 112.30798352296426
783 19379 79.4309576619759
784 11672 79.11362485742441
785 786 29.090632063935487
785 789 39.040120831316415
785 13944 34.87018162874475
786 787 127.90529012236334
787 7721 32.79112988197428
787 16751 233.61008381185985
788 16751 35.71557574250531
788 16754 71.06206112481065
788 19977 27.012669921861452
789 13944 55.16107009216784
789 19208 8.641834858715779
790 791 401.4741592659137
790 810 171.41705097198437
790 10685 99.26173818930059
791 2172 179.07576531003818
791 8640 157.2604337220069
792 793 67.5876735487671
792 1010 72.01008867465538
792 12312 96.31101224575349
792 13956 66.4726273160414
794 795 380.30942611652745
794 4208 87.45167682453481
794 4209 120.46161249647525
795 796 203.62050315455417
795 11411 87.72420777693573
795 12858 88.0524911888107
796 10408 63.779299570732356
796 10409 91.9659931337378
797 798 204.34485183085138
798 11415 219.61318106152964
798 11416 127.07423277123083
799 800 75.78109024019611
800 801 104.02847028304602
800 11408 91.00662198863935
800 11689 287.5928929233892
802 803 141.4389750291491
802 16799 99.64730367647695
804 805 83.22618708763008
804 15318 62.70448144492656
804 15319 63.902370317529645
805 15318 154.3737651439624
805 15516 63.82789097429172
806 807 54.7823485262045
806 2268 73.85777707012056
806 7140 84.73498483725648
806 11165 84.17698427326387
808 809 108.45230075241317
808 2769 102.82219112530986
808 12026 100.06261893924132
810 5673 180.38777936685236
810 11277 128.09667103555384
811 812 51.94325485961434
811 4638 169.2964336803787
811 17623 62.10480690259671
812 3912 79.0889513126347
812 14779 143.94312892215336
812 17623 41.682571727651776
813 814 163.49042804809852
813 6816 133.8426919477748
813 14016 269.02187152994213
814 14847 147.04152603945928
814 19598 708.8103076510395
815 816 131.39226373938934
815 7538 83.26837858760912
815 8207 79.63801527230308
816 817 139.93995672707945
816 7539 79.1981729800772
816 8208 79.12716303346465
817 818 152.7291393496699
817 7540 79.62572891505219
817 8209 79.33042997530136
818 8210 74.82908566093559
818 10165 80.21438656772254
819 820 152.13808184399744
819 4759 88.89557163133277
819 4760 47.2890590528446
820 821 158.13150192825736
820 7529 89.57985797618866
820 8972 48.60396233853132
821 822 116.33870124730053
821 4305 89.19027568517703
821 4306 46.187276398812905
822 823 116.90298604780904
822 7530 89.13438639294499
822 8231 88.8329169977192
823 824 116.67159291411679
823 3150 89.51030148357846
823 3151 88.01025162618048
824 825 132.20151964677308
824 7531 89.48390282310237
824 8227 89.0337618020799
825 826 119.50365642340118
825 7532 89.0173110353588
825 7582 89.08600350945898
826 827 119.84247896663558
826 7533 89.09975231796957
826 8228 89.54796797150507
827 828 123.45467405326164
827 7534 89.95621223036245
827 8229 88.85803131372234
828 829 168.00814834849848
828 7535 89.97116974419808
828 8230 88.72882746626193
829 830 84.33318967374154
829 1096 90.90894267669216
829 1097 126.10176806013786
830 831 85.53527656522365
830 5300 114.91606870258882
831 7536 90.95919244519393
831 7537 308.5572448781001
831 8212 102.32019380996844
832 833 110.20882501707663
832 8211 75.13424446951724
832 12842 77.33115936369191
833 834 160.01235114052596
833 8225 79.48182112034596
833 14207 76.33981490963247
834 835 79.01154019247042
834 8215 78.92351280190144
834 9754 76.09214382150492
835 836 80.77887383872357
835 14819 76.07162236061987
836 837 80.79451068466113
836 7395 77.40941346176828
836 7396 78.72649097280302
837 838 80.17033840035103
837 14820 79.84366298608262
838 839 78.67339749621948
838 4476 39.4839075037389
838 4477 39.560077504427746
839 840 78.90636502876878
839 4015 79.80462586218107
839 4016 79.34076697450307
840 8216 49.09305098508917
840 12741 50.91054536838331
841 842 78.10400176940648
841 2575 282.8795293721959
841 17780 66.05500801719187
842 1144 200.15190859499015
842 9762 300.6332137753069
843 844 161.9789539107044
843 845 328.34416056833055
843 13885 150.2988109365698
844 845 74.15939382305092
844 8761 95.63531400812583
845 846 135.51447641950637
846 2790 312.0414133779193
846 4262 148.36586824652704
847 9583 103.23547447665531
847 10466 78.65853704485059
847 17613 110.89560534588122
848 849 77.00279183351859
848 3164 240.30458338129142
848 3165 29.67033515662926
850 851 111.22917062712288
850 852 138.43865662936818
850 936 56.69069125020222
851 852 87.29421247437851
851 2641 101.5699779437983
851 3130 362.68793604047335
852 853 49.48296418113267
852 8613 171.87058693210602
853 854 47.28286986775327
853 10668 41.874478581517835
854 11775 109.95646856965638
854 16575 112.203060438373
855 856 75.1915253693424
855 870 19.39544887673719
855 9796 60.87929419058235
856 857 75.89065461914781
856 10069 178.6205686095194
857 858 39.96351612245983
857 17075 103.08464696284166
858 859 36.138405561910794
858 10935 83.54891235809812
859 860 43.132575784893874
859 17958 179.28574001255942
860 861 33.53651039906599
860 10936 83.45444892697822
861 862 45.83474301744758
861 12207 179.9604991036737
862 9622 83.35218402407807
862 9623 180.1223124526883
863 864 202.43582930109764
863 871 14.278809367178614
863 10264 19.479668551614292
864 865 201.41506954772586
864 872 14.6206195312488
864 2180 73.35998991092495
865 866 193.5562621866133
865 873 14.690710884832626
865 10255 74.89387490601952
866 867 202.95402453733647
866 874 15.414282108314717
866 10254 74.15265111161357
867 1767 22.295348229227383
867 17753 14.35509132560499
868 869 200.40158754932284
868 1532 40.530403212374
868 1533 80.27363675345967
869 870 199.2273262552008
869 14098 80.22460005277571
869 15868 80.29592834421963
870 9797 79.92979175063567
871 872 202.41142972676414
871 10509 80.89301913639812
872 873 201.45895710276548
872 2181 80.47192682792753
873 874 193.56133979046092
873 15869 80.54599615288528
874 15870 80.45664294205868
874 17753 202.9482718509698
875 5806 44.44274842403947
875 5807 78.58703213703967
875 18483 199.19807608668262
876 1810 334.5720410259223
876 1811 232.74257955128527
876 17074 165.10870557397683
877 878 146.5398383344732
877 3444 250.66916628917164
877 9011 48.605309936279674
878 879 76.67795395020471
878 14000 120.67986732904646
879 880 78.82728278214233
879 4755 53.363954441772364
879 9013 77.95419807655868
881 882 110.58477004948458
881 911 38.19654041347167
881 15271 37.82858311516634
882 883 74.20386683495353
882 13520 149.44658544168712
883 884 167.43045920780577
883 2439 109.65561324835866
884 885 69.43940284434048
884 11119 204.67277899257647
885 886 77.2961572132835
885 19983 65.58286778054935
886 2776 80.39579071991635
886 13338 48.58785010172887
887 888 153.4689162235204
887 2126 407.09384010370684
887 13338 98.62854126602485
888 889 91.48672553913542
888 2777 82.0537802990583
889 890 254.95266714409598
889 11163 255.47914332365883
889 15051 100.91490277959726
890 891 114.11367196678322
890 1291 203.71977082272815
891 892 140.8339604307108
891 15866 109.59737728299078
892 893 39.95561378045002
892 10578 69.17493945422989
893 894 114.25124427130059
893 14575 79.32723146287844
894 895 150.7724611019129
894 9325 64.8830313026316
895 896 146.96561204115366
895 12945 78.77803679210709
895 12946 73.63845952865181
896 897 63.810688020776176
896 2815 90.1555347199455
897 898 90.68739798435995
897 2770 163.7979891600327
897 6728 94.83069690949189
898 899 81.25596069882694
898 6729 426.06958839263655
899 900 19.722599473332092
899 2788 199.73629260769417
900 901 118.96372241808575
900 15918 95.39750578934624
901 8162 419.17149964334556
901 8163 67.44459655126889
901 19061 86.76913919728955
902 903 93.05929557711426
902 5380 418.1322064001937
902 19061 10.594586769653974
903 904 91.36222221032152
903 3290 416.97103011334485
904 905 45.571272962450784
904 10542 358.8081165462598
905 906 63.346102371551325
905 7139 59.59653256858357
906 907 95.4445327236086
906 16367 361.8173635761658
907 6888 81.55020487736321
907 19062 8.480185456302232
908 7606 94.79811186510508
908 7607 200.10772222043863
908 19062 301.69590047664747
909 910 198.0522996475089
910 911 197.80677925012415
910 13303 74.87068766442451
910 13304 75.96948573652018
911 16577 74.86950825596355
912 913 193.6643593379013
912 12757 62.33356076249342
912 13693 108.07077436591753
913 914 192.06172865015836
913 6388 62.62811221542151
913 6389 106.62539962701146
914 5588 62.24825943091867
914 20148 88.32928328268999
915 916 117.95358407985128
915 13702 164.07207430389957
915 15642 50.41438252731082
916 917 96.87446144437212
916 13705 53.67282748120836
917 918 49.7619351451356
917 2778 229.97515781349205
918 919 65.01573599512885
918 16432 32.98494535366342
919 4146 71.94390723139321
919 5438 491.3140505051781
919 13700 109.6932708636087
920 19614 162.19967330102435
921 922 36.16854090488452
922 923 19.2521027566741
922 9596 135.66134573445783
924 925 212.9631117639341
924 3884 46.15797503472742
924 3885 77.93260098166805
925 926 170.1745721086183
925 12840 75.44591308119622
925 14555 76.97028215193197
926 6803 76.36898080062745
926 6804 77.27133750180182
926 18860 37.27933808815875
927 6080 76.19851389777065
927 6081 77.30469533611061
927 18859 10.63012781570006
928 929 82.06483258307783
928 9594 138.68907570737244
928 17908 137.63611182801026
930 931 123.87089224241882
931 4055 74.4158816679927
931 4056 143.18710936377704
931 20017 5.960762487968809
932 933 184.86415412012374
932 11706 27.809979035287313
932 11707 93.1729595836041
934 935 39.16515038540571
935 936 39.091698157325524
935 2642 44.86973524239876
936 2640 74.48857857510873
936 11661 121.61171807495703
937 938 53.80595857621171
937 5334 154.31655365973762
937 5455 48.49277737643693
938 939 95.54744845088642
938 5455 28.146943841348715
939 940 99.1973724048693
939 14255 126.1508419677549
940 7985 90.5465909937781
940 7986 67.50006005303051
941 942 37.39450875895423
941 976 33.58660285578816
941 11491 72.93635640203595
942 943 178.82383359276412
942 976 29.57946235978371
943 944 149.09892269882488
943 12973 98.57855588661116
943 17965 104.63199744167207
944 945 73.20009737456323
944 7916 103.5088738490257
945 11492 103.02227429074085
946 947 139.8841712874
946 11221 99.59162131520223
947 948 78.63748956949004
947 1024 99.55053561284922
948 949 82.94045730640225
948 4083 99.47626532836247
949 11497 99.97361620088499
949 12975 94.31768031893434
949 16959 78.51615612572053
950 951 41.702557671793684
950 2085 96.82180796025753
950 16958 62.636469196698094
951 952 36.608313025985304
951 11494 98.32479624704015
951 12976 99.38977915194134
952 953 78.71981248709773
952 2058 99.86733495931932
953 954 83.06507048069318
953 11495 101.02128170901993
953 12980 68.21221656000787
954 955 68.20984675605297
954 11496 96.24915872192206
954 12981 124.38161621675866
955 956 21.97223711956368
955 9592 168.81832444809183
956 957 110.99528764833231
956 9593 92.24580022840553
957 958 147.2654978507112
957 11706 415.2312922976145
957 14552 82.02885061124297
959 960 148.87640020402557
959 6952 254.98881347650453
959 6953 77.22324410600288
959 19618 159.31255845952006
960 6951 497.2145116844117
960 19620 149.11269638394182
961 962 100.94480919749444
961 6597 156.1533813905168
961 19620 102.66833189299969
962 963 63.60381945608311
962 6598 154.93650962755856
963 964 35.19339011988046
963 15426 178.31972322104153
964 965 43.532909528403444
964 16811 188.33259723555798
965 966 79.17948920357895
965 1281 179.80313791831657
966 967 77.15386903153589
966 9984 176.05406212066202
966 13290 82.03277894540257
967 968 97.30896296582574
967 14891 297.6066944582356
967 17536 95.46899967154795
968 969 62.12606927417801
968 6599 169.3938413540416
969 970 80.20903927110771
969 13516 49.92771724605622
970 14567 179.10701352572164
970 19619 155.35786703645945
971 972 166.4505366902263
971 11501 142.04495488036315
971 11707 404.16226917608566
972 973 220.16710625502438
972 5686 461.2944622021897
973 974 189.7780004277195
973 11502 100.15585668199063
973 16715 236.15223597107484
974 3903 152.48721199722976
974 16715 141.79519754764289
975 1721 57.5450599103487
976 4576 238.2263477198688
977 978 41.65698681427066
977 6658 351.88671482678734
978 15847 81.72007324445906
979 980 79.06997230217662
979 8641 72.50646246503541
979 19729 6.2729546785434245
980 5194 73.85030597675474
980 19728 6.638322542725309
981 8642 73.88060922029021
981 8643 145.68437215070622
982 983 150.2941091918855
982 991 22.740210816555585
982 12440 40.26395808160541
983 8592 199.37396629556417
984 985 98.05425128307493
984 1632 197.64950159907966
984 1633 199.7089127283706
985 986 100.85238821204888
985 2090 200.3010188085442
986 987 25.748475302354134
986 10035 199.7428858898505
987 988 76.31028258418073
987 15852 70.66448646487152
988 19152 84.86507757640341
989 3235 197.88281290549958
989 18552 47.36912199023475
989 19152 166.69620535174695
990 991 299.1814644849439
990 9943 61.95272090768934
990 9944 76.79432211621848
991 12441 57.88824936464643
992 993 84.93777508089283
992 3204 242.19857685177064
992 3205 197.77538841140108
993 994 80.26641235942442
993 3206 216.08878638539844
994 995 86.17213874735936
994 3207 178.493453090825
995 996 80.25674442608612
995 3208 204.86187035991856
996 997 76.33987089389811
996 3209 204.57285455177225
997 998 15.761103101164137
997 3210 185.7247094594531
998 999 82.99037096302723
998 3211 176.47500357772543
999 1000 97.62519226432698
999 3212 193.58335693374465
1000 1001 83.22220832885512
1000 3213 227.2187784943684
1001 1002 152.75950691185915
1001 12998 75.9800365498149
1002 1003 138.91179038103934
1002 5409 77.12314230385063
1002 18020 43.54440321438214
1003 1004 241.99261537290494
1003 4380 76.53662520770634
1003 4381 76.371276557181
1004 1005 159.3880053898344
1004 12999 75.78284608172302
1005 1006 113.72125611251835
1005 13000 75.6921911242905
1006 3784 34.416999870531285
1006 3785 47.16048971493667
1007 1008 29.5759115393057
1007 7756 396.1541481340329
1007 14930 195.034323596856
1008 1009 250.47341825536446
1008 13954 74.43580370097777
1009 4135 335.58761321451016
1009 9083 87.50137338640141
1010 1011 285.8600708068106
1010 7880 66.67871805578154
1011 12997 82.72579973854877
1011 13943 34.503810773933125
1012 13373 34.41060034052231
1013 1014 109.35990687528343
1013 8619 181.9490243722509
1013 8620 75.87569500463528
1014 8621 79.83159819764927
1015 1016 82.12163090476558
1015 8623 153.16803005072063
1015 8625 80.9978502676642
1016 1017 319.6378406551857
1016 7392 83.27847800083434
1016 7393 78.7685971109778
1017 1018 96.01349588580673
1017 8618 81.876641384442
1017 18596 74.59415697524405
1018 1019 79.36199336747127
1018 1219 147.4724058347787
1019 1020 172.08611508994895
1019 12359 164.3757052235302
1019 16256 158.95220244788771
1020 1021 79.88836946928673
1020 12983 157.20591410695062
1020 18104 112.09642005318314
1021 12983 75.21260486942052
1021 12984 158.23919074157388
1022 11298 98.33076294415251
1022 15599 161.77278269302315
1022 16798 213.1213941660846
1023 6684 56.7809702015977
1024 1025 94.08908780940538
1024 4083 78.93794620318369
1024 11221 139.69514127541325
1026 4085 97.18910086138817
1026 4086 244.6663021929377
1026 5017 99.64615692129267
1027 1028 79.11212890413806
1027 4100 110.45188340721835
1027 8139 51.45077421296564
1028 1688 178.5143831759182
1028 4099 110.161905556137
1029 1030 79.24885761168184
1029 11269 44.94636110999322
1029 14837 61.86655114447456
1030 8477 79.76097078894489
1030 17469 78.38213555641516
1031 1032 79.8269014474409
1031 8460 76.27987937182634
1031 13026 73.88001646604914
1032 1033 67.7622739886024
1032 13027 74.5685651200981
1033 8461 75.17996769651286
1033 18746 11.558437285220514
1034 8462 74.57323984436565
1034 18746 67.89456125756709
1034 20081 9.69627666163309
1035 10236 74.77707573571215
1035 20079 71.91227378880333
1035 20080 7.521218964157203
1036 1037 65.06466566415868
1036 18246 100.09803929898325
1036 20079 6.586112277176694
1037 8465 78.1235508583577
1037 18246 115.14847486129915
1038 6394 195.3150264931955
1038 17890 46.397146102046875
1038 17891 60.81136146563092
1039 1040 104.34645367052599
1039 9583 101.50279317863621
1039 14623 102.13278060411416
1039 17892 109.50487250937897
1040 14623 202.37510442316895
1040 18585 80.01622399480351
1041 1042 106.08063518074692
1041 1853 235.21800386180524
1041 17894 215.52141535295974
1041 18585 114.70465676767222
1041 18847 150.81627357701882
1042 1043 99.32330734722245
1042 9214 100.0206765707608
1043 1044 99.60981415164073
1043 15237 101.12215594540181
1044 1045 96.26916712999399
1044 3068 100.23150662919471
1044 3069 501.67507418740746
1045 10008 100.94310009137705
1045 10009 191.47603506596005
1046 1047 78.72895280243236
1046 5942 73.66702190121943
1046 11939 80.34982329982502
1047 1048 78.98670561195408
1047 8841 177.27832216836833
1047 14011 168.92151692534878
1048 1049 79.25066029794235
1048 7330 176.978114006733
1048 7331 169.6505119228276
1049 1050 78.93150788227534
1049 8842 177.15636948262352
1049 9128 169.69713958971266
1050 1051 84.38673218769085
1050 8843 177.20074706002455
1050 15205 169.31675476813336
1051 1052 82.76562060487908
1051 5703 176.4562778669901
1051 5704 136.58981021788009
1052 1053 77.92702861577736
1052 8844 175.58818705007982
1052 14778 75.92900995653523
1053 1054 80.1693062657638
1053 4636 175.8859947762822
1053 4637 138.34451311155075
1054 8845 176.08893128898669
1054 17608 78.16145965327675
1055 1056 432.5622108147759
1055 5989 87.32186788489781
1055 15975 69.84163698072364
1055 17608 79.96019638735456
1056 1057 22.367783445774364
1056 2558 103.71674651724695
1057 1058 410.30827059728244
1057 17607 78.97163011692017
1058 5983 55.23853578835282
1058 14330 79.17374549820353
1059 1060 26.970345992576405
1060 11275 77.15773546616718
1060 17978 160.0861251263345
1061 10745 100.64210095367899
1061 14463 622.6558448249604
1061 17952 12.251337875454603
1062 1063 331.368469659365
1062 14465 67.14163125192555
1062 15363 132.6559697185338
1063 1064 81.73981508592449
1063 2834 214.92048622531794
1064 9080 174.18789558353592
1064 18555 49.73917210824551
1065 1066 280.350121183252
1065 14477 67.19556959167173
1065 14543 69.27454110942
1066 1067 123.0569255625371
1066 4374 67.90903129398399
1066 4375 69.30319923159425
1067 1068 121.74308331402455
1067 12284 65.06010703432406
1067 12285 73.8446534653178
1068 1069 159.91438868872248
1068 14467 76.28206924756495
1068 14544 77.57195417611422
1069 1070 112.56733244957297
1069 13979 76.1276184222641
1069 13980 77.1036177789429
1070 1071 112.17060047263396
1070 3778 77.01025284062212
1070 3779 77.4681693344631
1071 1072 45.35231083646491
1071 2246 280.93734208501337
1072 1073 154.573070829407
1072 12346 118.71128097506127
1072 12347 77.34736666675735
1073 1074 157.07620476208268
1073 13625 76.1339781029272
1073 13626 77.91537065663024
1074 1075 205.2087761231153
1074 14188 83.9856102968266
1074 14189 77.660403824197
1075 1076 195.59667494497174
1075 11841 89.36768473425974
1075 11842 78.27095488426617
1076 2354 88.88857150010756
1076 2355 67.19549494639242
1077 1078 148.46008727488632
1077 12437 68.57401522651298
1077 12438 71.10926372680888
1078 1079 147.3530366489571
1078 8589 69.16487217265046
1079 1080 117.66267804233868
1079 7647 69.00090590994076
1079 7648 84.09289310062891
1080 1081 21.937076487183198
1080 14466 70.79889916780091
1082 1083 68.30004970711836
1082 11432 115.2533952685175
1082 11433 167.57152995627092
1083 1084 133.9105779956785
1083 11432 79.63045061055709
1083 14545 80.211323666956
1084 1085 103.81793038460432
1084 14468 79.59197842909045
1084 14546 79.60270303643043
1085 14369 80.60310340443647
1085 14370 78.93820895990287
1086 5659 62.83467831264861
1086 12762 86.96942836826219
1086 17282 79.74597365408036
1087 1088 79.40860896004111
1087 6624 48.11513966629607
1087 13548 81.14976518831197
1087 17202 73.1128418838276
1088 1089 79.23460185732338
1088 5198 81.14844161223184
1088 5199 48.63600745459867
1089 1090 79.43338545058296
1089 1783 81.15491441527337
1089 1784 48.635389527959695
1090 1091 79.23075324431888
1090 11718 81.19391791597548
1091 6626 48.47951929820216
1091 14781 81.15519589483836
1092 1093 148.12279997812996
1092 9321 111.71513984387505
1092 17522 201.45282956258146
1092 20003 21.91172811130508
1093 15851 142.31042416661188
1093 19597 143.79700855018632
1093 19700 316.701613518792
1094 1095 87.14881804544393
1094 8759 82.27789415708106
1094 13719 143.59482700657645
1095 1096 89.0902321991131
1095 13720 143.59515534640224
1095 19097 170.3558845373118
1096 7535 155.07805117399465
1096 7536 170.1366085612447
1097 1098 53.08540449479692
1097 5300 83.52274082210621
1098 1099 89.80207521965193
1098 1687 194.63789184416618
1099 13721 206.49528573504637
1099 19098 16.016319830340883
1100 1101 91.23785544564986
1100 6993 218.41875842068188
1100 19098 74.24635599134432
1101 1102 89.79957168176347
1101 5302 83.11114132787844
1101 9830 106.33657852526156
1102 1103 20.495841960887503
1102 8897 118.06702562900288
1103 1104 177.02535002946422
1103 17959 121.41878103427646
1104 8318 60.47194001955638
1104 19049 10.733226363170225
1105 1342 125.03512503137509
1106 12383 26.105387159630848
1107 13617 131.6365275841787
1108 1109 74.8406944111987
1108 11280 257.3045116398367
1108 14967 228.00317392480162
1109 1110 54.27572015618681
1109 11280 224.44758341766538
1109 20005 41.14789058439086
1110 1111 21.92767189545822
1110 10678 208.92938098800664
1111 1112 77.6920049984498
1111 16700 255.88263984707947
1112 1113 101.98953082322716
1112 14540 200.5651833271226
1113 1114 103.796708746579
1113 10348 282.29329025079824
1113 11647 79.71862479337727
1114 1115 181.9941187220419
1114 1727 281.75222438233817
1115 1116 113.3868665982169
1115 3729 88.7054102373272
1116 1117 151.81797409298014
1116 3686 87.1668680331698
1116 3687 229.17411543418137
1117 1118 147.47118937986764
1117 11648 97.12966782171894
1117 19228 147.77252694336798
1118 1119 145.02180287003284
1118 7917 85.59322146885656
1119 17084 76.08460280356184
1120 17879 503.7951883173791
1121 1122 89.48117917833589
1121 11278 35.58161291229961
1121 11784 404.09219044190576
1121 16545 439.4775839342919
1121 17879 36.01794798133808
1122 1123 132.15178231197513
1122 2060 74.80534404573548
1123 1124 147.57099633111406
1123 2568 107.46667059198833
1123 10343 332.65238647525746
1123 11650 75.75645472805637
1124 2569 106.41581293828507
1124 9596 75.51559145572617
1124 19614 140.5163921795951
1125 1126 77.74987930462959
1125 1276 69.45120854673718
1125 9985 233.98278022403943
1126 1127 82.34125337380146
1126 2581 155.46279017872018
1126 9985 156.3073362618739
1127 1128 77.28912454456676
1127 16557 155.14119871473451
1127 19136 209.58226675101199
1128 1129 79.41292129859124
1128 2571 143.4224484004245
1128 12117 159.52551556410987
1129 1130 79.13812599835862
1129 13512 91.90314831491756
1129 13513 156.65656471322316
1130 1131 79.31398779920741
1130 2572 159.38158150896027
1130 14559 156.4322714402181
1131 1132 77.91091992509286
1131 2573 156.6531315386488
1131 15493 159.00890296650383
1132 1133 84.87070764124536
1132 2574 156.56347520983698
1132 8065 159.0310386048628
1133 8781 251.9438432874361
1133 8782 117.96612787444029
1134 1135 88.64610681303472
1134 1255 291.00874434419444
1134 1256 131.70056736958213
1135 1136 249.14714001592608
1135 1563 44.07672621662888
1136 1137 109.78294757383145
1136 15398 130.34164701920432
1137 1138 99.93076875650421
1137 13933 56.58113642485277
1138 5551 27.90023171912882
1138 6661 70.34282472389279
1139 8767 174.41864995605349
1139 17516 37.53372706395513
1139 18850 31.19874241284873
1140 1141 53.60120748790625
1141 1142 110.82363275683382
1141 14969 203.06335816256578
1142 5684 207.14696954657416
1142 5685 72.76932157747066
1143 9763 55.06758135046991
1144 1145 148.60932732332793
1144 13717 249.8001609797003
1145 9762 91.04426267578314
1145 15294 89.07649950353292
1146 1147 74.79510427285337
1146 8440 76.94377829392741
1147 8441 78.71825211721747
1147 18095 80.8261906886298
1147 19341 144.7928055160865
1148 1149 31.283659091482335
1148 17332 101.3162432570973
1148 19486 17.413406889623182
1150 1151 79.79918569424814
1150 7776 79.1013899087302
1150 19477 79.58948831508313
1150 19724 54.77094714547002
1151 8443 79.7607533059611
1151 19477 153.67776520473024
1152 1153 47.185138086546154
1152 9306 121.53881642416025
1152 15759 200.0135081703478
1153 1154 76.66329135056475
1153 15763 77.7548898132914
1153 17515 69.07373488841613
1154 1155 82.0518641349615
1154 18581 76.77249187038767
1154 18903 154.70838054855784
1155 1156 78.2779375079557
1155 7978 79.32368993424515
1155 19113 77.75740714933451
1156 16729 628.4213452496945
1156 18580 118.96063404981916
1157 1158 79.39874052999403
1157 1171 85.71234379553545
1157 8218 79.37752979512628
1157 9779 79.34484699205699
1158 1159 78.0322161551758
1158 8219 79.38039031943363
1158 9780 79.34159366559714
1159 1160 79.81860280383978
1159 7667 78.943221161342
1159 7668 78.8432590925904
1160 8220 78.6768775744784
1160 9781 79.96276048625695
1160 18072 80.25983658896621
1161 1162 127.41370048252675
1161 8221 79.96504101540886
1161 9782 79.088320755757
1161 18072 140.36599485470518
1162 1163 201.78685956761848
1162 8222 79.02048456324718
1162 9784 79.94588043063686
1163 1164 184.09305851279063
1163 3098 78.53155384060265
1163 8223 79.84931352006375
1164 1165 184.2911554287258
1164 1358 78.89431756088244
1164 1359 79.13431982686504
1166 1167 158.46273516307244
1166 8215 79.37518411985262
1166 8982 114.61944358427101
1167 1168 82.19586180509522
1167 7396 79.40418433393546
1167 7397 79.81016918598672
1168 1169 78.491102371752
1168 8985 80.0334838899873
1169 1170 79.40749746417883
1169 4473 79.77781546178248
1170 4016 79.17615685258146
1170 4017 79.18738298838349
1170 18111 82.60156175022344
1171 8217 77.97670846514593
1171 8224 72.9304453595412
1171 18111 22.09274345811601
1172 1173 135.58055888004242
1172 8207 79.20538816891658
1172 8976 79.34605475224838
1173 1174 139.82705783692214
1173 8208 79.440233802403
1173 8977 79.11267674011975
1174 8209 78.91068431019566
1174 8978 79.6391301237169
1174 19099 150.63716555539517
1175 1176 153.882370799055
1175 8210 67.97652143224028
1175 19099 15.322385075943183
1176 8980 79.46820008743259
1176 18114 13.163275949247243
1177 18114 54.24446900532858
1178 1179 35.01195554012898
1179 1180 128.14966421998008
1179 13852 72.05458302358561
1179 14435 38.92023213791857
1180 1366 128.26566814061496
1180 1367 71.71085585747547
1181 1182 85.26972605113659
1181 13849 127.67430691125968
1181 13851 73.33340712862889
1182 13397 35.30448127766602
1182 13398 127.75220516761087
1183 1184 109.91967115702002
1183 12311 85.67662179440933
1183 13943 56.27335273821873
1185 1186 38.24443768291878
1185 9320 77.26094836612266
1185 11306 195.87726249994142
1187 1188 14.968825685208508
1187 6423 534.1775343758626
1187 6424 101.59476261858455
1188 1189 130.60254297559177
1188 10459 405.6921219126645
1189 1190 114.69829155409765
1189 10460 408.37208691900275
1190 1191 84.2719442692327
1190 13319 133.97732562542166
1191 1192 569.6561671822792
1191 2971 477.06265556372443
1192 13280 50.76464914053688
1192 13281 41.5865170337433
1192 18065 357.17151970105874
1193 1194 44.59168113237449
1194 1195 111.01551694401616
1194 10751 74.12402739960588
1195 5501 76.67865340102998
1195 5502 71.22504403461392
1195 20140 191.40246011407447
1196 1197 62.73742855706329
1196 14313 109.3998302791125
1196 17693 63.61827325039879
1197 1198 77.013792282863
1197 12467 92.77201265452524
1197 16262 105.39460760669024
1198 1199 75.55712732497103
1198 11475 105.97263334967388
1199 1200 76.26878598048306
1199 19737 99.26126396032306
1200 17848 77.40296435936736
1200 19737 170.3035656343284
1201 9000 116.8109056598944
1201 12469 90.99869015999835
1201 17848 10.383362956580182
1202 1203 402.6983042253791
1202 10383 84.61639789602899
1202 10384 98.52344292866916
1203 1204 138.283999275499
1203 11999 109.89055770019104
1204 5887 108.58051511530468
1204 5888 43.69877492709474
1205 1206 302.03131790310124
1205 1208 13.068845177981643
1205 12083 53.14075913497351
1206 10765 80.97612743125589
1206 12466 24.900448330370647
1207 1208 422.6167330651757
1207 10760 68.8190002278842
1207 12478 66.29420220550537
1208 10762 69.05109623840391
1209 1210 302.9553414453137
1209 5044 135.03938596194388
1209 5045 277.30752194920336
1211 1212 9.65572862906403
1211 1213 65.04477058533223
1211 13071 269.88020715450665
1212 1213 9.416410718854475
1212 8947 51.576699332764335
1213 1214 297.67308320211606
1214 1215 286.82008679469374
1214 2440 405.52735800766953
1215 1216 79.60240648611938
1215 3271 292.0486445177641
1216 15717 82.26961374857268
1216 17042 124.63443602203253
1217 1218 122.72593177634498
1218 8448 46.054823900371915
1218 13071 137.56952418279656
1219 8618 78.33575512059993
1219 15558 237.89203836638416
1219 18110 22.025854368250144
1220 10128 116.66873839259601
1220 11005 84.30837465918995
1220 15501 204.11532735663255
1221 1222 362.22918551079226
1221 11685 447.90500110554456
1221 12509 88.4931537441278
1222 1223 201.88562121949766
1222 11685 88.74388859286196
1222 12510 89.47701743978524
1223 1224 200.73996987811313
1223 1380 86.94247008138606
1224 1225 202.65755455203342
1224 9697 71.12638101815207
1224 18320 90.77189297797261
1225 1226 78.52893588720873
1225 5977 257.2786850532233
1226 8726 256.81307039294705
1226 8727 73.11186350127153
1227 1228 165.68727806543183
1227 12994 261.0815581388264
1227 12995 370.41832453841056
1228 1229 39.70427903714937
1228 10524 535.7005909038257
1230 1231 23.761086214388914
1231 1232 137.05238559957817
1231 11911 86.37540200345722
1232 11911 97.61970496709068
1232 11912 180.04265734592818
1233 3338 14.377600167277897
1233 3339 19.748371105325237
1233 7959 217.05229757892315
1234 1235 60.5208972302978
1234 10129 166.5920825177103
1234 10130 250.94603596667994
1234 11812 156.32971098325484
1235 1236 57.95874209397026
1235 7778 155.61485080763853
1236 3238 45.35974509832591
1236 17729 28.13330644512444
1237 1238 61.58681129583538
1237 17729 52.62299442183331
1237 17730 50.445905790431986
1238 1239 122.64567345067832
1238 3538 82.59706710454692
1239 1240 120.44379064619365
1239 10128 163.99497942463353
1239 19226 42.61099899267787
1240 1241 119.6825594704882
1240 1242 166.96680848175578
1240 6158 105.57520634674853
1242 5778 30.05852222417585
1242 15501 148.6624082806699
1243 1244 135.21775036679412
1243 3991 354.9954126854689
1243 19604 450.41509938164313
1244 1245 39.942514261747526
1244 3428 98.67648084906573
1245 1246 64.70183829092274
1245 3991 297.9428518985917
1246 1247 124.94454266860419
1246 1699 205.96697943659854
1247 1248 95.48962527040462
1247 10583 81.60379357959755
1248 1249 83.74150336615556
1248 10584 76.86420110015325
1249 1250 125.8015630149983
1249 3270 144.58591184381436
1249 6162 65.51810256418383
1250 1251 118.63794559890108
1250 6163 74.6104371147854
1250 12977 259.1439329606594
1251 1252 71.88473759933595
1251 4153 239.05087867365899
1252 1253 180.02301595040672
1252 3454 56.893951857277244
1253 1254 80.42946686728206
1253 6168 85.27241217243865
1254 11787 157.3630074104436
1254 17464 56.24925063114933
1255 9326 133.78236955060808
1255 10344 98.17110206041333
1255 17464 77.38800846286763
1256 1257 57.74094117066886
1256 16673 94.69787210763926
1257 1258 87.31392122234848
1257 15294 193.876488080111
1258 1259 178.08325684398915
1258 11013 60.48636051234816
1259 1260 111.95200217203353
1259 2698 297.5697982778404
1259 10119 177.2856060710041
1260 1261 77.13307329159242
1260 12801 80.48449104711304
1261 1262 97.11113160990074
1261 2697 238.6391447213115
1262 1263 19.9484345104984
1262 2028 101.38901092500073
1263 9861 69.70981973292598
1264 7302 314.22949583250795
1264 19759 88.25816430399213
1265 1266 52.7861125585369
1265 13909 200.6010209698932
1265 19759 122.08152829942415
1266 2127 38.7680750934433
1266 17363 58.84601297700206
1267 13725 72.22227435179484
1267 17363 135.94233304213137
1268 1269 107.42076182129529
1268 1272 126.65255654229416
1268 6683 146.5756854563047
1269 1270 176.4216445840005
1269 1272 68.05914078484308
1270 1829 77.40094324875454
1270 17383 215.6028424724135
1271 12170 192.71875267530692
1271 19396 566.3809952430074
1272 1828 119.47041150905835
1273 1274 95.49933310529411
1274 1275 75.63135295135632
1274 9986 78.20976582327154
1274 17079 30.404835561813893
1275 4072 82.226275564938
1275 19064 83.94641334842207
1277 1278 36.969281548298675
1278 1279 82.25188543177445
1278 10341 79.61623184261704
1280 7153 103.51305375197302
1281 9984 78.86356247072338
1281 15426 77.01414998492538
1281 18775 148.06119044906708
1282 1283 78.72037062572696
1282 5148 282.8431437485726
1282 14830 78.25180573040943
1283 7305 287.23066560223015
1283 7306 53.55185292737842
1283 9982 79.6301119627596
1284 1285 49.51737883754229
1284 2710 68.02114647355266
1284 19256 522.8119606362942
1285 2709 74.69413841026567
1285 2710 32.23095285549103
1285 18781 87.00809622971006
1286 5672 87.05581942434524
1286 19448 89.12732576420103
1287 11770 52.502013653115625
1287 14751 250.71498849882448
1287 18619 101.31408194165097
1288 1289 106.82790054676846
1288 15049 251.84910894116902
1288 18619 141.24362241045338
1289 2257 250.84500122221561
1289 2258 49.83836738658622
1290 1291 42.47683690974626
1291 11120 88.21791488477902
1292 1293 160.7014848926205
1292 11773 76.598679168193
1292 15603 21.843978424269753
1293 1294 50.4840693852758
1293 9977 96.7953941582254
1293 11768 96.79538038244449
1295 1296 212.4592841046776
1295 14859 149.4281917565166
1295 15768 44.15013380208699
1296 11766 78.03321317676475
1296 16465 61.22926790840126
1297 1298 154.0995363660888
1297 10779 77.3225484901623
1297 12685 78.28209524758138
1298 10807 79.20577055123503
1298 17625 80.25273846452804
1299 1300 79.59536168985154
1299 1316 20.29436881261027
1299 12691 58.395977215649694
1300 1301 79.3862665710436
1300 2686 142.29736928697935
1300 5650 140.21242285525759
1301 1302 79.13830065369712
1301 2687 142.713517824689
1301 9103 139.6161311015967
1302 1303 79.39791008191848
1302 2688 143.58331075704248
1302 9104 139.77573853680335
1303 2689 141.72197326840484
1303 5355 338.8265597590913
1303 16415 171.19456412364298
1304 1305 138.8273264908734
1304 1322 36.32085647467397
1304 10924 38.47846813021952
1305 1306 176.8760513932775
1305 1928 81.02876924628298
1305 1929 81.44939943165456
1306 1307 123.98773402438152
1306 10926 81.92197603199216
1306 12695 79.33102590276965
1307 1308 126.73254092597857
1307 10927 81.93415722078065
1307 12696 79.05580691749074
1308 1309 124.61488497871186
1308 10928 82.48493174899768
1308 12697 78.84234562638623
1309 1310 117.74389359225687
1309 10929 81.99591154309917
1309 11146 78.87459762641588
1310 1311 143.2782793072245
1310 10930 80.68632779729002
1311 1312 84.5269577406703
1311 10931 80.63950218995828
1311 12689 79.17208014088735
1312 1313 72.99293377577568
1312 8693 91.63152921633217
1312 8694 89.82057538716514
1313 1314 187.27521182579653
1313 10932 78.96530426059677
1313 12690 79.95736324572182
1314 1315 170.42254872065837
1314 10933 80.78884379246718
1314 11316 78.95016965214474
1315 1316 147.59209539134207
1315 3929 79.47864320727926
1315 3930 80.4985901129658
1316 10934 80.3324386364719
1317 1318 262.1094214864662
1317 2669 186.39811475557227
1317 10913 90.23772144576758
1318 2671 185.10690358215618
1318 4562 91.12066378545886
1319 1320 94.74457769466156
1320 1321 138.66816849665986
1320 10922 74.01576956104194
1320 12692 72.90955986703912
1321 1322 162.2936004613382
1321 7044 73.75024787837908
1321 7045 75.33894380948612
1322 12694 45.13039129527499
1323 3481 186.7914744404837
1324 1325 81.33797581785923
1325 10010 199.66071878055934
1325 10011 139.9565900804411
1325 16888 15.866972431179079
1326 1327 79.13176860569362
1326 3560 140.37519273404632
1326 16888 77.01582273421879
1327 1328 22.0917664944794
1327 12871 140.34254283779146
1328 1329 75.45628600841705
1328 1330 334.0994059049884
1329 16786 114.50715697741042
1329 17590 134.5244731744691
1330 1331 67.02483611152734
1330 17590 16.303462802541993
1331 1332 31.721106497256336
1331 1335 380.78656760207355
1332 1333 72.89380967346214
1332 3756 56.91137454586523
1333 1334 68.0965001745108
1333 3756 44.980168408379676
1334 1335 59.15456328351699
1334 3272 87.03060259323573
1335 1336 47.0085755608022
1336 1337 72.21166989247918
1336 3272 75.20245757423388
1336 16377 117.0602760475169
1337 1338 38.663020631615915
1337 16377 71.47447935032791
1338 1339 32.96974778491865
1338 16686 187.06553968264356
1339 1340 39.741639332824086
1339 3055 79.3265370860624
1340 7459 71.94754650058053
1340 7460 223.35772885365
1341 6954 92.0384119254469
1341 16406 203.33189793395985
1341 16407 149.76909963469703
1342 1343 60.40612516155001
1342 4440 82.90103437561486
1342 6209 81.96278037418483
1344 1345 61.14720789254248
1344 15171 80.62597106821225
1344 15172 81.62764510139533
1346 1347 40.270231191819974
1346 9995 65.2789487563746
1346 18357 101.18595591483216
1348 1349 236.5857168794391
1349 1351 22.69492193867874
1349 1580 65.99462158835145
1350 4457 76.03943406443419
1350 9995 312.05259624349173
1350 14514 88.30030514270165
1351 1352 400.69318416486374
1351 1579 83.21853179829948
1352 1353 116.63180499902131
1352 4447 81.4068534591146
1352 10893 70.00942386349844
1354 1355 122.84212125846722
1355 4437 103.30446414111512
1356 1357 79.38976003592424
1356 15649 183.7514402587416
1356 16451 171.8102712638204
1356 18105 63.77959458720237
1357 1358 79.01109600558159
1357 14823 185.18532017218496
1357 14824 188.06756438284154
1358 4666 185.2741368465703
1358 8223 184.71915875285995
1359 1360 69.00919214713966
1359 3098 184.25800285429358
1359 4667 186.53777958976616
1360 1361 90.86123192129367
1360 4668 192.19043414889236
1360 19865 173.64723990060537
1361 1362 88.77328428243757
1361 4669 192.35713420198232
1361 5228 184.7838868369062
1362 4670 193.01865744573303
1362 8321 270.0498826160592
1362 13823 186.00489865261366
1363 1364 92.29912742819414
1363 4672 192.8902040924072
1363 5072 187.3216799271717
1364 3257 186.70240047716555
1364 3258 192.688171704416
1365 13085 75.18980454964326
1365 14434 124.12959615298388
1365 19758 84.43910079920991
1366 5727 27.969470237799527
1366 14442 156.9311348127189
1367 13084 71.775480878268
1367 13852 128.4037722731687
1368 12070 9.44540693909479
1368 12071 75.92752556205454
1368 13088 198.90571653164622
1369 1370 196.0275245380869
1369 6155 32.15283212731528
1369 18976 28.22771988457679
1370 1371 27.39868576362909
1370 13400 113.66047236316788
1371 4920 77.2432690305964
1371 19873 176.22407579504622
1372 2804 227.36674834947848
1373 3157 188.89796779548033
1373 3754 81.5333924412104
1373 19624 658.6480836264432
1374 1375 123.43047450329269
1374 15750 88.37881603895295
1374 19640 32.51211585851614
1375 1376 114.43982104731798
1375 9775 65.91656336210123
1376 4597 201.56357347880686
1376 4598 201.00797618898912
1376 18209 163.1571308550109
1377 1378 246.59444816077678
1377 2041 201.73055908769538
1377 2042 200.17350844223668
1377 18209 153.08847402941262
1378 1379 89.80773211608556
1378 9696 200.43002265110715
1378 13525 102.34807940670387
1379 1380 87.65946076435168
1379 2422 201.00841698356592
1379 2423 63.65930733348361
1380 12510 201.26360823136625
1380 12511 63.559539092867915
1381 1382 78.73545649828216
1381 1425 69.07442989448018
1381 11938 71.14291097143489
1382 1383 79.04692555072309
1382 9665 167.69333706427062
1383 1384 78.94570473369836
1383 7329 167.69337810772444
1384 1385 79.31166341876303
1384 9127 167.54913528722366
1385 9666 167.65995935946694
1385 17629 83.03356136718875
1386 1387 79.12620485337807
1386 9667 205.84602530898937
1386 14777 209.4398343306538
1386 17629 85.63683950557527
1387 1388 79.20405956332134
1387 4634 209.38167775595366
1387 4635 206.21239687269136
1388 1389 78.93160716915303
1388 9668 206.47918789814676
1388 13706 209.4265099505065
1389 1390 79.63145273278869
1389 9669 206.6698176793315
1389 12495 209.5160745175598
1390 1391 425.8290598850638
1390 14276 101.99064643325875
1390 15751 99.475297539878
1391 1392 209.5482818187337
1391 2553 100.38180611566067
1391 2554 100.26795037386233
1392 1456 38.57410577794958
1392 4729 49.79363578259916
1393 7994 89.14483279028487
1393 9690 195.44944592171342
1393 19165 181.9563454912607
1394 6309 139.55565986117387
1394 19165 247.5239205212511
1394 19577 152.36856384178492
1395 8205 259.1129777543448
1395 15055 210.37586571694064
1395 17390 106.18440894036927
1395 17393 231.72141014039028
1396 1397 170.97780314731278
1396 1457 13.877253483227362
1396 14322 74.32587720112477
1397 1398 167.67276975809585
1397 9672 176.79502776640723
1397 12158 156.0479096703856
1398 1399 71.0903292983465
1398 9674 176.09749408118316
1398 13600 156.54118325375023
1399 1400 175.27385277232196
1399 2675 156.34667363043746
1399 2676 72.24948005955785
1400 1401 227.04359086555021
1400 9675 202.54023751221143
1400 15737 180.29563220389804
1401 1402 75.08411196133021
1401 9676 177.10116963887617
1401 19576 154.5045597285462
1402 1403 78.69628999975629
1402 5357 155.5533799144865
1402 5358 177.1815045992432
1403 1404 79.20451096018833
1403 9677 177.1606096806055
1403 12184 155.1982287866861
1404 9678 176.47947015799812
1404 15738 155.23173951825336
1404 17352 79.57606066042693
1405 1406 110.34788510192675
1405 1453 15.278212439748337
1405 15749 122.7486885744191
1406 1407 79.2647392076228
1406 9646 131.85981649099645
1406 10444 140.0974008925213
1407 1408 81.80318673423365
1407 9647 121.26017463134109
1407 15729 140.35066988340498
1408 1409 81.82128116704648
1408 9408 140.4166177874876
1408 9409 121.4143315957046
1409 1410 78.57973928264904
1409 9649 120.72830101166463
1409 15730 139.70703420045007
1410 1411 105.08449695151941
1410 11394 75.13879816594076
1411 1412 75.89326131999802
1411 9652 119.23615622434508
1411 14449 74.70150651301937
1412 1413 76.3059319994509
1412 9653 119.13558921268525
1412 14450 74.71256263074224
1413 1414 75.7998357688507
1413 9654 119.15683754840599
1413 15732 140.08524223214087
1414 1415 76.56288375629497
1414 9655 119.11252265253081
1414 11805 140.1971910293786
1415 1416 78.53288850104805
1415 9656 119.1367508841056
1415 15733 140.018099915905
1416 1417 78.89879150434545
1416 7182 140.21812129858537
1416 7183 118.95659258554358
1417 1418 79.25668764952192
1417 9657 118.94574945382963
1417 15167 140.20737050860313
1418 1419 79.03059024325208
1418 9493 140.3639807698476
1418 9494 118.6896347731591
1419 1420 78.58938487703092
1419 9658 118.61207420955682
1419 15734 140.50662615844328
1420 1421 79.16646108555031
1420 7964 140.3949907338888
1420 7965 118.74662851365221
1421 1422 80.36969337905278
1421 9659 118.97923304197825
1421 15302 139.83930168879272
1422 1423 82.55149464906093
1422 9660 118.59115209619402
1422 14280 140.15038821149244
1423 1424 81.48374212334792
1423 9661 118.85660716554546
1423 15735 140.03997425236798
1424 1425 82.57410981296435
1424 3463 140.00650937368974
1424 3464 118.58019831975218
1425 9664 103.74542186863104
1426 1427 32.87254264102576
1427 1428 80.41689924927338
1427 9680 174.3623416934574
1427 10106 157.06602338510518
1428 1429 78.87529799642847
1428 9681 175.82382994794077
1428 15740 155.39940241668035
1429 1430 79.01552098597105
1429 8099 155.4206648180814
1429 8100 175.5585810119437
1430 1431 78.41631233783542
1430 6132 155.18617969456545
1430 6133 175.21414360810792
1431 9682 174.8793929662713
1431 12670 155.5998418017533
1431 17188 32.025312081320045
1432 1433 79.29158322294629
1432 2149 155.3990869164309
1432 2150 175.84194959024313
1432 17188 77.89534866646791
1433 1434 78.83123443982747
1433 8744 155.38700837948002
1433 8745 176.90529820014282
1434 1435 78.92018718294662
1434 9684 176.89417216762567
1434 15741 155.46769788098754
1435 1436 78.95671361024644
1435 7794 154.83940731677197
1435 7795 177.71768823077176
1436 1437 79.55306168971394
1436 9685 178.09935378769208
1436 15413 155.04891136502533
1437 1438 78.81235068506494
1437 9686 178.3043931527891
1437 10151 156.09613573989523
1438 9687 179.34409791042262
1438 15742 155.78468353975535
1439 3042 95.35272373125
1439 9663 105.60444729986192
1439 13844 139.97601862798928
1440 1441 79.59079082553919
1440 6381 139.88835745825736
1440 6382 106.3805292792845
1441 1442 78.92931410725068
1441 8813 201.92172528518748
1441 15616 140.10496928566542
1442 1443 80.65056847462652
1442 8814 202.16130143999607
1442 15744 140.42979258276574
1443 5605 138.95220824599366
1443 5606 104.67690666641356
1443 17183 10.555948101191628
1444 1445 75.90800801158308
1444 9637 107.72907948879244
1444 15745 136.94831350840448
1444 17183 72.03175046201261
1445 1446 75.14518830702758
1445 9638 107.52920764291855
1445 15746 137.17220838107124
1446 1447 77.08621856964852
1446 9639 107.45910512430342
1446 13560 137.14943485239652
1447 1448 77.45888646260812
1447 2624 137.206743105498
1447 2625 107.69391560627194
1448 1449 74.23447983875172
1448 9640 107.7742585296303
1448 12625 136.93074166383678
1449 1450 75.56530706637125
1449 9641 107.72750981271301
1449 15747 137.27117972038334
1450 1451 76.11962251665138
1450 9642 107.41844831843497
1450 9724 137.32662091542136
1451 1452 76.3128072224181
1451 9643 107.60542319942249
1451 15748 136.9521081117125
1452 1453 75.4640132778247
1452 9644 107.24839339267898
1452 11569 137.0953232680635
1453 9645 106.74029856442083
1454 1455 78.99145531626026
1454 6177 154.70815500455095
1454 6178 180.50074428439547
1455 9688 181.29712823270606
1456 1457 197.10043323370817
1456 4730 61.2167283185763
1457 14277 63.37280597004923
1458 1459 260.7751461953402
1458 9843 125.22565219434738
1458 13057 61.01620597397694
1460 1461 75.87965489241769
1460 3505 103.90331019703072
1461 3506 103.20674601672536
1461 18930 83.91802465322712
1462 1463 76.0938702922094
1462 8957 93.82316745122792
1462 12820 156.435672099674
1462 19023 73.22795599857692
1463 1464 75.95606746732295
1463 8958 93.43810586839793
1463 12821 155.97552606517553
1464 1465 76.6947776153347
1464 8959 94.1157241804286
1464 12822 156.27691166273527
1465 1466 76.25069710668666
1465 8960 94.26784092554786
1465 11875 156.85308458424984
1466 1467 88.86637012237524
1466 3497 78.68107171937976
1466 8961 93.89876670151038
1467 1468 66.05343819690155
1467 8962 94.58254831211437
1468 1469 53.798475074075874
1468 3498 83.48765878359406
1469 1470 126.57514745190447
1469 5021 37.0992401983399
1469 17487 97.05378760203243
1470 1471 101.10417211435058
1470 3496 93.3814297408319
1472 1473 161.7220985319007
1472 3509 62.15553120412558
1472 4437 199.53505126197322
1473 1474 74.29551808567095
1474 1475 132.59763600330226
1474 8953 89.15776801629083
1475 1476 56.53320526531266
1475 3513 83.2948177473401
1476 1477 87.28915506727624
1476 8954 89.06713877719068
1477 1478 171.11838603065226
1477 2883 223.51508453481708
1478 1479 92.21429140019207
1478 1487 222.75674822177365
1479 1480 181.6603955067603
1479 2885 226.2315201071352
1479 19365 133.8300338026569
1480 1481 80.3499316269781
1480 2879 250.75231962854483
1480 5510 159.19737867918738
1481 1482 185.44103812245453
1481 2878 250.629933751121
1483 3502 103.12943090978325
1483 17724 120.14041267644102
1484 1485 78.98433181522493
1484 2324 33.32184918854448
1484 2325 46.25131818272576
1485 11049 42.96887261095301
1486 2889 302.55475263731336
1486 4134 114.39192067213713
1487 1522 29.63626049539657
1487 2885 87.28176383015443
1488 1489 162.12995410451285
1489 9560 113.28598655072973
1489 17276 102.66325798041493
1489 19189 72.77692335357597
1490 1491 104.46794753988567
1490 12880 89.48125249629263
1490 15148 76.59125732488037
1492 1493 100.52516506895039
1493 1494 138.21721437100348
1493 5401 76.04816413208786
1493 5402 78.6149440835124
1494 12893 76.55781673059961
1494 14671 78.39253793085875
1495 1496 89.30007959389336
1495 4342 76.60381736670965
1495 4343 78.25742804205005
1496 1497 92.13673200830286
1496 12908 77.08716821683434
1496 13587 78.06280905043187
1497 1498 97.70499632608295
1497 12280 77.12588593839911
1497 17639 77.92669071959656
1498 12883 126.7660203119819
1498 16016 39.39077299248242
1499 1500 33.603603475717826
1499 16176 79.28215192847813
1499 18747 117.6986239477427
1500 1501 148.6282083755278
1500 12888 79.28221878811235
1501 1502 97.96970773082289
1501 12889 78.7372634658394
1501 15779 80.06276841622831
1503 9060 214.35928422993686
1503 9061 127.15082951357985
1503 17004 203.4594864277783
1504 1505 78.86478658469957
1504 4955 79.01849977013218
1504 4956 59.261606135804634
1504 17947 51.684840635639915
1505 1506 79.6678072479037
1505 9563 103.76785805986586
1505 12898 78.91850245526281
1506 1507 79.52170888556955
1506 9457 78.65371848876626
1506 9458 105.11284720116515
1507 17928 83.19670398870973
1507 18256 59.168037712720235
1508 1509 156.1952332263138
1508 12899 75.83608669147583
1508 12952 79.16110810502417
1509 1510 159.15353415234216
1509 12900 80.55048201622797
1509 15232 79.89633822671745
1510 1511 240.97149703982834
1510 12902 87.09280388072055
1510 16177 78.28710175210271
1511 1512 101.91553646807033
1511 12881 67.00623403728879
1511 13919 74.74255857976846
1513 1514 86.80725989321469
1513 3751 204.94426568339395
1513 14409 275.5399316316893
1514 13389 204.53259202739787
1514 13390 94.3283751083575
1515 1516 157.03233278576417
1515 12357 73.57301357028709
1515 12358 78.06959708897638
1516 12886 76.6310788859855
1516 13618 79.02938575420465
1517 1518 89.7982298123968
1518 12906 76.86973177929679
1518 20026 188.05821243870474
1519 1520 47.67134249538025
1519 10660 109.23079947113972
1519 10661 72.70095158738704
1521 1522 63.631301584330906
1521 3486 326.16775718948395
1522 2884 63.075393343067134
1523 1524 66.47510105483629
1523 12890 80.43896063351079
1523 15067 79.39729119099485
1525 1526 78.90250291603859
1525 5802 202.37016252154183
1525 15574 199.38639372685844
1525 16917 78.24939742986167
1526 1527 79.36169985596182
1526 5803 201.9250149743068
1526 15386 199.9994035873317
1527 1528 80.33582965675178
1527 5804 201.4548332711472
1527 7812 199.84408253181874
1528 1529 77.42438626387509
1528 4809 200.87392251854843
1528 4810 199.77730166650596
1529 1530 81.1978248570553
1529 5917 101.27861177871937
1529 9375 199.70023828864618
1530 1531 79.55025643195562
1530 2092 200.13546024927408
1531 1532 39.985325784711094
1531 14098 200.47743632272423
1532 5918 99.14266718108041
1533 15868 200.5126031492164
1533 17586 81.16894469926041
1534 1535 79.05876576483243
1534 7625 139.98665906635532
1534 17586 79.14072576027803
1535 1536 79.11478131267047
1535 7626 139.82881949351116
1536 1537 78.92141849447707
1536 5811 200.181217410813
1536 16375 201.91344994431358
1537 5812 201.6373168297019
1537 12826 202.05595992146834
1537 17584 79.38016429451474
1538 1539 88.28910175740643
1538 3526 139.2051959386512
1538 3527 113.1971873454212
1538 17584 51.5301147847556
1539 1540 88.29688552433652
1539 5911 138.92736088507962
1539 13209 112.81854227534998
1540 1541 88.02454749422633
1540 5912 138.64920627683563
1540 10080 112.80741955508131
1541 1542 94.34561456149886
1541 5913 140.0797701532007
1541 13210 113.04141759762732
1542 1543 45.5839970397992
1542 6614 34.748185497767956
1542 6615 112.5423666460895
1543 6614 41.30268820292599
1543 9331 49.73512726409244
1543 18181 47.71343246344979
1544 1545 75.58210408020452
1544 5914 90.02247190346384
1544 13211 123.89176413985948
1545 1546 77.41202611751946
1545 5915 91.10213248907561
1545 11079 123.32117458443399
1546 1547 77.73335755961676
1546 5916 91.2873119189785
1546 13212 122.98963109258517
1547 1548 76.21710873729475
1547 5815 145.01098856348779
1547 13213 122.96514120275313
1548 1549 81.63354094615678
1548 5816 145.4279870306676
1548 9886 122.1033527626794
1549 1550 79.13938405804505
1549 5817 146.7255979525216
1549 11364 121.96471129692296
1550 1551 78.72000722054133
1550 1834 119.22727668690007
1550 5921 165.47464585313304
1551 1552 79.57593482337344
1551 5921 86.26838216962426
1551 9212 118.28267370928218
1552 1553 74.41781055804637
1552 5793 181.93457620497747
1552 13214 116.93848398177515
1553 1554 43.436192341977545
1553 3081 184.25794971668904
1553 13215 118.6064917749489
1554 1555 31.15120846639272
1554 3082 115.26486820173396
1555 1556 57.97601842736848
1555 5794 183.3584921274993
1556 1557 15.163770772880714
1556 8806 114.00844793898783
1557 1558 33.41016359199891
1557 5795 184.04225572951887
1559 1560 46.00201218285464
1560 1561 89.19435198413555
1560 2001 139.29585501916324
1560 2002 148.60194748214363
1561 1562 85.74474236937908
1561 5909 139.1102141789447
1561 15354 150.03643276040813
1562 5910 139.14533112024571
1562 10028 151.34256078518138
1563 1564 26.999601556306096
1563 1565 48.975927149686584
1564 7096 108.338952885211
1564 15867 78.27207775817843
1566 2565 172.64505480788597
1566 13931 147.67449910269283
1566 14957 55.93134440683519
1567 3263 76.9528019096886
1567 3264 140.36181936588363
1567 13934 197.94530950989804
1568 1569 259.9139938171051
1568 15398 99.49435284083202
1568 16673 145.71977775714652
1569 9183 39.21335043386274
1569 11014 171.5873237909389
1570 2825 75.06256220212855
1570 13271 113.64799032823055
1571 10824 159.91390992454498
1571 11774 300.5391599136051
1571 12140 110.9482739891739
1571 17023 20.170847416239774
1572 1573 76.11344348835276
1572 11894 201.4655482280809
1572 18216 16.99106605303149
1573 1574 75.95750594139574
1573 8501 201.97406303155603
1574 1575 77.61710856523625
1574 3645 201.8606981776154
1575 1576 231.68423576596348
1575 12745 201.74160351005443
1575 13118 302.4547695357534
1576 1577 249.4981042992212
1576 4861 201.80797333410058
1577 11595 92.68013716509941
1577 18574 22.006513413728428
1578 1579 150.43017088393572
1578 2470 399.0392582627877
1578 18574 175.59839558365968
1579 4446 213.69768137081783
1579 18358 213.67591738344075
1580 1581 108.37124694596842
1580 10893 402.9610100384418
1581 1582 135.0687896450448
1581 6252 425.9044397367284
1582 1583 94.93836602718119
1582 12058 159.4012761581751
1583 1584 62.848439674152345
1583 12091 158.53467125879837
1584 1585 43.132801068262275
1584 16436 100.26440446223185
1585 1586 208.82657484556802
1585 12876 159.8348468086988
1586 16185 160.1050629984967
1586 19856 101.49409029342394
1586 19949 9.941830180899961
1587 1588 158.73178699397033
1587 5506 83.637745275957
1587 19949 195.59380120893738
1588 1589 92.05879584240044
1588 16435 83.75149067132602
1589 1590 103.54489129534674
1590 11478 394.0726587891166
1590 19914 223.31395081160858
1591 1592 170.44671867612712
1591 13011 60.165353965903
1591 15534 135.72118776131273
1591 19914 7.71697423485438
1592 1593 116.36653564528368
1592 7870 102.7054960475181
1593 1594 192.13813683076108
1593 4212 224.47364760935244
1593 4213 257.2941007239137
1594 1595 76.21423013056813
1594 16400 74.07568053094275
1595 15453 163.53433130072176
1595 15454 175.56709385313476
1595 19654 34.24207003586277
1596 1597 138.7764307986355
1596 8873 229.78232075545665
1596 10412 336.5373171794418
1596 19654 237.15024107593104
1597 1598 46.19223574415434
1597 16428 336.4988873742815
1598 1599 59.02260260270104
1598 16611 153.33848401313392
1599 2976 159.23973370473502
1599 2977 88.59347848460352
1599 17446 57.09815541948359
1600 1601 95.65430967165864
1600 17446 11.60205057700212
1600 19008 408.9241457942462
1601 1602 133.4681115121752
1601 11968 159.22796107723994
1601 18353 440.5377108886489
1602 1603 168.45727795678397
1602 5110 444.6050248081333
1603 1604 73.70432813865288
1603 2943 80.02012674749407
1603 2944 454.0932858865858
1604 1605 82.22655121627065
1604 16077 191.5233673738507
1605 1606 58.772380512738614
1605 13009 100.82465790200143
1606 10999 16.237942573055918
1606 18245 74.03083909009183
1607 1608 57.4571470189303
1607 11000 32.67820862432551
1607 18245 7.446219336375983
1608 1609 206.35941756869872
1608 18245 65.87815074753044
1608 18352 398.8571689139232
1609 1610 56.632997913684086
1609 12776 141.91233678408625
1610 1611 43.91193810182084
1610 16154 129.4362797441519
1611 1612 95.58564986608488
1611 16146 117.73344886224923
1612 1613 148.1088290709243
1612 14152 215.4029258625368
1612 14153 389.13020248730714
1613 1614 39.4948673714995
1613 13496 92.70799529006285
1614 1615 253.93189294524905
1614 14151 376.5440487234134
1615 1616 96.70214528754022
1615 10887 491.0532883443535
1616 1617 190.73064213472162
1616 5184 555.2906556294175
1617 1618 63.92953128781252
1617 14478 147.1932154272243
1618 1619 104.85704774652318
1618 16344 111.10228635619308
1619 1620 72.23233312075307
1619 10872 140.2629938032804
1619 16271 145.24970703938894
1620 1621 52.45073548485875
1620 9365 362.1427931006138
1621 1622 89.8467271519173
1621 6580 146.13809465477618
1622 14919 804.8436822287288
1622 17566 140.98736852959667
1623 1624 342.9766067124665
1623 11181 495.6174798864066
1623 15682 468.0065460633992
1624 1625 380.9112074402156
1624 19089 9.106877357229301
1625 1626 227.14346666908295
1625 5861 440.40302079740957
1626 1627 1320.2590936267957
1626 11578 398.1776572924061
1627 1628 9090.993590098373
1627 3343 499.71438537082594
1628 1629 897.5031642885053
1628 15057 242.90047819778044
1629 1630 876.2231768796735
1629 7557 92.38116903656987
1630 1631 808.5139846770553
1630 17248 402.5509201857533
1631 4152 215.68598228061774
1631 17122 2164.1554785823255
1632 2088 115.8297058576079
1632 15966 105.53841323886684
1633 2090 103.41278532629931
1633 17151 53.55473959260534
1634 1635 310.9634496047322
1634 4612 138.39572369518223
1634 12363 325.98317633261036
1635 1636 84.33767903396182
1635 12361 96.3231031535846
1636 1637 215.53826454857713
1636 11053 208.67496213986664
1637 1638 165.80910074106947
1637 10676 42.268968109224105
1638 5548 28.939223449862883
1638 11053 119.54289611811703
1639 7687 32.41548833532797
1639 13544 54.063678885288155
1640 4183 212.90985101532846
1640 13165 98.66048322474649
1641 1642 103.33388000651786
1641 14709 167.59374983041198
1641 19946 100.13480477168665
1642 1643 256.17163078448647
1643 10321 100.34351187234296
1644 4864 76.3695770149831
1644 4865 75.76136362596903
1644 13736 223.0537598988579
1645 13163 87.81861448334625
1645 14532 85.3566693838295
1646 1647 201.6800047576513
1646 10256 48.4889304949472
1646 17736 93.29516129443556
1647 1648 203.6915042530786
1647 2179 88.03920778696761
1647 2180 49.86919336092752
1648 1649 207.63433617397013
1648 9372 87.93274377945043
1648 10255 47.9824409146802
1649 1650 188.4431057001853
1649 9373 87.48156631523186
1649 10253 48.72206162894799
1650 1765 92.242625517136
1650 1766 47.94402762363818
1651 1652 69.32398602598042
1651 2620 45.06082854282475
1651 5246 30.98756602868511
1652 1653 106.34085693509235
1652 19047 67.22621873217935
1653 1654 38.39380853166506
1653 2593 29.001823211288457
1654 1655 55.70810012565832
1654 6472 79.93159207424853
1655 1656 84.41025944723589
1655 12634 265.2591724444917
1656 6473 78.6581900892703
1656 8200 105.33868513181156
1657 1658 69.18945926655721
1657 2733 73.60328039447612
1657 2734 79.4700369784227
1658 5860 73.48108176165421
1658 5861 79.63873189765023
1659 1660 417.5645594789329
1660 7027 218.3232803863513
1660 8928 64.78410128047369
1661 1662 36.197019819469325
1662 3331 114.71049385661664
1662 8922 206.43035615350502
1663 11920 188.22365334321054
1664 1665 228.84245225743103
1664 14807 178.0757090869239
1664 15082 77.45870366101025
1665 1666 172.7771620127467
1665 4181 127.47770732685633
1666 1667 85.38809181638288
1666 15083 165.20873594131655
1667 1668 86.43472290442895
1667 3601 197.04563579910777
1667 3602 76.67398840144598
1668 1669 96.55772821695483
1668 15074 139.98554850239742
1669 12921 197.72701318397606
1669 12922 75.73659945866574
1669 19351 71.15921497685507
1670 1671 156.53197952155722
1670 11969 119.15873612322214
1670 17496 74.68416887387261
1671 5125 68.29940278501428
1671 5903 63.147119343380155
1672 1673 101.69280398139621
1672 1674 196.64571850900597
1672 3163 120.76855651644678
1672 13154 107.91314310117298
1673 1674 110.858202859818
1673 10201 180.43130375723214
1674 10200 101.82488826864596
1675 1676 126.75870255546363
1675 5298 171.01080447566193
1675 5299 108.08415525122534
1677 1678 139.34024449844702
1677 7526 152.88887280269915
1677 10338 79.44377012330837
1677 13937 81.64844846141753
1678 1679 152.24683224339827
1678 4761 78.74240558820034
1678 4762 44.35547900501462
1679 8214 79.45037776827091
1679 13186 43.577618664872766
1680 1681 116.26743127247484
1680 4307 88.92876266696302
1680 18372 69.32581807429531
1681 1682 116.8458358724626
1681 8231 89.92435972189259
1681 13905 88.78580218457493
1682 1683 116.71106874410403
1682 3151 90.92621514150338
1682 3152 88.54888108849939
1683 1684 132.0941013243099
1683 8227 89.2278095383315
1683 11201 89.33634871304271
1684 1685 119.77506547723625
1684 7582 89.29483461202285
1684 7583 89.14440109354572
1685 1686 119.74047946694735
1685 8228 89.10192814453676
1685 10684 89.39322656667187
1686 1687 120.56289500812522
1686 8229 90.2338052405542
1686 13906 88.27806845905664
1687 8230 88.95548713371792
1687 13721 89.48349230140349
1688 1689 155.6568085554126
1688 11822 132.13493550818737
1689 1690 145.2855478973054
1689 4098 172.51803583115517
1690 1691 47.5908291784467
1690 3832 179.28086246343577
1691 1692 214.2845199339455
1691 7092 144.81043482246866
1692 3874 104.76792936137431
1692 3875 850.7859522740969
1693 1694 226.5479216759971
1693 1697 356.03093134591995
1693 2732 128.27419494346242
1693 11141 536.3846406093176
1694 1695 74.21873001901054
1694 6327 266.3423092525398
1695 6328 351.6648616305165
1695 11854 124.85502165677066
1696 1697 46.98936614724712
1696 1698 257.16019478739844
1696 11058 88.85078136954871
1697 6327 345.2272033725094
1698 19280 11.84476143141581
1699 3429 101.24341982171626
1699 6880 75.60391550069512
1699 7138 77.26681900189128
1700 4044 81.7403062855422
1700 13221 75.42457684524123
1701 4046 81.29273429631172
1701 13222 77.60411703803099
1702 1703 152.00324516327254
1702 3435 94.19494934075118
1702 8776 56.07931156611295
1703 1704 36.696451293152016
1703 8002 89.86957396728631
1704 1705 211.16362996431388
1704 15957 165.2356248572676
1706 1707 98.32986482731172
1706 6949 57.01879998182315
1706 6950 101.63107009699605
1707 1708 87.64190901876503
1707 11808 93.69699834682797
1709 1710 61.291670281728365
1709 14345 113.34425433973105
1709 17649 132.91253206224212
1710 1711 67.98098689369796
1710 14457 103.51854465519096
1711 1712 48.47484761419713
1711 13330 47.76857396709893
1712 2973 48.78393556856149
1712 3682 120.6850413504927
1713 1714 141.29294277981998
1713 3730 83.20822228240651
1713 16289 154.1306859975912
1714 1715 98.88488929479234
1714 11006 62.8387118127524
1715 3731 83.15120912623864
1715 3732 505.66457170410666
1716 8148 58.47884634667834
1716 18412 77.98513632397997
1716 19068 85.64603401891021
1717 1718 79.161038595906
1717 4577 128.5009759471771
1717 15285 144.3728314835527
1717 18412 79.48876034350565
1718 1719 78.65844808286538
1718 3829 142.78604713174715
1718 3830 129.30861082916928
1719 1720 63.19861081957897
1719 4578 129.3727569075216
1719 16291 141.81877109073528
1720 2852 144.59825282555883
1720 2853 134.23644605701278
1720 18027 10.72044141570826
1721 1722 111.99960820237705
1721 3728 97.82288738817927
1722 11786 201.96367974635902
1722 16288 61.64898770920625
1722 16661 241.17318371784222
1723 1724 138.03762956477763
1723 4570 77.19186968763347
1723 4818 81.82761745413049
1724 1725 265.9719949191866
1724 4571 76.9115505937752
1724 4819 79.20907179387083
1725 4265 35.13922547405765
1725 6656 146.73914739408363
1726 1727 116.07915316440354
1727 5385 269.87519151146506
1727 10348 101.32535190107238
1728 3725 76.72496459615047
1728 3726 211.52638578644033
1728 11709 35.554539613168174
1729 1730 99.7776204611133
1729 8928 126.11433175107949
1730 8929 98.94623187579626
1731 1732 48.012544676493434
1732 14237 20.421976998907347
1732 18973 19.20310215571488
1733 1734 83.1516855308677
1733 14812 188.4537522144716
1733 14813 185.777095724876
1734 1735 116.56604014445212
1734 7524 56.33226621622345
1735 1736 166.66185366834972
1735 14831 82.2135093578717
1736 1737 245.1571317871207
1736 9816 175.09678755481553
1736 9817 94.13211413996184
1737 1738 170.85367560234323
1737 9618 82.09997723019012
1737 9619 83.91340458730663
1738 10266 83.98740673809313
1738 12966 83.14754095988718
1739 1740 139.7945642462158
1739 2395 82.8031889768709
1739 2396 84.31125397863669
1740 9548 83.27519062906997
1740 16990 60.07042069056536
1740 17219 83.45443626768005
1741 1742 84.06380893029196
1741 7940 77.58403819054554
1741 7941 77.7069741939625
1743 1744 103.5615703108401
1743 7588 138.62375738865725
1743 19592 170.85838189075116
1744 1745 70.08790065910934
1744 8607 58.78927377661915
1746 11203 183.98778760466183
1746 19592 231.59056932365309
1747 7288 84.24143135877338
1747 7289 23.891124142236755
1747 13378 187.02925564124686
1748 1749 74.05327165967832
1748 11084 106.82606164915043
1748 17596 83.02897221162729
1749 1750 76.91952680193859
1749 5798 203.51830438776972
1749 14633 106.89303154235103
1750 1751 21.57025964119036
1750 5815 231.86113256863086
1751 1752 52.776250603373036
1751 15107 104.11429323359522
1752 1753 30.436210610671708
1752 5816 233.15366928310334
1753 1754 46.1603712983752
1753 9879 103.7236901205416
1754 1755 37.47385662862976
1754 5791 198.7920399193643
1755 1874 390.3142902606711
1755 19323 40.92227340024741
1756 1757 82.85105812021864
1756 5792 199.3774076199066
1756 19323 76.3625205236278
1757 1758 79.55635951641298
1757 5793 202.28323663621035
1757 16233 165.0419634828972
1758 3081 201.67118690218547
1758 16233 239.97688252983593
1758 19263 48.938770823896036
1759 1999 104.21516436516707
1759 18136 20.48390131945236
1760 1994 163.96594502586825
1760 17755 66.22718689717382
1760 18136 3.6057464030789093
1761 10026 163.51460497033906
1761 10027 111.09173658597778
1761 16929 17.389811359249137
1761 17754 73.28796858401003
1762 5802 200.09805409298616
1762 16929 78.82068734953084
1762 18129 37.595466564277885
1763 5803 196.24947131806633
1763 18129 42.94352735332676
1763 18130 18.672086226773462
1764 5804 199.3483963361734
1764 17752 81.99747797812452
1764 18130 60.10682162228033
1765 9373 189.9066020088298
1765 9374 98.6423233579419
1765 17752 82.57512426268124
1766 1767 52.809947605362424
1766 10253 188.06902370097137
1767 12583 98.71028369540969
1768 1769 79.7828964669024
1768 5808 199.10615399111225
1768 12204 198.4663085900949
1768 17751 82.02206516658653
1769 1770 78.66640627027591
1769 5809 202.08208847420858
1769 16404 195.94214038485495
1770 1771 78.90530972325303
1770 5810 200.86656228623116
1770 10356 195.90890659751867
1771 1772 79.47975272121667
1771 5811 201.0676111908389
1771 16539 196.1044439825677
1772 1773 78.42497651579959
1772 5812 201.15629093696862
1772 12825 194.65310837797284
1773 1774 49.156712712701356
1773 5813 202.03541658492256
1773 13325 193.79664082009674
1774 1775 30.303551274825008
1774 3525 131.90062666911868
1775 1776 57.711475349022436
1775 3531 192.83085187523244
1776 12582 132.21183003476764
1776 18131 37.44640626695927
1776 18132 26.134139357841132
1777 5193 83.66040695836136
1777 17340 8.168327855311864
1777 17348 613.4352055394554
1778 1779 76.31517432175393
1778 5194 79.1876832981298
1778 8642 79.28958446151287
1779 1780 79.90253418282464
1779 5195 79.64067689311152
1779 11716 79.09537569043711
1780 1781 78.32679307843583
1780 5196 79.29414472454029
1780 11717 79.25648839442454
1781 1782 80.71551873409709
1781 5197 79.49000367288251
1781 11168 79.20148652548774
1782 1783 76.81640586605134
1782 3185 79.50227354427378
1782 3186 79.13536377934167
1783 5198 79.21945366861877
1783 11718 79.97511647133003
1784 1785 78.63002721114636
1784 5199 79.23075791029088
1784 6625 79.49053073873401
1785 1786 79.44875218622728
1785 5200 79.23156961073884
1785 11719 79.05351354431927
1786 5201 79.2193575651288
1786 11720 79.16345767217051
1786 17307 78.23262147748157
1787 1788 79.16804995359203
1787 5202 79.23083172771356
1787 11721 79.36528466596758
1787 17307 79.49539792654706
1788 1789 80.04266561483296
1788 5203 79.22094375530216
1788 6516 79.47560619157223
1789 1790 77.75851126141471
1789 11722 79.67369335446719
1789 17083 59.148361582863735
1790 4318 125.72734230656154
1790 4319 80.0371205738196
1791 1792 79.78427640627406
1791 19426 79.13236389566507
1791 19428 79.39494191354285
1792 1793 78.39240981965187
1792 5190 79.01671927701534
1792 11712 78.74749454953484
1793 1794 78.04201018663075
1793 5191 78.26065347298687
1793 6191 78.86446710439252
1794 1795 79.87691883373097
1794 19433 207.81116215113389
1795 1796 79.17215199087438
1795 11713 79.21141905208309
1795 19434 199.93696009312973
1796 1797 78.79030679897035
1796 5667 192.2048007875598
1797 1798 158.38337705354195
1797 11714 79.5642254881479
1797 19435 78.93984354972656
1798 1799 80.32571213651696
1798 11715 79.42497612031877
1798 19438 78.70344388752127
1799 1800 77.39554781924811
1799 19439 161.14827374045842
1800 17802 74.77640637973104
1800 19287 79.30856525250121
1800 19443 88.28293338231344
1801 1802 133.3786419495439
1801 2640 52.44291194061234
1801 2641 96.73114061272015
1802 13886 307.900314633174
1802 14097 106.41041344571356
1803 4290 69.48413857810488
1803 4291 78.46193492129223
1804 1805 140.68368537418178
1804 2398 79.20146355666671
1804 2399 78.73470515533944
1805 4314 79.49173514374642
1805 9550 78.43760685778857
1806 1807 346.9792702571194
1807 5863 97.64908273084781
1807 18750 59.316015210268596
1808 1809 294.6445889558093
1808 18750 6.856616017721939
1809 5545 208.55063476746284
1809 19065 124.2684197565128
1810 3890 96.89709835530614
1810 3891 246.8200911094588
1811 1812 53.88837553531186
1812 8234 413.2270370605154
1812 15587 329.0064730595629
1813 1814 322.99292346351024
1813 4053 53.18699960846803
1813 18417 160.38739290625023
1813 20020 6.0238869606418
1814 4055 106.89012428866067
1814 14553 97.1149642533426
1815 1816 69.80023008862602
1816 10341 153.69097514523585
1816 15426 155.94256610737264
1817 2581 313.2656588184732
1817 9984 153.58614230099212
1817 16563 81.02655671734527
1817 17533 74.16046705407382
1818 1819 71.72294329357818
1818 14567 156.66155387596268
1818 14568 53.540885277824636
1819 1820 80.12801636755374
1819 10346 153.55303229981783
1819 18486 154.73902357467384
1820 8069 81.90449223432142
1820 17989 202.9617312133306
1820 17990 53.399080366466634
1821 1822 109.89410235173267
1822 11788 57.96001828897041
1822 16661 112.22044732976171
1823 1824 126.36765168066336
1823 10677 180.35331046237727
1823 11789 126.03149806585597
1824 11778 125.21921886186726
1824 14539 143.58201508406313
1825 6431 125.98837272374169
1825 17164 1191.50887154275
1825 18300 108.50626799630166
1826 1827 52.25961784891733
1826 8865 151.1216199752279
1826 17111 181.10785131964928
1827 19129 85.27338031556414
1828 1829 104.21167676461721
1830 13927 150.85300723066604
1830 18180 54.4266361384573
1830 18370 37.411337938056214
1831 1832 153.93461079787613
1831 1852 51.52897442048932
1831 9222 34.1190658654775
1832 1833 138.8729924575734
1832 9226 79.7976443237897
1832 17957 78.51251357291629
1833 1857 19.335620839963475
1833 17957 215.00509180565066
1834 1835 75.91288553786026
1834 9212 78.65190377271763
1834 11364 74.02066791448715
1835 1836 76.36406399178912
1835 9887 159.82364446746195
1835 16234 157.27848237715176
1836 1837 76.46297875199652
1836 9888 158.80208398787295
1836 10945 157.96142435495918
1837 1838 79.44962567426094
1837 9889 157.90510343966338
1837 14832 158.31749176133732
1838 1839 92.81636461526516
1838 9788 157.74730401153883
1838 9789 158.19149621551702
1839 1840 76.33571421487791
1839 9890 125.50039322886103
1839 10067 156.72567479943444
1840 1841 76.22596064505623
1840 8655 125.31986153967274
1840 8656 156.71597861183665
1841 1842 76.0799454407782
1841 8655 199.42094073525817
1841 12523 155.86590683550557
1842 1843 75.99098962360804
1842 15845 155.79403007040438
1843 1844 76.95633652259652
1843 9611 155.41165241865923
1844 1845 15.02274609613249
1844 8909 153.76694437070256
1846 1847 143.65612241141542
1846 9217 84.76951447285686
1846 9880 85.87766225923028
1847 1848 139.87445616179056
1847 9218 85.97560774351217
1847 9881 85.28523805581574
1848 1849 140.5536927417042
1848 9219 85.47628846095785
1848 9882 86.23938365968284
1849 1850 140.24119095845833
1849 9220 85.60258946180048
1849 9871 85.46726691827122
1850 1851 139.67521803726106
1850 9221 85.49557102108204
1850 9872 85.22299937451801
1851 1852 102.99370879357267
1851 3045 85.31501544969348
1851 3046 85.2915851209344
1852 17957 178.88819068020914
1853 12515 161.51248443028004
1853 17894 58.01232492687091
1853 18844 7.617439741870262
1854 17048 39.13704849136878
1854 17895 22.07723905814559
1854 18847 381.60891928981914
1855 10468 132.9559251462932
1855 17895 12.400738198287502
1855 17954 78.33421107692502
1855 18137 13.225156902034891
1855 18847 385.98865073900583
1856 3494 122.28098951693319
1857 1858 79.6590691237928
1857 9227 78.13704466463851
1858 1859 79.3541308364782
1858 9874 143.09343319767834
1858 10839 157.23353987129548
1859 9610 237.68486256056576
1859 12965 157.65052077000726
1860 1861 81.91996669907056
1860 9223 78.78731170491068
1861 1862 89.86837012587897
1861 9224 79.38808695317118
1862 9225 78.72040045370574
1862 18810 130.28482128231002
1863 1864 79.07512980581333
1863 2197 205.66345975328943
1863 13198 86.35669953400355
1864 1865 97.20831435378888
1864 9215 79.18968007930278
1864 15397 85.71727455462789
1865 1874 44.132525487272275
1865 9216 78.89784560712742
1866 1867 227.7640640807233
1867 10137 865.9988027176198
1867 12313 109.23241199030463
1868 13692 100.72990876696853
1868 13808 336.5412181477518
1868 16930 212.95450431987345
1869 8809 271.81407813541966
1869 9257 136.29024872061277
1870 5791 80.26178054336619
1870 5792 78.68680272327148
1870 19323 198.77176276877012
1871 1872 102.25524804434126
1871 4115 49.114144542716325
1871 4116 78.82699094200008
1871 9631 69.77704161564556
1872 1873 125.71155457087632
1872 9208 77.7509365816336
1872 11365 49.77245133438999
1873 9209 78.03057397203783
1873 12228 23.682590577601108
1873 19142 231.08564043693167
1874 9877 83.59067229862995
1875 1876 198.09829633413867
1875 11128 72.80318167805483
1875 13302 78.19559942974263
1876 11129 72.97846508590138
1876 16354 77.22796930833198
1877 14082 111.16229205335986
1877 16002 165.24368507380467
1877 16636 233.5844327318934
1878 1879 157.5716566620391
1878 10519 217.90378323570428
1878 19395 55.22395036650616
1879 15050 157.4603456833787
1879 15051 146.6401910692747
1880 1881 78.27080987795377
1880 13838 80.85224715068081
1880 14578 157.13435396213418
1881 1882 79.39233551312499
1881 2446 82.22159729144131
1881 2447 77.82749845520426
1882 1883 78.3066832593676
1882 5559 82.50809427182094
1882 5560 77.50943023075071
1883 1884 78.740449048835
1883 11102 77.65996153660093
1883 15010 82.23006984447224
1884 1885 78.47595928479528
1884 5585 80.93413315341174
1884 5586 78.13961171074232
1885 1886 80.50312575919156
1885 11103 78.81933968115023
1885 19951 80.20743551757322
1886 11104 79.7277553522165
1886 16358 79.10505988746775
1886 19609 78.74961987099593
1887 11109 80.76314393564952
1887 16360 78.15994691290648
1887 19495 79.84501765968183
1887 19608 78.70986554790531
1888 16114 77.04836098647122
1888 17872 118.16544958595259
1888 17941 41.0771235230997
1888 19504 111.9114643254048
1889 15299 75.01314139861707
1889 17870 57.577266343511724
1889 17872 12.88797487710185
1890 16353 77.60384194521514
1890 17870 82.07180398878985
1890 19265 60.54615719152413
1891 7317 69.73044430820356
1891 18006 185.16519811891587
1892 1893 79.73138554477269
1892 5715 150.6634302562522
1892 18006 78.52164041789237
1893 1894 78.11853636306938
1893 14772 150.57293749107322
1893 18614 81.57906671658895
1894 1895 69.34392554574303
1894 1907 34.92943915277949
1894 4656 149.4028948410209
1895 1907 70.51681988051362
1895 3490 12.845523571286918
1896 1897 201.3457454398678
1896 17031 114.81800968157322
1896 20073 29.869745595305748
1897 1898 149.50657047166916
1897 5458 76.60227608091658
1897 5459 76.37744515674802
1898 1899 127.66187593060862
1898 7987 76.66776826593913
1898 16364 135.8162574517915
1899 16363 65.33673444976256
1899 19317 142.05696319311974
1900 1940 47.23715126520531
1900 9241 121.19207817105723
1900 19317 210.04997472405014
1901 1902 209.49424862579298
1901 11122 75.90229989456991
1901 14574 34.921960468974156
1902 11124 80.87996170962876
1902 12944 173.55071262266193
1903 1904 290.67502476609985
1903 6886 126.13237383608592
1903 6887 74.719624737408
1904 1905 24.6801384516899
1904 7614 78.48189048990247
1905 7604 238.627017819545
1905 7605 73.5101800840095
1905 14700 118.0441599991963
1906 11125 92.16005886070286
1906 11126 287.8551522152999
1906 14087 86.43081941476954
1907 1908 51.266225847553784
1907 4655 114.14008608247644
1907 8679 36.801805192720956
1908 18445 11.668555655055282
1909 1910 70.65443048165805
1909 12502 147.42348107324605
1909 18445 66.36468139252877
1910 1911 6.363689263325967
1910 8681 86.02868408947408
1911 1912 23.71779599267928
1911 16097 69.65299932977946
1912 1913 84.66538435260945
1912 8682 110.03608262294087
1913 1914 78.12270614640056
1913 17621 161.34415047148457
1914 1915 75.32648966997189
1914 14023 154.039015834037
1915 1916 75.84084294410472
1915 3994 150.03571453389603
1915 3995 154.87319535410506
1916 1917 76.26940438755881
1916 13534 154.71699391355884
1916 18613 151.06967120985175
1917 1918 79.26487242494981
1917 2545 151.65293721734633
1917 2546 153.96355183225677
1918 1919 78.84731547522813
1918 12568 152.62638980831903
1918 12569 153.84954350349784
1919 1920 79.01967137552043
1919 4722 153.47149404142584
1919 4723 153.66140036722928
1920 1921 79.08883524135693
1920 13779 153.68273112062195
1920 13780 153.99452662581297
1921 1922 79.31441667484958
1921 12591 154.1163998636381
1921 12592 154.07222300629482
1922 1923 79.07297782104084
1922 14336 154.08391194464414
1922 17862 154.81692253637883
1923 1924 78.70707265248193
1923 5273 154.02746935323106
1923 17861 156.6493435883809
1924 1925 79.59488290538874
1924 12164 155.52856899866242
1924 12165 153.8941512340836
1925 1926 78.56674864967606
1925 16586 154.0385514392979
1925 16634 155.71875072782868
1926 1927 91.36320290003968
1926 13604 156.11850701521877
1926 13605 153.86077080550157
1927 1928 80.02647990918689
1927 2677 149.5647754807186
1927 17618 164.3223025263785
1928 12694 138.80651553446543
1928 12695 178.07587505202326
1929 1930 79.3458738796696
1929 10925 138.69797668300203
1929 10926 178.34907803028216
1930 1931 81.39484001956518
1930 9105 138.88790727144112
1930 9106 177.8082487609565
1931 1932 73.45610639732665
1931 14392 139.3096711072597
1931 14393 134.00142585043707
1932 1933 73.01104990556513
1932 5362 139.16954150595726
1932 5363 134.0968436070582
1933 1934 72.97367330809271
1933 12177 139.1782368681516
1933 12178 133.73994878236516
1934 1935 131.42864899596208
1934 10692 134.38374629052169
1934 16635 138.93932995160745
1935 1936 57.189968769382894
1935 10691 173.64452618667138
1935 10692 227.0818919790635
1936 1937 78.46179300056203
1936 16579 131.76109413591018
1936 16590 136.86554143305418
1937 1938 219.43757967672843
1937 10117 80.6243485025523
1938 1939 103.43486326783707
1938 8088 77.52914985755483
1939 4466 187.52731383497598
1939 4483 156.53359623351736
1940 1941 205.23139258804233
1940 9242 47.25101449058509
1942 1943 79.62007050565185
1942 2151 193.9772934899645
1942 6607 164.72620930517525
1943 1944 79.21597263244459
1943 4466 82.34348863704324
1943 8746 204.2902708109623
1944 1945 80.27309830286146
1944 16036 202.56801622922384
1945 7798 188.66108223531052
1945 15415 243.55002561960163
1946 1947 319.2761546747031
1946 2132 177.35498646777637
1946 8600 91.3729931205538
1946 12452 78.25042034854741
1947 8602 134.4349510633977
1947 10537 89.04934587770796
1947 19001 161.4290791503461
1948 1949 193.141465716923
1948 12453 57.565015504374
1948 13422 46.39167434262987
1948 19001 187.26757990952999
1949 1950 107.34071653422919
1949 8599 64.93976242565981
1949 12454 86.7406728200714
1950 1951 99.367623250111
1950 7636 183.88570326638666
1950 12443 110.23960687436966
1951 1952 91.25790134631369
1951 11588 110.11005289561953
1952 1953 79.6947979185697
1952 7217 110.30182525229242
1952 7218 185.17946292230943
1953 1954 76.4699325457943
1953 2474 110.38660232232279
1953 2475 184.70483130591072
1954 8571 47.153644117361836
1954 12444 108.12887866424934
1955 1956 105.86630142846896
1956 1957 223.74619359681896
1956 5533 79.32789828581664
1957 1959 48.999145026713215
1957 8593 58.80250320431432
1958 2918 97.19528443841767
1958 2919 103.78979230797282
1958 8576 178.02232176711865
1959 1960 78.24253653400099
1959 5843 106.11137921149457
1960 1961 75.77996896895041
1960 5844 107.12115178791652
1960 8594 109.15045257755652
1961 1962 153.29494042142016
1961 5845 105.5009656416942
1961 8595 109.79071340464797
1962 5847 106.33298064071487
1962 8596 110.08174948025997
1963 1964 77.9589390855662
1963 8579 101.50376349694632
1963 18463 99.07847724767453
1964 1965 74.4045537929601
1964 8580 99.72951038876462
1964 9164 100.73867139318413
1965 1966 76.60810225841712
1965 8581 99.78994655448227
1965 12430 100.18929540452514
1966 1967 76.40437980015984
1966 8582 100.4459363196804
1966 12431 100.0116360701125
1967 1968 76.08298470525875
1967 8583 100.21363988374549
1967 12432 100.28361277578438
1968 1969 110.85896963434179
1968 8584 99.94152138545803
1968 12434 100.04339838160747
1969 6009 99.45288785096281
1969 6010 49.80042260766548
1970 1971 393.9575430130042
1970 8597 86.76470561963166
1970 12460 86.2739778331431
1970 17836 10.47522932123179
1971 1972 399.18774634621394
1971 3594 85.7575570574046
1971 3595 87.603849530587
1972 1973 199.76350967133672
1972 8603 81.12392405813766
1972 18464 72.67464861482856
1973 1974 202.31635055283118
1973 3020 73.71327477539623
1973 3021 76.89377095365339
1974 8605 76.41002355579633
1974 17402 75.1703174006169
1975 1976 112.0255234034988
1975 8606 70.49533816037112
1975 11974 105.88799020524453
1976 8575 100.79431500528322
1976 10335 49.647375833420185
1977 1978 64.13535286081921
1977 1979 50.40796696389514
1977 2131 663.8157222217636
1979 10615 41.671458798142226
1979 10742 93.23715085342059
1980 5128 45.678999714902716
1980 5875 294.9556068138364
1980 11961 91.15811519280393
1981 1982 57.265521574281564
1982 1983 78.55339928414077
1982 10632 78.95935940708681
1983 1984 79.2166651631291
1983 15349 79.15052944648872
1983 15956 73.56541422229213
1984 1985 78.09233245051932
1984 11655 73.99109134998012
1984 11656 79.12873785623036
1985 1986 79.61119502996884
1985 10840 76.48003814503511
1985 10841 78.6287945431782
1986 1987 79.39984050606384
1986 12962 75.25462349861225
1986 12963 79.25638528354095
1987 1988 79.23780183509882
1987 9603 74.93498415431432
1987 9604 79.8783950376507
1988 15350 79.15731545915835
1988 18376 170.26525374377553
1989 1990 79.6437693956818
1989 12698 79.27578883731128
1989 12699 79.08203671054818
1989 18377 79.40569313167265
1990 1991 79.48677523820017
1990 2192 78.75199535862566
1990 2193 79.09501103278065
1991 1992 78.78253067266692
1991 13192 78.96162102794868
1991 13193 79.12003387005859
1992 1993 96.99817339117371
1992 15351 79.05425939069612
1992 15514 79.09567394575237
1993 1994 226.34316381086646
1993 15352 79.13588302785833
1993 15889 78.82911441758792
1994 15353 75.95928249529567
1994 15889 290.92992086242714
1995 1996 140.8964097085339
1995 10012 81.75153490367228
1995 12603 42.616067748599185
1995 19114 140.22908838360974
1996 1997 138.69740572957863
1996 10013 82.77751921272196
1996 14248 41.899474083691814
1997 1998 93.6389214339862
1997 3049 251.00398060602367
1997 3050 87.76852164126005
1998 2011 24.63553087969581
1998 13687 42.458155736883214
1999 2000 98.01954216485895
1999 12581 88.86199276760279
2000 2001 99.53231599505855
2000 5799 37.61273987547471
2000 5800 88.98292444195165
2001 5908 45.130907267348746
2001 5909 89.27315367758638
2002 15354 88.7619809434156
2002 17897 37.776498282264306
2003 2004 86.23246772351536
2003 9790 139.03774713519175
2004 2005 76.18151493830283
2004 10029 136.2720562317063
2005 2006 76.1696263974949
2005 8652 139.4774406132961
2006 2007 76.50364288013708
2006 10030 138.45572006903961
2007 2008 77.27949672447991
2007 10031 139.93678070929715
2008 2009 76.05985970964116
2008 17747 138.33628408810668
2009 2010 75.6177188687775
2009 8908 138.59163367335907
2010 10032 140.792012804836
2010 15356 202.4546599183225
2011 2012 50.21628166603428
2011 13688 66.27260678513196
2013 2014 107.38796107921402
2014 2015 304.6447012445894
2014 9742 38.5716888907152
2014 9743 111.26085780071728
2014 14375 36.55154307160979
2015 2016 260.8904272196351
2015 11856 109.55498396677334
2015 13297 155.1476123947735
2016 2017 155.68088149485945
2016 3168 234.41178522870058
2017 2018 174.6723979295356
2017 2971 181.8046705538304
2018 13279 408.77271797046785
2019 2020 28.814835690698118
2020 2021 77.47397623042401
2020 9337 84.91958992186144
2020 17361 107.16000680430398
2021 18798 176.4692032046923
2021 20112 179.13108742918052
2022 2023 78.66404402987094
2022 3426 170.30421383636937
2022 3427 130.6062738053201
2022 18393 65.42719399088287
2023 2024 78.31904945749983
2023 3143 170.4886885298672
2023 3144 93.9972514797005
2024 10464 214.6418401108308
2024 13296 171.35995582754214
2025 2026 71.10397459596571
2026 2027 57.503458718020326
2026 2029 27.306148516576442
2027 2028 83.23594254593607
2027 2700 97.494254840656
2028 12801 206.04141800092245
2030 6667 81.63035224232942
2030 8146 234.92129418112162
2030 18084 73.90308606027652
2031 2032 95.85917961579193
2031 4282 182.0489537348702
2031 6878 195.06380131677437
2033 2034 88.7125648609364
2033 2427 300.8202574918471
2033 17001 134.15245642696632
2034 2035 111.13968599139645
2034 10825 75.19896305119877
2035 11953 102.30506525832561
2035 15240 61.10003216952419
2036 2037 299.88625800356795
2036 10621 117.87188508308057
2036 11955 79.71202551779862
2036 19913 70.81811113723535
2037 2038 302.4509943016783
2037 11956 80.04820810165774
2037 13299 80.20867096517432
2038 13301 102.56295930534927
2038 16639 95.42042795711109
2039 2040 180.6519375391083
2039 4595 318.39513874806863
2039 13521 243.50863117342035
2040 2041 201.26316179336433
2040 4596 316.92108390857504
2040 19147 74.00654062326102
2041 4597 316.71590512560726
2041 13524 244.21152314788247
2042 2043 202.1534394955655
2042 4598 316.03955774135056
2042 9694 82.06705229476866
2043 2044 146.32781823477694
2043 5974 78.10326475083684
2043 5975 80.22743463939855
2044 2045 111.098349511452
2044 8725 80.3789051698448
2044 19060 81.38983175052317
2045 4601 323.528855012499
2045 19984 40.050283188315845
2046 2047 318.9093433206476
2046 4602 326.9443844829816
2046 12994 259.30189919172165
2046 17412 114.5554634179685
2048 6808 165.39984264989874
2048 14238 253.06234662298885
2048 17065 31.592243517457508
2048 19752 75.90123775097011
2049 2050 133.82982558476442
2049 6079 176.88565680438316
2049 6813 56.19963809705459
2050 2074 100.11860938444993
2050 6069 78.06046582541585
2051 2059 135.12525891116906
2051 2086 81.42355136692903
2051 6813 19.809228478472754
2052 2053 132.38089633845277
2052 2080 85.28599837358021
2052 13169 71.18381255179304
2053 2054 102.15072184229938
2053 2081 127.27143509689311
2053 10957 85.9338823859663
2054 2055 72.14281867401648
2054 13171 150.52050502469226
2055 2056 75.75182237251542
2055 8280 150.18956489170162
2056 2057 98.34449037923206
2056 2082 75.7648538798872
2056 15756 73.48299537494962
2057 2083 76.39255257375619
2057 6969 75.25202710326366
2058 11494 57.46187962562925
2058 11495 78.03727242026405
2059 14591 59.69554421611822
2059 16546 155.23319620517634
2060 2061 74.88083673858297
2060 11649 37.13140743017474
2060 11650 138.58080684895617
2061 2062 67.79038092757213
2061 13676 139.63175407577478
2061 16674 36.516486312134134
2062 18757 32.855235452622466
2063 4152 687.0371546415686
2063 16629 238.07523593740717
2063 20032 238.58948928038552
2064 2065 171.92063687883655
2064 6071 85.43786666580624
2064 10530 155.05999655560618
2064 10589 75.91913142796756
2065 2066 105.29981323841709
2065 10589 121.89171442828932
2065 17274 279.3278614571751
2066 12833 253.4617618357906
2066 12834 122.1336205465882
2067 2068 88.331201829835
2067 6704 78.97543221025761
2067 16997 83.83836284242864
2067 17626 79.86245026352597
2068 2069 82.87270920364467
2068 9111 78.97472018022115
2068 15262 158.90776056370512
2069 9112 79.3176300510925
2069 12791 158.56431812700959
2070 2071 75.38591709345144
2070 3176 79.29107429723622
2070 9113 79.14023196654497
2072 2073 30.749554781358963
2073 2074 172.17457312906222
2073 5019 102.30945344403848
2073 6813 52.60497458120979
2074 2084 205.66960915386392
2075 2076 76.9351319655742
2075 4088 187.15953093414015
2076 4089 186.04653172968327
2076 7158 51.67784494466039
2077 2078 135.0209043350582
2077 3441 121.24728881867452
2077 3442 13.688434686063808
2077 4275 245.97492526347202
2078 2079 132.85145823233285
2078 9527 121.64049630174085
2078 13223 122.74701700172227
2079 5204 182.0963703659446
2079 11699 91.61151420414001
2080 2081 163.37739887381537
2080 9528 71.44707640337907
2081 2082 208.26637403267603
2081 9525 125.99771517376404
2082 2083 97.1513259459752
2082 9526 74.50016658933708
2083 6968 76.28026152206874
2084 6079 386.1649344549982
2084 7547 41.48773296391809
2085 4052 101.40825543242026
2085 12976 61.74104370698471
2086 9536 126.84392662585428
2086 14591 130.03154910073187
2087 2088 108.66727633474497
2088 2089 124.24893628898815
2088 3234 238.2738323239571
2090 17150 32.58406886053087
2091 3340 198.00844519931786
2091 3341 853.1128245529875
2091 19005 825.950638466295
2092 2093 200.8596283494411
2092 9375 80.89956819980827
2092 14098 79.93249588367483
2093 9794 27.454366804664893
2093 9795 57.283858283118775
2094 2095 34.92603669713085
2094 13395 144.01267647748116
2094 18355 75.60143324135882
2095 2096 88.04858693536548
2095 13394 257.2889997542191
2096 2097 65.77889589218779
2096 10564 66.84027337350261
2097 2098 114.39378796077342
2097 10608 194.47931116475317
2098 2099 37.77436117622486
2098 9317 86.15786249141922
2099 2100 93.70559052462266
2099 10608 202.48045902272384
2100 2101 45.420035120604474
2100 7256 93.13770371048963
2101 6930 86.12302174867406
2101 7208 279.9556692326617
2102 2103 158.0943674167425
2102 6199 79.71166807932845
2102 6200 91.2034887935916
2102 9334 148.85444536362698
2103 2104 158.33168071941108
2103 6749 78.99323857341625
2103 18981 79.62507196995038
2104 2105 43.55157739831766
2104 6750 79.01400945456882
2106 2107 67.05444808975854
2107 2108 82.01792179244113
2107 10464 102.25885398113154
2108 2109 98.64729576468473
2108 15005 80.56778784859999
2109 6674 80.23976256452424
2109 19823 230.1383110077927
2110 18940 53.6997710018644
2111 2112 75.11057083026375
2111 19042 343.4415445430742
2112 2113 97.74217034470205
2112 2114 72.18758892169315
2112 18161 18.441724094868345
2113 18161 98.72775698372189
2114 11056 158.69670347025988
2114 19634 55.00876757698216
2115 2116 51.81629815417246
2115 19980 27.38590291506285
2115 19981 23.576705313792644
2116 2117 81.06851470854485
2116 19779 128.6336245099109
2117 2118 154.93051327383452
2117 4569 79.37974980377594
2117 6754 233.49319016110505
2118 2119 156.0990965613538
2118 6754 78.97780542654539
2118 9335 78.88887734993284
2119 3624 80.45112568339871
2119 18059 65.47377908551347
2119 18982 224.2573432670842
2120 2121 109.27252605332544
2120 12138 85.97056283580002
2120 13333 85.70685249787167
2122 2123 363.9193935523683
2122 12144 90.90601739648092
2122 12648 92.63121846598722
2123 2126 44.12991474220044
2123 15050 200.252440275662
2124 2125 144.47875330724722
2125 8206 135.97882930056676
2125 8728 116.27745287806587
2126 13335 49.410615161239605
2127 2128 88.83324212602933
2128 10665 121.66366815778815
2129 2130 187.00592646407281
2129 12788 129.4632491891071
2129 12829 41.92450930845284
2130 2131 119.71428660564047
2130 3815 109.58620388476454
2131 2295 310.34590675274114
2132 2133 198.74167391235912
2132 8748 84.55743453868695
2132 12679 80.10451020399682
2133 12680 68.52176305151836
2133 18991 8.11735776577968
2134 2135 35.24884269581228
2134 8750 76.30470545634084
2134 12681 75.68644855365865
2134 18991 195.94923107327367
2136 2137 138.97607056809062
2137 2138 150.3147356465399
2137 5962 85.06547659341463
2137 8745 359.9947182034575
2138 2139 196.26118890818867
2138 15978 61.04835930990089
2138 17609 86.83651624605793
2139 2140 181.6061851840563
2139 4168 87.44698644264474
2140 8757 88.86836266756467
2140 12672 88.62575169982479
2141 2142 74.92851091589492
2142 4483 117.83254176071014
2142 8747 49.909560061355045
2143 2144 204.15361004776426
2143 6921 81.67322511091189
2143 8740 79.09967168211564
2144 2145 200.98089409772908
2144 3965 78.91072274695401
2144 3966 78.80464532779482
2145 2146 59.12808118172043
2145 8741 78.62139874549558
2145 12677 78.63302336909867
2146 2147 100.22856647825671
2146 8706 91.12893809313286
2146 8707 91.12138982513815
2147 2148 157.75443792461598
2147 8742 78.88051467793767
2147 17189 78.85145129835313
2148 2149 155.8869263902528
2148 8743 78.87189394462014
2148 17190 78.29787409649414
2149 8744 79.36352529006741
2149 17191 78.04676751761966
2150 8745 76.07823327697423
2150 17192 77.70516917243393
2151 2156 38.01898910010428
2151 12684 38.525234095804905
2152 2153 87.43275516702799
2153 2154 135.1247004098135
2153 8752 75.87140557535045
2153 12682 76.15860027381373
2154 2155 136.95911220798055
2154 7365 75.9416502547599
2154 7366 76.05819863671925
2155 2156 87.95751854444275
2155 8753 76.07120885196494
2155 12683 75.75138902741479
2156 8746 41.34480250869965
2157 2158 197.42340083134607
2157 3733 231.21564680273045
2157 10732 81.69083929930085
2159 2160 390.0421401527423
2159 14167 70.82789171008517
2159 14919 123.6478297539829
2161 2162 84.02484611331204
2161 14919 125.26989336670783
2161 14920 45.085540081719245
2163 2164 73.20832691652232
2163 17804 48.195839863306645
2163 17813 27.860978316712
2164 2165 79.27677087023997
2164 3387 143.00840512087976
2165 2166 80.30690575577293
2165 3387 81.07568401245345
2165 19367 11.937009436883248
2166 2167 59.25724734632101
2166 7770 80.72381593983931
2166 19032 10.456772331355948
2168 2169 85.60280568479739
2168 5028 177.97841731154907
2168 13975 92.8650906057679
2169 2170 85.02698124976274
2169 5029 137.26109954536818
2170 2171 697.687326337613
2170 5029 172.29360806772584
2170 16130 46.37093012754787
2171 16130 679.2943780038368
2171 17579 97.93687240418646
2172 11277 289.495400770925
2172 14704 529.1902516370985
2173 8640 155.9748357550556
2174 12512 329.29141436088617
2175 2804 287.3927565930051
2176 13772 67.04373243353486
2177 14297 120.97615160480858
2178 2179 83.08394627539487
2178 2196 42.14319630004734
2178 4801 37.284764857502914
2179 9372 203.88014813939446
2179 17736 202.8492594597525
2180 10255 201.18946864011178
2180 10256 202.6086011791818
2181 2182 84.86519036913731
2181 10509 201.5912833074183
2181 15869 202.3368066106302
2182 2183 80.7238932649183
2182 10510 201.34045077126348
2182 12203 202.76974399690042
2183 2184 78.53860063872578
2183 10511 202.2560269022303
2183 15890 202.41494989195138
2184 2185 78.90210256275239
2184 10354 203.61539061062317
2184 10355 202.14542830447158
2185 10512 204.67072770835784
2185 12824 276.8420142649851
2185 15891 202.20092625244538
2186 10513 285.9800957365754
2186 10514 253.325507674647
2186 19101 148.61600589229477
2187 2188 51.388050432970466
2188 2189 79.22811018759651
2188 10506 159.34817571873364
2188 15513 158.11293280241577
2189 2190 78.47951316913199
2189 3078 159.15585471714888
2189 3079 157.93892968205245
2190 2191 92.39362067519514
2190 8339 79.87298157524668
2190 8340 78.60685942281957
2191 8802 79.8635908871904
2191 8803 78.1620391742219
2192 12698 79.28333649544766
2192 13192 79.67831187496783
2193 2194 71.42969860307669
2193 12699 79.93266893601135
2193 13193 79.06401092699177
2194 10022 79.4883081987
2194 10023 79.67354114499409
2195 2196 128.22881645405593
2195 12700 79.26172902405865
2195 13194 79.3615944796959
2195 16908 191.7745333630293
2196 4800 79.41890027948934
2197 2202 24.362873938634994
2197 9876 116.14417313514119
2198 13195 137.45307246194707
2198 17592 18.007760609605082
2198 17595 10.062333467498982
2199 2200 59.328925774913145
2199 11081 140.777196064711
2199 17592 65.96947023755793
2199 19331 131.75512134421754
2200 2201 112.30848034287652
2200 10505 132.111918484785
2200 13196 141.01991703047443
2201 2202 83.0752606125915
2201 13197 140.70881769501204
2201 18811 133.08046712278286
2202 18810 134.26898827550696
2203 2204 145.2487275353716
2203 7527 76.28504693753976
2203 7528 83.12805232565219
2204 4760 39.824389237464196
2204 10338 84.79188375324617
2205 10109 91.57868120397902
2205 13246 107.0160518735369
2205 18151 172.54263211046853
2205 18985 123.73049692239135
2206 6666 47.84200271236518
2206 16457 135.9500101616411
2206 18985 13.656902235028795
2207 2208 73.05547290712637
2207 2232 26.070555449152746
2207 12337 47.24022127889304
2208 2209 73.44445860668714
2208 4526 120.80173778285445
2208 13731 113.82862416659775
2209 2210 213.41671030861917
2209 4528 125.50159527258242
2209 11587 79.50018941882036
2210 2484 88.19001979316829
2210 2485 61.27636680498109
2211 2212 363.2054028910564
2211 12351 79.67493996457361
2211 13436 78.9495772282016
2212 12352 76.34656412547355
2212 13437 78.88006025869635
2212 18677 83.44181295556459
2213 2214 150.5021028354195
2213 12357 75.6184721143854
2213 12885 76.00600630349841
2213 18676 151.9279241517922
2214 13438 76.48414837555265
2214 18146 14.456423875724237
2215 2216 69.76442406790228
2215 3805 166.58602651198387
2215 18146 66.3056881017297
2216 3806 167.4304502639506
2216 18721 73.96736423354457
2217 2218 31.546748213021942
2218 2219 76.2036242041204
2218 3813 137.21421908592853
2218 7498 74.7498257016987
2219 2220 76.04800622438343
2219 3580 137.20003181823483
2220 12350 72.0617600264159
2220 13439 59.45776897883887
2221 2222 185.34582125559012
2221 12355 76.63145532807525
2221 12914 75.54017018458724
2222 2223 201.77507114718986
2222 10375 75.91657885020926
2222 10376 75.48005255135948
2223 2224 200.8850729282758
2223 12356 75.80999743302478
2223 13441 75.8958393907241
2224 2233 41.88582112311627
2224 11992 35.31412269737058
2225 2226 302.0557332593505
2225 2230 31.709894099584545
2225 12335 86.55165606651991
2226 2231 14.936260804459575
2226 8264 46.398571623510136
2227 2228 118.21171237607894
2227 2534 92.3265992402327
2227 3789 94.3221692539873
2227 13254 230.59988192522928
2228 2229 185.34012291184243
2228 11918 76.84825351185368
2229 2230 107.6785955456191
2229 3646 76.99231730805434
2230 13147 14.771962209792655
2231 2232 67.28427576164555
2231 8265 72.84335972392027
2232 14482 87.96775580926642
2233 2234 110.85038185884802
2233 11991 33.90311724297689
2234 2235 109.5626652548075
2234 5883 81.9104010011369
2234 5884 77.41216720802163
2235 2236 215.49997094973403
2235 5095 80.94491437515164
2235 5096 79.00445703224995
2236 2237 78.46211623742475
2236 2899 78.86658813012971
2237 2238 79.00431566769802
2237 12339 78.82155034414437
2237 13442 78.79028730523945
2238 2239 78.81507915705104
2238 12340 79.32006296210686
2238 13443 78.89125814040125
2239 2240 80.58387211806853
2239 12341 79.27437738219241
2239 13444 79.50274286209412
2240 2241 81.81780036067056
2240 11857 78.3794421342214
2240 11858 78.87770520853005
2241 2242 81.36649674795058
2241 9151 78.7778799154974
2241 9152 78.9645369243442
2242 2243 79.44474088428824
2242 12342 79.19622195800166
2242 12765 78.31877134747778
2243 2244 80.37280535632075
2243 12343 79.31165635821375
2243 13445 77.58026131813634
2244 2245 77.98759851128081
2244 12344 77.99343299823691
2244 13446 79.23463604057582
2245 2246 210.43287990217306
2245 13447 78.83196030052379
2245 19590 79.61366595949934
2246 13448 84.2361842701257
2247 2248 31.690598861502924
2247 3774 142.39017877160646
2247 4514 153.00253061900904
2249 20063 10.431670493025745
2249 20067 149.80378187045838
2249 20068 141.01939325221025
2250 3775 139.73885974684777
2250 4515 153.54396875029326
2250 20063 72.47565954476492
2251 2252 111.10686445595823
2251 4316 43.903687395539244
2251 13958 79.56566557896582
2252 2253 169.8570380574246
2252 5023 79.58792550817432
2252 17214 84.29101657917074
2253 2254 171.45506713271158
2253 11204 78.56821545589946
2253 17212 85.67100523260393
2254 9385 78.58232175271301
2254 17073 84.85120681918654
2254 17210 69.84534690073752
2255 2256 191.3746842980172
2256 8948 230.06999822055192
2256 8949 489.7802892808656
2257 12650 87.16068087195049
2257 15049 99.63618203091184
2258 11763 130.94347540286734
2258 16690 195.78064570892133
2259 2260 154.04064836885107
2260 2261 158.34055369931338
2260 3407 84.62015125696354
2260 3747 87.22257056010423
2261 2262 190.40920702380348
2261 3408 84.30438819397547
2261 19841 79.08580953285993
2262 3409 76.58771063848855
2262 3410 102.48228609070773
2262 19841 212.94252355650883
2262 19845 23.29678272471659
2263 2264 169.17476400583055
2263 3276 61.85861257812082
2263 17509 71.87845446046256
2263 19713 94.85022259073811
2264 2265 244.05851129665228
2264 14084 197.32658842084314
2265 2266 153.56017770921738
2265 17123 148.05589909548976
2266 12656 199.28237174170656
2266 19790 259.864659970168
2267 10538 60.885406548949746
2267 16519 48.57499889357811
2267 19790 149.3725889640167
2268 2269 38.58540147396295
2270 2271 37.62338251369816
2270 7734 86.61609716291835
2270 7765 66.27188071491665
2271 2272 71.17376139332313
2271 7766 90.96511371531174
2272 2273 55.39028430590537
2272 3742 127.55455584161149
2273 2274 18.995840703400223
2273 16123 184.01213901854211
2274 2275 73.36334084266164
2274 7767 163.62569866155985
2275 2276 59.81066335860386
2275 11542 76.32520146879193
2276 2277 100.31799616966954
2276 11446 184.06939803583896
2278 2279 183.72774027230471
2278 6248 101.41525861368623
2278 13457 100.37629034234413
2279 2280 115.05347829514369
2279 13458 100.3870599282815
2279 15147 203.51686555919383
2280 2281 181.69971012648315
2280 12880 194.06876618626944
2281 12196 48.325221058373884
2281 13459 96.98349018534435
2282 2283 191.72311453949553
2282 7208 82.59511922983017
2283 2284 42.132423210983724
2283 13463 83.04915536437707
2284 2285 167.91780479926086
2284 6359 78.37494067467864
2285 12194 74.86901997728204
2285 13456 74.20495377108887
2286 2287 100.30294481393575
2286 2292 30.39285305718831
2286 13466 44.2964809262911
2287 2288 130.34636684743865
2287 6655 74.56029367566777
2289 2290 36.741666233185775
2289 3840 106.32436906496773
2289 11531 19.708324590562782
2290 2291 78.27807872245221
2290 14458 29.07960041382545
2291 12197 110.64425991016293
2291 13465 108.25666920666342
2293 2294 70.08838771132052
2293 7941 76.62940359909483
2293 7942 77.82337051676271
2295 10613 96.00874058739892
2295 12830 53.34493297013934
2296 2297 177.72349722868458
2296 8729 179.2211927861074
2296 15769 420.7852242705276
2297 2298 75.35217582132518
2297 14577 345.16711499015247
2298 2299 74.51552137231162
2298 6268 313.63128574863185
2299 2300 87.84441017803829
2299 8730 118.18131038508172
2299 15546 269.3987685616241
2300 2301 75.5951363492304
2300 12942 255.01155068011866
2301 2302 73.39168471189414
2301 16380 229.9215711086997
2302 2303 74.26481066281293
2302 2805 194.1135144106348
2302 2806 115.18390135681753
2303 10091 153.5210333344878
2303 16222 176.447842564375
2304 2305 51.05535431202948
2305 4049 71.91210747509587
2305 5204 36.20365520463803
2306 2307 106.66992910840982
2306 4612 262.3743756811514
2306 4613 156.10560231374464
2308 4134 294.7376222394634
2308 14658 44.55675445873744
2309 2310 243.16610586980835
2309 11040 96.4403161850045
2309 14073 92.4590702417711
2310 2311 88.93922275282078
2310 10269 50.03997523179121
2311 2459 56.867118137426814
2311 12724 48.41475547331647
2312 2313 154.977412909959
2312 4966 24.84180906579611
2312 4967 80.06066117689865
2313 2314 155.92962096310276
2313 9459 79.43910009039774
2313 9460 79.6281287482333
2314 2315 105.43154638792362
2314 11035 78.30402681439149
2314 11434 80.49448408454882
2315 2316 135.87321229253013
2315 11036 80.1463337870157
2315 16338 78.83827846893004
2316 2317 125.15097596373892
2316 11037 79.47515803136695
2316 16339 79.81987214824225
2317 2318 79.42549371746159
2317 11039 78.09074153963465
2317 14373 80.95744119678419
2318 2319 77.51302273541454
2318 3220 210.02109076582627
2318 19649 200.8691451909047
2319 2320 77.61007884561694
2319 3221 216.78542966805082
2319 15971 200.80677303873438
2320 2321 77.25251457871934
2320 3222 223.1979951982723
2320 11256 200.7503233732834
2321 2322 76.10612974220999
2321 3223 228.9986369575737
2321 15194 202.1088432996896
2322 2323 75.5405898402825
2322 3224 235.75144555714715
2322 15999 201.54562192354237
2323 3225 242.39289590551397
2323 16278 201.81296923425134
2325 2326 36.607091254036185
2325 8912 47.037136506561275
2327 2328 83.78727439290239
2327 3204 173.17703133441012
2327 9354 198.09708853537202
2328 2329 86.10438659671155
2328 3205 166.20277103964227
2328 16020 211.37080328209115
2329 2330 79.84953732438393
2329 3206 144.7103711614796
2329 7695 247.45430610541726
2330 2331 81.84528491514106
2330 3207 168.53304951392354
2330 15227 279.7064793297426
2331 2332 87.48450565622537
2331 3208 171.6199917536424
2331 14125 265.60217084400915
2332 2333 77.49729730223719
2332 3209 154.41673583345906
2332 16277 260.0518317575753
2333 2334 15.092976174720736
2333 3210 184.29547272603716
2333 8487 188.9094630920645
2334 2335 73.34408685011842
2334 3211 195.07051508531202
2334 8492 186.40772606860958
2335 2336 105.17329262180587
2335 13924 206.02897108899145
2336 2337 82.35647529723465
2336 3213 152.61058838874914
2336 7128 240.59305684564595
2337 2338 285.7800998996314
2337 11042 77.26991856893329
2337 15114 75.01264488876016
2338 2339 242.91965329669077
2338 4378 76.09545646021525
2338 4379 76.7396107348012
2339 2340 214.13759473581985
2339 11043 75.70501311833584
2339 16011 76.20536820073326
2340 2341 69.34260416267986
2340 3218 166.62466449384573
2341 3703 71.28585866682741
2341 3782 78.32721446515298
2342 2343 86.68774727824973
2342 5886 198.85491713099418
2342 5887 48.89040407290128
2343 2344 86.28830995286779
2343 5101 200.12775639421795
2343 5102 200.4094236488796
2344 2345 90.32657601149984
2344 6450 200.3969295389013
2344 6451 200.44298257729847
2345 2346 135.93073790289654
2345 2902 100.3863176706453
2345 2903 100.21241606813237
2346 2347 98.36831253402923
2346 12470 100.20656644141917
2346 13472 100.26798809034193
2347 2348 96.94228387443373
2347 10767 200.85269366567633
2347 11838 200.74388387895863
2348 2349 101.00545333419169
2348 10768 200.51885769810187
2348 11839 201.23646436068984
2349 2350 100.38014583116606
2349 9158 80.6408536093387
2349 9159 199.56308671023353
2350 2351 40.88814504747508
2350 10769 198.4904622985276
2351 16152 121.38992357723973
2351 17816 45.139218235542415
2352 2353 251.26843357225394
2352 5994 86.36982891525682
2352 5995 100.49262463244409
2352 17815 172.2560874362501
2353 2354 100.25861203115977
2353 13482 84.93077252390388
2354 11841 199.4227585006442
2355 2356 138.43100887037548
2355 10771 208.0852832605855
2355 11842 198.76353688621788
2356 2357 76.72266821734094
2356 10772 204.68040550929416
2356 11843 198.99711706595875
2357 2358 77.82684553426591
2357 6577 199.4575430652416
2357 6578 202.85755830420518
2358 2359 77.26204706983845
2358 10773 203.5852878669332
2358 11844 199.3674018828738
2359 2360 75.9684956092614
2359 10774 204.63279385148272
2359 11045 199.04914497566338
2360 3231 200.15112282101387
2360 3232 204.82361776135343
2361 2362 151.40332342072168
2361 10775 204.3049055418352
2361 18586 201.08118876089054
2362 10776 203.8140761168097
2362 12989 27.547420687171503
2363 2364 125.40706281106021
2363 18710 72.24661273538429
2363 18711 69.57259450782836
2364 2365 151.90828423502956
2364 12467 77.1356834091738
2364 13473 75.92020982919576
2365 12468 78.22083925600171
2365 13031 75.28151407308357
2365 17850 153.89522837916877
2366 12469 76.77253033929021
2366 13474 77.72385157005247
2366 17850 10.765874515987422
2367 2368 51.85090548813571
2368 2369 79.0841040666376
2368 10747 210.2098355971614
2368 11832 211.2617581911408
2369 7866 69.0583497003556
2369 7867 74.3811126986508
2370 2371 151.09958167164916
2370 2386 39.87549640762522
2370 12082 44.161036734298506
2371 2372 151.09707737803114
2371 12909 65.69598556165195
2372 12477 87.84420033410865
2372 16178 88.44853050176255
2373 3710 107.47855783101625
2373 12310 77.31765794902563
2374 2375 133.61239483467392
2374 10756 225.39223284943918
2374 13478 75.44135541700591
2375 10758 225.7651361413935
2375 13479 75.5478876779576
2376 2377 95.2276857617597
2376 2657 35.7666662377581
2376 12685 50.2421143486846
2377 2378 42.66565682792088
2377 12419 75.13373163225491
2378 2379 33.55875051762268
2378 11917 69.81369041519706
2379 2380 76.9138137646432
2379 11923 200.20287612544615
2380 2381 75.9019240915028
2380 8542 200.40917099042056
2381 2382 78.30380216982385
2381 3673 200.56545145140956
2382 12471 56.11175073858256
2382 13152 150.37664384360644
2383 2384 119.79674008632747
2383 11628 77.10655950841245
2383 11629 77.9785600317793
2384 2385 120.37931499758935
2384 2492 78.94262620295312
2384 2493 78.91121882393337
2385 13481 77.77134275250667
2385 18970 10.107364973626913
2386 18692 43.2025081224854
2386 18970 416.1410539999943
2387 2388 116.36396687173644
2387 2390 33.651465448366224
2387 13475 75.08230220785725
2388 10381 76.05695106125854
2388 10382 57.59100823800742
2389 2390 117.02192648500544
2389 12479 48.320660075372246
2389 13480 84.187583036413
2390 12480 49.33512781157308
2391 2392 39.94578998833319
2391 4932 161.97944482976305
2391 12222 83.24530987184697
2393 2394 84.39246846322374
2394 2395 83.97292933072187
2394 9546 198.73031111767787
2395 17219 139.9192193108387
2396 2397 65.40801649093953
2396 9548 140.07764106288496
2397 2398 77.1200296237457
2397 9549 141.05772282678748
2398 9550 140.71676936885657
2399 4314 140.36106764986343
2399 7016 216.74539058817754
2400 2401 99.48678009109585
2400 2413 45.86936887241179
2400 9542 165.69252106925896
2401 2402 76.22177835616866
2401 3521 167.57484296527988
2402 2403 75.82047670329104
2402 9543 167.55135590256796
2403 2404 75.84374957793904
2403 9544 168.08439968343544
2404 2405 76.22511616558772
2404 9545 167.66147672501404
2405 2406 76.57603783135119
2405 9545 238.53957094780287
2406 9328 91.43609188974486
2406 9329 74.68489408776121
2407 2408 79.70334219140864
2407 12211 83.26982465812938
2407 12223 66.58530829256733
2408 2409 76.26368930978857
2408 15931 106.3248031319799
2409 2410 50.240654943975215
2409 17582 231.15135041617452
2410 2411 26.7545338076218
2410 10352 74.87437998551437
2411 2412 79.03408668839084
2411 9541 290.30897401291793
2412 2413 81.69550780385269
2412 9541 209.80289928194884
2413 12225 74.5459360327727
2414 2415 130.362184706765
2414 7409 53.79271774296697
2414 16302 50.09806987888883
2415 2416 139.45521351759757
2415 2591 53.47695061835475
2415 2592 50.784169839590284
2416 7410 54.927401723014135
2416 12628 50.0294703543055
2417 2418 74.80226094254893
2417 6582 94.28065198686922
2417 17386 253.31941307826165
2418 2419 106.0757884040647
2418 2420 350.79177169008375
2419 2420 218.43710781743752
2420 16273 51.19872262318709
2421 2422 363.75600714920915
2421 12509 87.78341821161601
2421 13522 95.50137245039541
2422 12510 87.86617166242736
2422 13524 91.11878326619959
2424 2425 394.4323333326155
2424 2436 57.423878283121994
2424 12506 99.93728447940768
2425 2426 62.8690854499139
2425 7389 96.26947305210184
2427 2428 68.65948491037344
2427 8120 72.80656916972688
2427 17019 19.064013696780357
2428 2429 50.87127906756629
2428 16455 91.99087753814341
2429 2430 86.01723015196077
2429 10826 153.5661597573486
2429 10827 134.78938703287952
2430 2431 25.79964156012417
2430 12504 133.72996946652867
2431 2432 66.26710168858439
2431 16489 152.76931469096684
2432 12505 133.73603260043078
2432 16462 18.226579165946124
2433 2434 55.36067761646824
2433 14750 138.85151071408663
2433 16462 88.54917519644428
2433 18280 135.2603549924338
2435 2436 91.46562623937022
2436 13526 41.886171342089085
2437 13520 119.54248574928388
2438 2439 87.41150503136768
2438 8455 77.11002217290947
2438 13528 182.60260933916194
2439 3633 36.656719312681325
2440 3271 80.93031558080128
2440 13724 133.5916450064915
2441 2442 42.68243899286
2442 18123 57.813734117339365
2442 18124 67.7307526760803
2443 2444 166.1272743250581
2443 16882 27.85240241337063
2443 18055 51.17940513630904
2444 10006 79.45769475424655
2445 3167 82.84824720233033
2445 5557 77.91549632747062
2445 17089 79.59418837107145
2445 19923 74.86856370418948
2446 5559 78.833910009143
2446 18195 51.33868332287514
2447 2448 79.25322893715833
2447 5560 79.30627429925482
2448 6388 38.920189844658225
2448 14578 78.76738641483442
2449 2450 42.52463573746706
2450 2792 75.01583614399357
2450 5859 74.82124530358786
2451 2452 80.81167437097574
2451 4238 203.2745577605178
2451 6902 203.84658347919012
2452 2453 81.39239371904536
2452 10529 78.9084991180652
2452 15674 79.99687371422173
2453 2454 79.42571925954067
2453 6790 79.06208646395943
2453 6791 79.41959590075967
2454 2455 78.71990755881765
2454 10530 79.39828244372707
2454 14903 79.5831080598643
2455 2456 70.27965926414217
2455 6071 79.55116372448096
2455 6072 79.46390117780052
2456 2457 89.24651325826142
2456 10531 79.30301981790241
2456 10590 79.10009561990151
2457 2458 77.97516564458594
2457 10532 80.0251565936828
2457 13202 78.66745810028908
2458 10534 78.97079084887912
2458 12827 219.55681160065384
2461 2462 32.31030586956786
2462 8987 119.68396578387784
2463 2464 65.58730369056383
2463 7257 79.27250078931256
2463 18611 83.43073275011913
2464 2465 102.16557725740562
2464 7258 78.85960880959453
2464 11744 87.96621178600692
2465 2466 106.26014014835825
2465 7259 79.28259099367112
2465 13917 92.79313630855357
2466 2467 107.56937999809685
2466 7123 79.38358392743184
2466 7124 92.74084694293227
2467 2468 76.30756904863117
2467 7260 78.87795514251576
2467 18012 92.53976509979111
2468 2469 107.2342123772708
2468 5395 78.80058719873045
2468 19333 39.39771347077124
2469 7261 79.75002177830126
2469 14667 91.38590966153372
2470 4448 267.6065061316304
2470 7225 191.17267913189391
2471 2472 178.32726041379485
2471 7223 271.83121404547444
2471 11421 94.09486073548825
2472 2473 289.0337179826509
2472 7223 93.72867628563067
2472 10855 93.69622654285119
2473 7224 66.98394108377182
2473 15836 156.87140503087664
2474 7217 78.51663642494042
2474 12444 75.87483691516428
2475 2476 297.8819362157437
2475 7218 81.84181743405884
2475 7638 78.80657356283784
2476 2477 211.68317880048224
2476 7281 69.6749656282883
2476 18153 75.46824859719793
2477 2522 25.030544513542687
2477 7282 73.10530770050926
2478 2479 76.2212608464766
2478 7228 76.63102383207685
2478 12250 81.09468293837145
2478 16945 78.85495790170039
2479 7229 76.45497848875154
2480 2498 79.85659421296954
2480 7230 80.57481626748614
2480 8889 76.32659770356689
2481 2482 65.54142059159449
2482 2483 72.24787865213449
2482 7265 79.59356465516144
2482 13991 92.03730381093456
2483 2484 79.82900661837043
2483 3799 78.95275075680988
2483 3800 92.587183824231
2484 7266 79.16192863434893
2484 13436 92.7425779377214
2485 12338 120.74189615311157
2485 17701 68.74887194383797
2486 2487 78.21828613708867
2486 13614 92.3586208858137
2486 17698 76.87855896589404
2486 17699 157.01978412304703
2487 2488 79.13559392052554
2487 11589 156.94302895475545
2487 17859 92.56402688059596
2488 2489 79.30179146686875
2488 17702 156.3822427347662
2488 17858 91.54831634187666
2489 4992 157.8202802387682
2489 4993 91.16190703380745
2490 2497 53.62292344674751
2490 7247 61.97393997086898
2490 9044 272.2286793152232
2491 2492 87.13992074224795
2491 11627 120.12118799814237
2491 15565 94.45126405517705
2492 11628 120.03527724458694
2493 2494 135.77193782968138
2493 11629 119.07115725970797
2493 12478 117.48327033020315
2494 7279 39.72637413957685
2494 10760 111.03784958629358
2495 2526 148.21650054485386
2495 7264 75.32307128713185
2495 19754 80.38742095322449
2496 2497 70.90718413910696
2496 4457 149.42497786439665
2496 7246 87.50606123027164
2497 13349 62.32838986153942
2498 2499 82.02695360814268
2498 7231 80.05005116070222
2498 15377 77.23767942047346
2499 2500 76.2189770354374
2499 6850 80.0279771124688
2499 6851 77.82691619522409
2500 2501 78.41903331660023
2500 7232 80.7952499627937
2500 14933 77.05902684720888
2501 2502 78.99751666175783
2501 4947 81.70762333409209
2501 4948 76.14774528807669
2502 2503 80.18870410177706
2502 7233 80.90910819229273
2502 15562 76.95914394237604
2503 7234 79.23839754646104
2503 9452 76.71775590470158
2503 18257 77.21997090659698
2504 2505 79.00361425492585
2504 17662 79.46310198805938
2504 18472 72.74712159693715
2504 18475 72.96691408828731
2505 2506 79.01915431876441
2505 7237 79.16055727011744
2505 17645 79.60536746262076
2506 2507 78.92570347539765
2506 7238 79.13803899869654
2506 17667 79.76483926637162
2507 2508 79.29971928006779
2507 7239 79.1273808061189
2507 17657 79.78346375980063
2508 2509 79.6581513131809
2508 7240 79.1161864581206
2508 17650 79.69406935869654
2509 2510 77.96726428745374
2509 7241 79.09458639930835
2509 17665 79.7390131631601
2510 2511 158.38909085587733
2510 7242 79.0772131328315
2510 17643 80.36264816782683
2511 2512 78.29453804284763
2511 17651 90.09160415604585
2512 2513 78.04520205225694
2512 7243 79.02641114383364
2512 17666 86.14364584424783
2513 2514 98.43701959319449
2513 7244 79.00570076891907
2513 17658 90.31272371334944
2514 2515 86.47625145995326
2514 20022 87.33851956085336
2515 2516 78.94914449086805
2515 7268 79.438975014095
2515 17642 89.90134041472153
2516 2517 78.56685249429819
2516 7269 79.26078264279424
2516 17661 89.1032620670289
2517 2518 79.80022444207282
2517 7270 79.14984145658366
2517 17668 89.77012536747945
2518 2519 104.13209630126053
2518 7271 79.44926103897316
2518 17664 89.35682197811862
2519 7272 78.97124828536131
2519 15229 89.65865006331813
2520 2521 105.94903264802304
2521 4423 91.28910257374567
2521 18360 70.97692487150275
2522 2523 121.36890175025344
2522 12533 44.64185560281118
2523 5311 111.55111484353506
2523 5312 41.592359952038386
2524 2525 102.58154868037664
2524 17937 31.884028536389643
2524 17938 41.55917153457428
2525 2526 106.25151433785524
2525 7262 78.4376313075341
2525 13589 92.4928033289492
2526 7263 79.04890798934437
2526 12278 92.70140928560389
2527 2528 71.95447401675466
2528 12574 80.5770694195605
2528 13863 92.51066841418094
2529 2530 156.6853178333541
2529 12565 79.48712233309092
2529 13529 90.2509652008024
2530 2531 184.9782723562219
2530 12566 79.01645204261035
2530 13530 77.94956731557919
2531 2532 170.49843643175032
2531 11308 78.79488580447476
2531 11309 79.12208320113534
2532 2533 148.1130627415262
2532 3919 79.13549897043933
2532 3920 78.98735923343705
2533 2549 25.845724921868694
2533 12567 79.00100760540282
2534 2535 65.227155210159
2534 13783 229.46053158276072
2535 2536 38.76331166345089
2535 10812 120.62837121498961
2536 2537 38.47350290932899
2536 4001 92.27681056280481
2537 2538 80.39055823120788
2537 4708 177.6586150207258
2538 2539 72.27275736614617
2538 4709 176.69942904158788
2539 4002 91.56514311999871
2539 4710 170.53871225093093
2540 2541 64.51559497447775
2540 8421 178.75555834252893
2541 2542 92.59245588103408
2541 4594 179.16610746648735
2542 2543 197.07397570524276
2542 14035 178.44733460438258
2543 2544 112.35154338349344
2543 12564 144.3807403678292
2544 7037 118.63057956063707
2544 18253 162.84576122149207
2545 12568 79.09316569326435
2545 18253 21.584310062148134
2545 18613 76.42320631070226
2546 12569 79.2115378181741
2546 13534 76.18938669670271
2546 19572 140.35459108827763
2547 8685 92.91763619244003
2547 8686 90.08422607361605
2547 18533 70.86753337411822
2547 19572 64.97999216439767
2548 12572 79.19798374182201
2548 13083 212.65483470175764
2548 13536 77.3967688699983
2548 18540 109.13177094362521
2549 2550 202.5042165771809
2549 13531 53.27183196680203
2550 2551 101.3262436136691
2550 13540 90.55500854244312
2551 2552 96.4446784466448
2551 10501 421.7210427623648
2552 2553 104.83715961918767
2552 8563 130.35616293352888
2552 16092 423.3620524096421
2553 4728 209.34802144657993
2553 15751 424.2728970122687
2554 2555 100.64745351110884
2554 4730 209.62574351572542
2554 14276 427.0747241383535
2555 2556 126.53129091463524
2555 4731 208.51886635633556
2555 9670 429.65484865563224
2556 2557 34.226073480884736
2556 8847 432.2039280579194
2557 2558 36.802044181372494
2557 8859 143.92482493734119
2558 5989 436.388387321546
2559 2560 504.5513598150291
2559 8936 1012.1720409956012
2559 12237 128.96089276172822
2559 19084 229.45289776905736
2560 2561 197.18257116129652
2560 8196 217.22122984986342
2560 19964 216.80032400074992
2561 8160 694.0599219727951
2561 19746 47.40444932008692
2561 19963 265.0060671913419
2562 2563 28.74856853762504
2562 3432 47.34659248072121
2562 12873 56.01323988173071
2564 17530 52.164192469568974
2565 6474 31.619017008285088
2565 17517 77.13619480886258
2566 19770 37.46678927358111
2567 6660 15.826762342634378
2567 19770 7.215770716236703
2568 2569 137.02570722199425
2568 13176 96.3889507071009
2569 2570 56.74336625239052
2569 9595 96.72857202649044
2572 2573 79.17093805264062
2572 10346 233.7347880949659
2573 2574 79.0597045278652
2573 10346 154.78867004956777
2574 8064 154.71296013174123
2575 2791 107.65846026533004
2575 9762 140.65785374869745
2576 4060 195.3930435989853
2576 9763 69.51719803418632
2576 14972 222.89335609442762
2577 2578 213.44625188943175
2577 4069 160.15846360776447
2577 16806 23.29899919909712
2578 4067 96.72530964248054
2578 14959 77.06391965397835
2580 2581 54.40052820035727
2582 6932 67.57195966194098
2582 13963 97.07873304539072
2583 2584 154.82319921416888
2584 6373 346.6523564791185
2584 18948 102.07842961551066
2585 18947 6.927096288908549
2585 18948 229.43718715902645
2585 19112 238.03968022827473
2586 2587 35.892106922179735
2586 2643 93.83063906892667
2586 2644 75.18538831421476
2588 2589 202.0209745342607
2588 6679 119.65369399987173
2588 17258 232.82611042558278
2588 19792 94.71488290840901
2589 17127 53.19486768844876
2589 17128 183.02730664078976
2590 2591 72.61793928046171
2590 4157 128.86268529199774
2590 19600 132.37993394402213
2591 7409 129.85793282135802
2591 7410 135.71674178262924
2592 12628 139.61201158461327
2592 13570 59.56599860317513
2593 2594 136.47727457360847
2593 7590 75.11330127419197
2594 2595 77.58019249851003
2594 7591 77.32089901913334
2595 2596 86.09064948441146
2595 8199 219.35354356900677
2596 2632 71.71872051885083
2596 12634 83.37446365087436
2596 16032 213.12912564146174
2597 2598 75.96849555937149
2597 12630 137.9157275495934
2597 13572 61.01764226792362
2598 2599 90.07320898945962
2598 4552 136.41114842631717
2598 4553 138.31186850834442
2599 2616 41.227729996796214
2599 13567 37.615678830252136
2600 2601 80.39408380842394
2600 12611 79.29393079784762
2600 13556 77.55136660998686
2601 12612 79.54245053231504
2601 13557 77.77827396828457
2601 19490 77.8269275570392
2602 2603 78.99300747819989
2602 11105 78.7455095614193
2602 19490 80.5611766297829
2602 19552 78.62346287972697
2603 2604 109.77903855392374
2603 12613 79.4922254544909
2603 19551 79.4770513158218
2604 2605 170.57466688407175
2604 12614 78.97139711417242
2604 19549 81.6789825751831
2605 2606 171.84338166654453
2605 12615 79.40312798710775
2605 19547 81.58468994225255
2606 2607 173.06523649296548
2606 12016 79.23744523404967
2606 19543 81.90106173294276
2607 2608 173.73566093353753
2607 12616 79.13402820879797
2607 19540 81.33489364038631
2608 2609 171.018255974154
2608 12617 78.74986396075141
2608 19537 81.71668253893753
2609 2610 83.31847659815514
2609 11330 78.2878323938539
2609 19534 81.38778893329464
2611 2612 78.26056037515626
2611 4936 79.07500351752424
2611 6841 78.67769183267933
2611 12399 80.18731570067182
2612 2613 79.39393716236117
2612 12619 79.01994407608046
2612 13564 79.00433956524257
2613 2614 79.11556146229097
2613 10791 79.12789996676483
2613 10792 78.80850103686473
2614 2615 80.1196747446671
2614 12620 78.81524272105213
2614 13565 79.1969599952925
2615 12621 79.21185796858389
2615 12622 168.52118413051116
2615 13566 77.91924054715946
2616 2617 13.132326277726303
2616 12631 96.83476229791205
2617 12632 105.66381550379762
2617 13568 78.85028666142249
2617 17598 205.635874959879
2618 2619 79.70515635892583
2618 12633 94.51372912504246
2618 13569 76.2030232507805
2618 17598 224.86827928598984
2619 2620 82.41795882983311
2619 15726 111.54151327731081
2619 16524 155.26545110641646
2620 19047 30.325945733389062
2621 2622 144.18995053038296
2621 12623 76.25074778975998
2621 13558 77.22304409023256
2621 19528 137.42810751054148
2622 2623 141.59827094595465
2622 10483 77.09821072841392
2622 10484 76.5280903424236
2623 2624 136.9841508376798
2623 12624 76.9084072511816
2623 13559 76.79898840171766
2624 12625 77.20233700344205
2624 13560 76.76767860143384
2625 2626 99.3175700965774
2625 9639 76.65426067767983
2625 9640 77.86974095711716
2626 2627 101.0976014910172
2626 8817 76.80140221345253
2626 8818 77.37756308970681
2627 2628 201.17953329795745
2627 5948 77.40765146280815
2627 5949 76.81501444868225
2628 2629 101.46262610411108
2628 12626 75.97212374258939
2628 13561 75.99647186679006
2629 13562 75.69799610523036
2629 16966 83.76400782403495
2630 2631 48.35894511617951
2630 8003 145.91245158554145
2630 15543 201.97848951387545
2632 11449 202.72049361544217
2632 11450 148.15442757259865
2633 2634 58.73773289594379
2633 14841 105.63411909693286
2633 14842 7.403942898463978
2634 2635 72.24989832191208
2635 9258 67.10015463912194
2636 2637 258.6708633463482
2636 10075 132.02418063248393
2637 17298 85.86294354594816
2638 2639 220.0162774310223
2638 5464 97.9234897620825
2638 6756 91.90277067247084
2638 11354 237.77241078317903
2639 6757 76.10589950517614
2639 15084 75.95228201165541
2640 4826 248.12144112448811
2641 9200 55.58516066629741
2643 16163 90.11220865714279
2644 2645 75.3608701288429
2644 5435 184.02853338807387
2645 2646 113.21187024807571
2645 9636 34.37823487038357
2646 2647 53.36022302514799
2646 3906 89.59140711078537
2647 2648 77.27043018934498
2647 3259 102.05609059361971
2648 2649 169.39793593712233
2648 3260 241.3144443466319
2649 2650 57.9179465661555
2649 10252 162.7527125238542
2650 2651 59.94759979788464
2650 8457 83.74889794047367
2651 8944 494.7581008002024
2651 8945 169.2358432165529
2652 2653 69.56340145669942
2652 13913 33.89438611237351
2652 16099 31.63467382876694
2653 2654 12.867612849019112
2653 13076 32.84574386411782
2655 2656 80.77277251327104
2655 2662 47.83177654766206
2655 12688 40.03376492073003
2656 13599 106.67188970305278
2656 16387 42.40101325226317
2657 2658 78.51841058213394
2657 13250 39.389531902797835
2658 2659 76.37992843676933
2658 13595 74.72001609103651
2659 2660 76.46921622026703
2659 10819 74.0945507159699
2660 2661 68.22082109254713
2660 12686 88.93278200034611
2660 13596 73.72831375032497
2661 2662 102.02282494227171
2661 12687 92.502505579789
2661 13597 73.98389230293753
2662 18989 58.59714212300375
2663 2664 134.42145766406557
2663 9674 67.43626054604539
2663 9675 277.5674909909942
2664 2665 133.76834643748407
2664 8862 202.47748709852536
2664 8863 276.57983633831685
2665 2666 136.24600915515643
2665 5984 200.10730288566495
2665 5985 277.30749808441965
2666 2667 127.01698876583569
2666 10911 277.75272391514557
2666 15976 200.58050259803002
2667 2668 141.66724843660464
2667 13859 177.97195514004886
2668 2669 135.40890169565932
2668 7417 275.17752759529026
2669 16309 132.22178012425272
2670 2671 91.18553563268128
2670 10903 77.90327647546833
2670 15550 325.70304970725243
2671 2672 148.63871466488197
2671 4561 172.97867985646064
2672 2673 119.67362658177386
2672 10914 278.31729521195143
2672 16699 171.05293092008355
2673 2674 20.417560296352043
2673 3060 100.3576115105608
2673 10176 174.35660321748247
2674 3059 175.03851651051565
2674 3060 93.35839125494701
2675 13600 68.5680220847612
2675 15737 86.65593255470478
2677 2693 18.701743951554473
2677 12693 54.095756756189694
2678 2679 23.771400140057775
2678 12697 80.17525653776221
2678 17615 121.2630601947171
2679 2680 101.0411305857469
2679 13607 95.97923462521808
2680 2681 78.78487587224383
2680 11145 98.119238308871
2680 11146 78.45595422768167
2681 10084 67.48325880886848
2681 17635 175.85815415272694
2682 2683 185.91024246402407
2682 12690 81.63229268912039
2682 13602 79.53613009709372
2682 17635 164.63447309426658
2683 2684 170.90931285720507
2683 11315 79.44890511842615
2683 11316 81.87209498853619
2684 2685 147.7970092628584
2684 3928 79.26561372803717
2684 3929 81.75839726463765
2685 2686 79.47312409145628
2685 12691 82.86883795168305
2685 13603 78.51567163279059
2686 2687 78.9167740939101
2687 2688 79.90048116892409
2688 2689 78.86503576873095
2689 16415 93.59391458519661
2690 8420 191.73931097362768
2691 2692 139.2889974077505
2691 12692 76.28425019458984
2691 15641 274.2791995658927
2692 2693 161.7409166068964
2692 7044 73.89305663939113
2693 13604 67.97594118718374
2694 2695 157.2848718525605
2694 5736 64.23791917700768
2694 14699 305.7597534937035
2696 4092 88.74861430563477
2696 4093 89.14007205343842
2697 2698 77.50672399828642
2697 8661 41.67271677908532
2698 17242 168.59161959741928
2699 2700 67.78075538981497
2700 10121 109.31059725430872
2701 2702 381.2686445220936
2701 2724 23.277825338544794
2701 3864 57.02460139197316
2702 2703 224.4075327425428
2702 12803 131.08952412246103
2702 15316 137.17399225995555
2704 2705 188.16410556063244
2704 9846 88.91509338888262
2704 11052 59.145892261055735
2705 2706 227.06058733942834
2705 11281 97.34679538482438
2705 19038 88.37010097639663
2707 2708 154.5955098837917
2707 9855 73.32303749904918
2707 12424 84.86003562900487
2708 2718 63.31749469218744
2708 4926 144.51078865526972
2710 2711 44.10210990563846
2711 2712 83.81036594276989
2711 7153 156.8395878356544
2712 2713 76.3831301679777
2712 16559 75.52708748659543
2712 16955 89.14813846621966
2713 2714 81.65621264846803
2713 4074 154.40979446202272
2713 4075 79.47199415044507
2714 2715 78.34533095054724
2714 7160 154.41301621303262
2715 2716 77.0213931757508
2715 14561 114.27572487594765
2715 14562 54.316831639101174
2716 2717 32.79119959469818
2716 7161 156.04437585984337
2716 15495 179.34822956359864
2719 2720 134.21246605528253
2719 9859 75.94457793141333
2719 12806 69.109557411974
2720 9860 75.94620453868347
2720 12807 75.39282852297411
2721 2722 85.86497151651945
2721 9852 78.36745244991069
2721 12798 42.875748420920594
2723 2724 150.12628743112032
2723 18898 33.58508403089233
2723 18899 74.68767219371797
2724 3863 79.07561865112517
2725 6420 78.65383248308041
2725 6421 236.74644754790867
2725 19358 38.75518932233879
2726 3312 280.2858932175807
2726 19127 155.13350550179092
2726 20004 35.34404187924184
2727 3891 32.295140846901965
2727 3892 125.80392464317127
2727 19753 218.66194794571814
2728 2729 59.78406999175808
2728 8071 168.04863527104223
2728 8349 71.0172867247613
2729 2730 214.72161237751772
2729 3851 75.46192971656619
2730 2731 43.217792283238495
2730 7142 92.12910466507013
2731 2732 269.0665938811169
2731 10673 67.9894753925907
2732 7143 65.65073235973865
2733 5860 67.4033565666
2733 6758 26.908721244003516
2734 5861 68.48688076115019
2735 2736 36.5745928366131
2736 2737 155.31417581314426
2736 17385 87.29931038425808
2737 14073 44.701926182711766
2737 17386 18.871779433804374
2738 2739 203.8574103637756
2738 6609 36.29899864407568
2738 9018 15.137403887263517
2740 2741 139.83080590588324
2740 10448 152.888526489206
2740 10449 164.45138390504715
2741 2742 60.00791688529245
2741 4841 79.73800064097982
2741 6747 55.184290267788505
2743 2744 48.54848398060348
2744 2745 86.90030300514547
2744 6157 157.9103389789056
2744 15517 66.6737317595961
2745 5441 287.6233864920938
2745 5442 67.45320326199476
2746 2747 65.7025490724361
2747 11020 239.45730136988965
2747 19010 15.860100061936668
2748 19010 168.98737864844742
2749 2750 29.53955537103551
2749 3382 99.87884136775838
2749 13116 66.43506923530462
2749 17018 389.89555654425686
2750 3383 97.93442986415906
2750 13116 76.83752544445613
2751 2752 259.6115671613753
2751 2979 87.93005273875899
2752 2753 227.47904922874844
2752 5870 101.09211429370521
2753 2934 146.4663925999489
2753 17450 93.931806584979
2754 8644 85.87145994034178
2755 6504 325.162065519666
2755 7612 211.4162389593114
2756 2757 594.7424903849022
2756 3193 100.55773398434442
2756 12996 299.0748235457756
2757 2758 546.9904943398878
2757 7518 181.04093872621593
2758 2759 106.24727963670934
2758 9142 342.37899118084397
2759 2760 106.82140243997401
2759 9142 273.88626298320514
2760 6503 489.0398433844234
2760 7556 298.7713091638404
2761 2762 84.74750642397254
2761 15052 94.08870244214793
2761 15601 116.21886192271114
2762 2763 84.0700576575827
2762 14953 314.35284573527235
2763 6911 399.61380972745076
2763 15053 94.10610566245927
2763 15477 314.5449544399258
2764 2765 86.09867481151878
2764 5760 269.92212030338294
2764 12701 31.621743427952005
2766 2767 36.75546573693516
2766 3160 86.85875664882794
2766 10082 55.16864411408436
2768 2972 62.694509739052805
2768 2973 68.18844298783695
2768 18828 99.11003614170542
2769 2770 209.88025076878517
2769 2787 20.627840800108483
2770 6729 223.50707812757634
2771 2772 147.18099168857006
2771 13895 66.23036792108282
2771 13896 53.17723145589811
2772 2773 197.7466733487859
2772 13304 74.72541927903231
2772 13305 73.16762664826341
2773 15271 74.78169359550566
2773 15911 28.711340728436863
2774 2775 71.4414320358215
2774 5437 60.544969203057526
2774 5438 93.83777698791982
2775 15275 159.73829516437
2775 15276 132.43849578223396
2776 2777 300.85672248614236
2776 15907 86.3797824782215
2777 10525 80.541515406116
2778 4146 67.48284939460622
2778 4147 80.6730975911482
2778 14090 130.90779569635114
2779 2780 352.0725391272378
2779 12709 76.87552612158461
2779 17619 89.51338351676426
2780 2781 154.79407361550835
2780 7989 92.01778882843792
2780 7990 76.44710266426186
2781 2782 170.293141684887
2781 6300 92.78388494149827
2781 6301 76.75171584320555
2782 2783 140.56302138879514
2782 4786 92.19775120703801
2782 4787 76.2832663372768
2783 9245 91.64763900248278
2783 9246 76.29374633733744
2784 2785 58.05009111391913
2785 9322 84.45602062186883
2785 9323 223.74972245810784
2786 2787 88.13733160623909
2786 7469 212.7586597393218
2786 7470 11.327648614083985
2787 12946 75.81408184239767
2788 2789 149.56683335019417
2788 15912 83.10366754696636
2789 8163 117.23315306114104
2789 8164 82.18140368553911
2790 2791 148.71384886303727
2790 12463 138.7061559777193
2791 10125 28.984565334557296
2792 2793 74.91735746198668
2792 13847 57.248755229777906
2793 2794 75.03448363233954
2793 11078 63.2743592804417
2794 2795 71.3177491075847
2794 14639 74.86059816962998
2795 2796 76.5035705814748
2795 15796 82.73086719969103
2796 2797 104.40097195589907
2796 16426 44.5602809923565
2798 2799 98.29658534984998
2798 15295 240.4484008678214
2798 15296 218.8658956166144
2799 2800 137.53468463866403
2799 3833 226.7946486757479
2800 15293 352.53645671409674
2800 15432 610.8589880254625
2801 2802 62.229040162274764
2802 2803 230.67541443305078
2802 4616 70.65720225924125
2803 2804 195.42670129899045
2803 10687 189.3986249987452
2803 11182 35.3783449673864
2805 10094 38.56421539098787
2805 16380 72.50536000131846
2806 7555 350.30052945924314
2806 8730 238.02146046305953
2807 2808 91.6511604399717
2807 5651 196.11738716646445
2807 15549 115.43266656059245
2808 10092 59.341499000229845
2808 10475 158.7415386344542
2809 2810 219.91645553901338
2809 7197 80.12362438202385
2809 7198 156.58929809984673
2810 2811 92.46929136166509
2810 10097 31.31750731991512
2811 10096 48.17224488527571
2811 12948 94.11523090116196
2812 2813 300.60044358190305
2812 17003 141.63702929389478
2812 19776 107.74365442673303
2813 2814 134.74918072796623
2813 12875 157.19074693475872
2814 6721 91.21123496349684
2814 18351 140.34998839251614
2816 2817 116.5492118367506
2816 10185 152.82325540545065
2816 11386 75.71516727284393
2817 10186 131.15376741823883
2817 16065 75.83534013796616
2818 2819 84.28938495810029
2818 15315 207.34572000647066
2818 15594 394.3087264509023
2820 10567 97.08085319863166
2820 17293 81.67927001724772
2820 19620 405.7635471578719
2822 2823 95.1274866895483
2822 9065 79.07934630819547
2823 2824 104.92373029812545
2823 4680 72.61693432744426
2823 9066 78.57895174482988
2824 4681 73.04097969367527
2824 17482 75.59443304282222
2825 2826 77.40369174076977
2825 4687 90.92880750632871
2825 12390 167.69713943680318
2826 2827 76.9041872482441
2826 4689 91.26979616461281
2826 11886 167.3600082551424
2827 4690 91.43610073383721
2827 8499 167.1964104953757
2827 19678 75.4701880544218
2828 4692 92.33503525987811
2828 9048 80.55468941290013
2828 19678 77.50401925525496
2829 6464 267.4175543387052
2829 9070 78.8188733429492
2829 14927 102.52881178264379
2830 6100 172.24842069118
2830 9071 95.1036663829016
2831 2832 200.88673307513676
2831 9074 78.2136407806673
2831 17555 18.88798087744391
2832 4684 75.46019945531583
2832 9075 81.12780382655049
2832 17375 202.81808775328014
2833 2834 152.33888113892402
2833 9077 87.2546669571908
2833 17373 77.8845150983538
2833 17375 99.1359276979773
2834 4685 76.11564696311673
2834 9079 86.47532986437975
2835 2836 60.05173981068621
2835 14564 110.75404523227958
2835 14565 63.010254607418155
2837 2838 244.96229170990665
2837 18098 59.85121761462282
2838 12910 1417.1829735992537
2839 2840 62.589942944151375
2839 6316 57.03198457310198
2839 6317 307.04777426434026
2841 2865 39.10740747229754
2841 18018 595.2564442361185
2841 19796 286.64503411523555
2842 2843 154.36113144887022
2842 5724 78.26937984660243
2842 19181 31.0568846842853
2843 7147 78.88701343495734
2844 17809 122.04092980191098
2845 18033 154.76865621367483
2845 18034 10.821770395878035
2845 18035 234.32789452167083
2846 2847 265.671105210547
2846 16831 92.16758512218885
2846 18033 10.52399004613287
2846 20089 10.323606847959077
2847 2848 78.98138709714088
2847 6667 87.2901884112288
2847 19328 33.689247023513616
2848 2849 82.35101609185861
2848 11813 99.53901316364447
2849 2850 145.79488448392053
2849 11814 121.11217471380951
2849 18031 10.794846288208356
2850 2851 158.06268184996316
2850 3827 15.610711566690632
2850 18030 10.574848773921557
2851 2852 153.5316533423665
2851 3828 69.09181266492257
2851 18029 10.585251394385045
2852 16291 27.534273486229797
2852 18028 11.291024019351442
2853 2854 81.00496814807182
2853 4578 93.60884949378055
2853 18026 10.845242958596597
2854 2855 81.66008953665093
2854 16468 112.61937951372128
2855 2856 80.6705664165041
2855 9966 130.96192434710653
2855 18025 10.596482512008539
2856 2857 80.9040829101256
2856 10996 147.5001726819929
2857 2858 78.60830309690182
2857 15400 158.11431454244902
2857 18024 10.185706140209462
2858 2859 80.32920508574817
2858 14430 164.03286168403966
2859 2860 78.58707064643944
2859 7922 171.12423539388809
2859 18023 10.432806829461441
2860 2861 78.95818136413115
2860 16469 177.98742697281426
2861 2862 32.6480709538326
2861 15821 183.4264104073048
2861 15822 10.78609867121733
2862 2863 158.35037783895302
2862 3872 151.12409350838132
2863 3457 121.16218748126164
2863 15822 193.4589641329678
2863 17155 41.199745965688855
2863 18021 35.29807481859753
2864 2865 157.60627936594884
2864 18407 59.83801971055654
2864 18408 74.4399794664859
2865 19334 337.92570989182553
2866 2867 124.59007846392458
2866 9120 92.0584364979583
2866 9121 77.46963401137718
2867 14950 91.413543351116
2867 15209 77.99228771331191
2868 9632 64.75338183624476
2868 12957 584.6319002494032
2868 18143 13.407213485407496
2869 2870 61.944938093707265
2869 13074 175.74168382623535
2869 18143 65.69760029586381
2871 3162 266.25150645855564
2871 20036 331.92838469461384
2871 20038 477.2699318679663
2872 17243 109.64711536692023
2872 17245 255.05058115045858
2872 20036 11.9703901557935
2873 2874 29.892756434963058
2873 4176 146.87518834422957
2873 13820 310.7981540028065
2874 2875 212.3529410519029
2874 7511 86.37947413862987
2875 12816 48.84100893991516
2875 13820 91.47146690542044
2876 2877 97.64282282704532
2876 11874 56.896859192696894
2876 11875 76.37736919558112
2877 12823 78.03689179145258
2877 13816 50.00276976958326
2878 2879 81.7841656090443
2878 11519 231.80357915489395
2879 2880 180.99327711715986
2879 5509 79.70680967350239
2880 2885 24.39867540027987
2881 2882 76.16940409282849
2881 3513 141.95047353700275
2881 12048 67.86621901221824
2882 2883 76.59274712371732
2882 3333 54.868707462649176
2882 3334 117.97859884540873
2883 2884 78.96015541061384
2884 15317 30.77434136830224
2886 2887 35.58905181036383
2887 2888 113.39142164518653
2887 6838 64.04891956499576
2888 2889 37.66138482335228
2888 9023 69.12402683577535
2889 4133 125.19040091586146
2890 2891 204.01781410559505
2891 6935 88.44881674160239
2891 14997 387.88193080781184
2892 2893 79.55385086611092
2892 4361 78.69368796494442
2892 4362 79.41580776566055
2892 14679 153.97427725470195
2893 2894 81.17351781917387
2893 13584 51.594754451366065
2893 13585 79.39368245796818
2894 2895 134.5928890475511
2894 6467 120.17066426316973
2894 12269 78.90495674865487
2895 2896 28.183099920912593
2895 6467 250.52367620711846
2896 2897 78.23430264813709
2896 8375 77.5080143274068
2897 2898 80.03532079691234
2897 5094 216.51128183357855
2897 13983 76.30284012707662
2898 2899 78.51034046037535
2898 3761 105.49997400083521
2898 3762 76.94381558096492
2899 6438 104.10857762129726
2899 13442 78.99096715628086
2900 2925 32.60258124626473
2900 4021 45.31323667266797
2900 17821 46.78802688578955
2901 2902 100.4392624251175
2901 6450 90.79742976402432
2901 11837 136.04025950661168
2901 17821 67.15579726320198
2902 13472 135.90746352614863
2903 2904 100.32258204472008
2903 12470 136.24214322257376
2904 2905 99.16720164199751
2904 6451 90.09219695343756
2904 10766 136.34165084493026
2905 2906 101.82518700103145
2905 8998 136.5376621500517
2906 2907 100.33071136227268
2906 6452 90.54711126499562
2906 14265 136.73174823020216
2907 2908 49.98153086809075
2907 5183 136.675014787747
2908 2909 49.70049677083122
2908 5120 134.8153962665961
2909 2910 25.049621835967727
2909 16732 137.21487262733484
2910 2911 74.60893301793948
2910 5121 134.61276861153758
2911 2912 101.52947358412658
2911 6444 77.20473107325617
2911 10649 137.34737291455943
2912 2913 101.34945564166703
2912 6445 77.20298735137852
2912 16555 138.01578842499592
2913 2914 66.53207900543599
2913 6446 77.40346471244371
2913 9956 137.81315512219845
2914 2915 27.988095933200935
2914 10333 203.79034987007546
2915 2916 47.533049014352194
2915 16196 136.0832249166466
2916 2917 78.72543551425153
2916 7900 210.64214513346022
2916 7901 136.58445395002437
2917 2918 80.92482881042693
2917 5849 137.05361766162153
2918 6440 76.99674936955995
2918 12428 136.81239305369138
2919 2920 200.35306411900123
2919 6441 77.35862907828562
2919 8576 77.5059423962619
2920 2921 135.23967576689262
2920 6442 76.32190814618679
2920 15338 78.18306190046549
2921 2922 64.30232505287088
2921 14145 118.30414961255589
2922 8007 78.42623805231159
2922 18237 101.29487610820931
2923 17543 37.48738845632765
2923 17556 10.267356700491623
2923 18237 55.90221047045512
2924 2925 78.79633932966772
2924 6443 78.31559233793563
2924 12376 78.60390472667606
2924 13629 205.3440057144236
2925 14180 79.08215038401237
2926 2927 294.40488053742575
2926 6465 83.30863322306439
2926 9070 65.6836040637617
2927 5131 279.97096704456993
2927 18572 61.06853980874469
2928 5131 186.78021452845562
2928 18570 8.484779133340425
2928 18571 48.611824623915496
2928 18572 46.4857144976483
2929 2930 49.00314471890242
2929 5132 191.02436448271553
2929 18571 47.480437027431236
2930 2931 59.06183013005625
2930 12820 76.16786636284733
2931 3506 87.3788010003605
2931 19025 43.51670840660029
2932 2933 89.66175431945862
2932 8957 76.83012147132591
2932 19024 34.612666485280045
2933 14653 82.60609216845543
2934 18331 54.32274588936064
2935 2936 150.12416836952022
2935 17255 125.98029805974008
2935 18561 150.093871679933
2936 2937 24.79068084331713
2936 8359 64.13421320913719
2937 2938 26.0468897743623
2937 11410 185.23872804827914
2938 2939 121.80565233027028
2938 11416 443.0704952634624
2939 2940 82.17659652868636
2939 10844 192.12873841774558
2940 2941 77.24532443009298
2940 6454 103.46409769392098
2941 2942 78.30642070233041
2941 12750 201.049638198791
2941 12751 140.71292356623792
2942 2943 80.81192255456268
2942 11968 312.79343271444475
2942 15838 49.397031430253016
2943 16434 101.27500075561866
2944 2945 83.65732459785713
2944 5110 140.28795628226771
2944 16078 103.88663706742214
2945 2946 177.03309589311644
2945 5902 82.3754003623826
2946 2947 206.2115553443106
2946 15072 195.4988801018913
2947 2948 108.37837901203488
2947 16082 155.1978316551353
2948 2949 98.43229759115405
2948 8924 130.56902138180197
2949 5112 142.79791661321295
2949 15789 90.57033405772802
2950 2951 92.26482775557082
2950 5115 209.13420071446737
2950 6489 68.98939237717055
2951 2952 69.82579841272165
2951 5115 122.71493624930713
2951 14513 97.05255989377378
2952 2953 26.78633694395001
2952 14523 67.15366363650956
2953 2954 64.82705485712216
2953 14522 92.25242544789526
2955 2956 97.2099391609474
2955 6459 89.33446768118816
2955 14359 84.38581066574156
2956 2957 70.14937622322265
2956 6460 88.4600364230704
2956 9284 85.48845933121177
2957 2958 159.41605372110166
2957 6461 89.60963597574957
2957 15969 85.0760159634759
2958 6463 87.59972150330755
2958 15191 86.14382274912386
2958 17093 156.37859859959556
2959 9283 543.0322689166579
2959 17093 14.189887528656863
2960 2961 74.50108929530757
2960 2962 171.41084900673076
2962 9143 35.16456669835563
2963 2964 85.13369872455463
2963 15019 65.72392421398206
2963 15709 29.76622575862686
2964 2965 110.39992122661654
2964 5646 159.02133062573398
2965 2966 65.53590891998785
2965 5213 118.27915626910914
2966 2967 65.55487405678107
2966 5214 103.82003079118007
2967 5215 102.17058522514196
2967 8734 200.49992541445064
2968 5818 51.167025073493605
2968 6329 70.1342685549654
2968 15895 81.72364607911275
2969 2970 81.1282871679288
2969 3347 269.2198349584181
2969 13228 238.11930860190964
2970 14879 90.78090627266657
2970 14882 105.79129989511848
2971 10460 216.58799183151336
2972 14345 116.56922203764358
2972 17659 132.81478667429099
2973 13330 48.75513929032473
2974 3488 251.0836633140002
2974 5131 373.13121564011414
2974 13811 28.45487492387234
2975 2976 52.90599329898097
2976 15841 28.052139772507466
2978 16446 59.52371660671612
2978 18354 153.52820376898427
2978 18401 161.13284325676688
2979 2980 171.5202869720424
2979 15182 118.81397264410482
2980 5104 285.2640441392985
2980 11022 130.10734139377809
2981 2982 94.62718335615398
2981 3036 66.50589924920556
2981 11961 130.03195707744285
2982 2983 135.24134191159982
2982 7097 45.95014735123314
2983 2984 104.42454367047222
2983 6488 52.15055813675271
2984 11963 141.72140746115747
2984 17502 117.41166316365661
2985 2986 84.48756747351423
2985 10396 255.8717009333634
2985 12543 114.70490503409756
2986 2987 74.68035142019741
2986 10397 253.50622363334972
2987 2988 74.3876394759124
2987 5330 252.99377504281804
2987 5331 114.4548302069814
2988 2989 72.37377849648578
2988 10398 252.13228390542255
2988 14116 115.5167890311998
2989 2990 66.6186632001181
2989 4844 186.92522204871383
2989 7757 116.37840425387425
2990 2991 60.086641461825735
2990 4844 120.99193258377674
2990 4845 118.57446761829648
2991 2992 76.41706113923252
2991 15368 120.90241701238006
2991 15369 118.34499415139194
2992 6122 121.39870167977074
2992 6123 118.55661590610853
2993 2994 76.3015250735591
2993 14053 182.88893719946506
2993 15234 92.81828447154369
2994 2995 68.78789971294657
2994 19375 53.422131490734955
2995 2996 11.015337163665151
2995 13369 76.79847542643559
2996 2997 76.1846252895315
2996 16717 172.21943289350128
2997 2998 76.22379007073918
2997 11747 172.40275982705901
2997 11748 121.98120213502516
2998 2999 79.82978286056365
2998 11980 121.82573278725674
2998 13683 236.29131912047902
2999 3000 84.57564366787159
2999 10368 238.90327848148374
2999 11982 137.7656518855368
3000 3001 80.37147843365425
3000 7132 114.3085527128484
3000 7133 149.09958784339463
3001 3002 47.832768659180275
3001 4125 78.81151248459408
3002 3003 77.63456480126419
3002 11983 152.63104019465834
3002 15122 113.90841047741961
3003 3004 78.93629106679967
3003 4621 113.40799556046623
3003 4622 163.32374995681235
3004 3005 59.471492442338075
3004 5420 113.64148251191698
3004 5421 81.70628176743254
3005 3006 84.3941319723316
3005 14681 114.14188227980608
3006 3007 85.04789753856488
3006 4358 240.65235849338097
3006 4359 81.78661292193966
3007 3008 110.31767533705892
3007 13574 75.179709029131
3008 3009 199.00959694187532
3008 12267 85.75726916731197
3008 12268 78.54163956262857
3009 8372 42.19951997704961
3009 8373 76.54822146629738
3010 11973 121.64882087522851
3010 12953 181.19470551537916
3010 16025 84.92689969176962
3011 3012 75.63268783779975
3011 8453 78.86881694303804
3011 11975 168.13723368103797
3012 3013 63.30368352734496
3012 7627 167.24701705192527
3013 8454 76.24802815635455
3013 11976 169.80188302807358
3014 3015 74.83125843521944
3014 11971 120.88170479808072
3014 15776 170.16623778755286
3015 3016 78.02050183416235
3015 7085 121.96140752828757
3016 11972 123.09740645796037
3016 15071 82.37356791901647
3016 19870 78.2017643673275
3017 3018 75.83335809934643
3017 7897 199.4648562972429
3017 7898 122.4623139192316
3018 3019 74.78902955866337
3018 5836 199.12409034704086
3018 5837 166.26022026351282
3019 3020 23.347331578141652
3019 18238 213.35198442940342
3019 18465 199.13331247979355
3020 17402 202.41227667563942
3020 18464 199.23609124877115
3021 8604 38.19749990091493
3021 8605 203.42207787908967
3022 3023 78.13371639444222
3022 10385 207.04548352473597
3022 11965 194.70448009127918
3023 3024 82.28806318249177
3023 5177 194.98709191940156
3023 5178 194.5913979622205
3024 3025 79.0453512169124
3024 11966 194.66936471674973
3024 12106 144.85158185545666
3025 10648 194.4589624403913
3025 14140 99.22225538912876
3026 3027 205.57155961960956
3026 3503 96.74134291904303
3026 18560 51.06313604430827
3028 9067 120.24305991135621
3028 9068 119.11256757215415
3029 3030 59.55710812544393
3029 16441 54.37615418724778
3029 19788 80.91717894055157
3029 20082 37.18469503468661
3030 9282 228.82021150420334
3030 19183 20.51773960337124
3030 19223 67.70492871690804
3031 3032 44.41869900817719
3031 19183 78.52428884492167
3031 19207 143.56487173581064
3031 19325 309.7754794650242
3033 3034 374.3341630416885
3033 11998 136.9529242074277
3033 14179 63.64497274985571
3034 3035 69.4978121299656
3034 12475 134.20179103999175
3034 12476 67.27781739076403
3036 3037 94.59244161798333
3036 10415 72.78975489968363
3037 3039 82.74038951875997
3037 10077 90.96661585273594
3038 8034 251.4980635965831
3038 16207 88.06779008662471
3038 17387 155.90024215703724
3039 3040 63.401229168005486
3039 10078 105.65435219339916
3040 3041 108.26013683804634
3040 12000 114.76972499735514
3040 14021 120.97069188278985
3042 3043 80.02787200282792
3042 9229 163.02164512493448
3042 14627 140.0964868125278
3043 3044 85.3996711331859
3043 9230 163.79428074219956
3043 15799 140.18429656426324
3044 3045 85.32274426978084
3044 10629 253.3946250824004
3044 15942 139.52169171068746
3045 9231 163.32569459827482
3045 9872 139.58691758841397
3046 3047 83.52673490047263
3046 9221 139.7434237681786
3046 9222 102.0490139329445
3047 3048 82.47480704426195
3047 13690 99.45288428435657
3047 15943 140.09911132235794
3048 3049 83.72704618526197
3048 3074 139.75294904475874
3048 18139 54.05301593740941
3049 8327 141.6088775401573
3049 8328 93.97111959581514
3050 3051 89.86798409651796
3050 10014 90.89922811342912
3050 13688 88.19679360828877
3051 10014 111.81859771221971
3051 10015 81.29204804849022
3051 16906 20.175391408985426
3052 3053 79.3498408336347
3052 12872 140.61372245916834
3052 16906 55.24401519619201
3053 15945 140.40818447388304
3053 20100 67.11880152546009
3054 3055 79.06178621399286
3054 3757 139.9974304045748
3054 20101 79.14686392671064
3055 3272 139.80703194971954
3056 3057 247.01904292887156
3056 3993 125.57138606358973
3057 3058 340.4813562742194
3057 10173 114.48521489406372
3058 3059 217.66388413895498
3058 10175 46.100523771766106
3059 10176 32.60708695370245
3060 3061 190.0223121372884
3061 3062 147.9925190463578
3061 10914 72.80173770608363
3061 10915 187.48429265891946
3062 3063 268.7860122134078
3062 10914 145.50879044811424
3063 4562 365.34001568968733
3063 18002 18.292209965470725
3064 3065 207.31466909168026
3064 12236 426.9803786684517
3064 16311 140.3657525801584
3064 18002 265.519997275962
3065 12672 160.16165257051162
3065 16311 263.3041461773579
3066 3067 129.02505477305527
3066 10007 168.67627568371725
3066 16226 96.4832901539156
3067 3068 102.35751153807345
3067 10007 98.59106631578622
3067 12518 81.62006847650574
3068 10008 96.69771808952524
3068 15237 99.90398594931806
3069 3070 124.4926440917934
3069 8810 82.73835026973924
3069 19145 178.93942305339232
3070 3071 195.674507767778
3070 8324 83.54083858700446
3070 18839 69.59376404235925
3071 3072 139.78583940180442
3071 16230 82.52898193429984
3071 18835 84.5112282501483
3072 3073 140.04073330821882
3072 8325 84.18323243052436
3072 16231 82.74571163985466
3073 3074 140.63041738176122
3073 8326 83.60539353840454
3073 12602 82.57782947661389
3074 8327 83.50283809400237
3074 15943 82.40524958876492
3075 3095 34.87515446929613
3075 18139 44.20133142114029
3075 18140 9.677901506583051
3075 18142 45.86902556551467
3076 3077 79.94360563376932
3076 8336 79.00605558245812
3076 16232 79.26230037771539
3077 3078 90.13965849513927
3077 8337 79.58273596329806
3077 13691 78.96771482776829
3078 8338 78.8184151567215
3078 10506 78.73883096838894
3079 3080 97.57557533340668
3079 8341 78.86017235228584
3079 15513 78.86924311428965
3080 8342 78.68110632987337
3080 8343 299.31750610730427
3080 15888 79.32934589011504
3081 5793 79.13097290154931
3081 5794 69.91576396801503
3082 3083 76.20314999387604
3082 8806 88.83262229733252
3082 13215 50.7637218028151
3083 3084 76.35899843219654
3083 8806 232.37428463188596
3083 16234 119.46688122948115
3084 3085 76.24687569741293
3084 10945 119.3174711290832
3085 3086 79.43815115693079
3085 14832 119.60410648946306
3086 3087 82.11825277004785
3086 9789 119.94543118388094
3087 3088 76.1352881460603
3087 10067 153.55025279847584
3087 10068 43.75712895392274
3088 3089 76.48049180218399
3088 8656 153.81309903320022
3089 3090 76.23534979910745
3089 12523 153.86594224773634
3090 3091 76.10227345371435
3090 15845 153.7391504173023
3091 3092 76.53620922119705
3091 9611 153.68294065228426
3092 3093 74.92374254449851
3092 8909 154.81846341609958
3093 3094 141.64664886293596
3095 3096 154.14322931778972
3095 8328 47.81600285055802
3096 3097 157.96546827832702
3096 8330 85.79645628039448
3096 10630 78.91299528190575
3097 8332 85.46476617196788
3097 11654 74.63553402165547
3098 18793 18.17166074742604
3099 12994 131.5586190668556
3099 19315 143.39297532831026
3099 19966 78.26666954844585
3100 3101 79.47321708176689
3100 3108 30.2425113847747
3100 9234 45.90131611307146
3101 3102 79.6379223925091
3101 9238 97.59277570758502
3101 16392 69.44102598769982
3102 3103 78.53477765974566
3102 4784 110.85778232062238
3102 8427 98.29508859625976
3103 3104 264.2715371530628
3104 4785 125.51291746201207
3104 17240 122.62133234096294
3105 3106 362.7195608736532
3105 9251 505.37941900238803
3105 9252 186.5268263385479
3105 19213 103.74081176411812
3106 3107 29.267706208417348
3106 14378 1431.559333038854
3108 4783 74.4299638325689
3108 9235 241.66645184681738
3109 3110 25.990895357974324
3109 4776 115.20621917530293
3109 8716 50.793746118105574
3110 3111 144.608493287735
3110 4777 91.07980769822603
3111 3112 76.82566974112035
3111 4778 90.11328390088848
3111 5981 76.52647120923287
3112 3113 86.22100572373678
3112 9253 77.94399750162921
3112 10720 181.96611418632668
3113 3114 92.77015276411625
3113 9254 78.9145304575403
3113 15028 181.2551338116465
3114 3115 94.43805681112235
3114 9254 164.43764570195125
3114 15029 181.74798570631376
3115 3116 86.16588071195834
3115 13867 180.82929160001362
3116 3117 29.82691067916835
3116 7407 180.743110677302
3116 7408 89.71255953939973
3118 19071 27.893758726197
3119 3120 126.27665335302831
3119 4773 175.84452589236946
3119 19577 121.14107194613305
3120 4773 49.115832468070565
3121 3122 196.62627410767277
3121 9242 92.33743008197709
3121 19318 91.31315574239781
3122 4786 46.297148785591304
3122 9245 93.94283377217275
3123 3124 157.62517434955996
3124 3125 26.815674036211245
3124 9014 204.41383825759812
3124 19618 91.31602928186173
3125 3126 41.45104531517372
3125 14898 142.31565958301812
3127 4155 442.32241698996745
3127 14616 306.549535631629
3127 14888 69.04553422408154
3128 3129 171.8416202669681
3128 10729 245.48941429939708
3128 10730 39.69257842618837
3130 10156 123.49124491649206
3130 10157 108.78292783405959
3131 3413 158.58698286598857
3131 3414 78.47307638404972
3131 17272 78.72638593198593
3131 18601 91.67013672816043
3132 3133 79.37704776012822
3132 3416 78.22938989606205
3132 15725 79.68838775714993
3132 17272 79.5773726741433
3133 3417 78.71779269366135
3133 6945 79.26759789555538
3133 17241 81.09185297119781
3134 3135 158.43644748131146
3134 3419 79.26951539133789
3134 17241 76.75536714457269
3135 3420 79.4096140609168
3135 13968 70.55456465328307
3135 19833 10.187065623939052
3136 3137 158.1316941225013
3136 3421 79.5850661352198
3136 13286 79.02167492479326
3136 19833 148.224932760838
3137 3138 158.11944563290334
3137 3422 78.74185377701373
3137 15815 79.82483548990123
3138 3139 158.1597494990043
3138 3423 79.15841720869597
3138 9772 79.2951499668494
3139 3140 155.30103927146368
3139 3424 80.03818126269458
3139 14721 78.86077512001873
3140 3141 154.41501385206666
3140 3425 79.62615306774052
3140 4568 78.93552402540176
3141 3142 155.74905416565733
3141 13858 79.24145914924704
3141 18926 73.76290960374546
3142 3143 154.8090519627145
3142 3622 77.9859095384486
3142 18925 74.97646802359947
3143 3426 79.71617499459875
3143 13296 77.83398199154344
3145 3146 233.9002083585846
3145 6676 88.84895396742932
3145 6677 81.53312281458913
3146 8293 84.80218735422346
3146 19777 78.62327879327326
3147 3148 90.68475080675027
3147 13959 116.61833298859122
3147 17253 116.86385801990639
3148 3149 88.8981210580473
3148 11199 116.51134360933224
3148 13960 117.15360609967388
3149 3150 89.4100780990152
3149 11200 116.31962833562571
3149 13853 117.21031241629325
3150 7530 117.11976916311596
3150 7531 116.50225188409998
3151 8227 116.62065151229062
3152 3153 89.34889193178277
3152 11201 116.69424013286725
3152 13905 116.81677702797471
3153 3154 92.2449971813779
3153 6989 116.83423153148716
3154 9823 19.871270856782452
3154 9824 55.68442840896169
3155 5966 78.66445690074217
3155 5967 79.75824383734519
3156 3157 90.73637761718604
3156 11086 575.2239900319313
3156 14704 173.7262798587465
3157 13793 203.1762103387733
3158 3159 44.35717536430231
3158 6602 59.82594815107247
3159 10453 303.54989270535884
3159 10942 71.26534698879928
3160 3161 75.26884614617063
3160 10083 178.4043840180227
3161 11574 292.94646271653454
3161 13806 176.76376550744888
3162 17245 14.608679863517823
3162 20036 244.72189418602667
3162 20038 362.65720239114387
3163 3164 84.50945779974141
3166 3676 52.79389495066047
3166 10336 86.92327855839966
3166 19383 63.47439258033068
3167 19398 155.72374349346268
3169 3170 77.1053217193847
3169 14402 197.39219033345728
3169 17258 81.99342861673068
3170 3171 89.26786847585272
3170 8296 160.06046555644957
3171 17126 103.12543593157469
3171 17130 118.43718381200279
3172 3173 128.6738673132059
3173 3174 304.9328892820557
3173 9840 390.58699379140677
3174 3175 101.72282206987529
3176 15672 163.88300109739512
3176 16855 27.13653483503305
3177 13807 40.659787364096246
3177 14901 126.15625442449357
3177 14902 101.97456072519059
3178 4555 236.4126604537379
3178 4603 173.44450081979966
3178 19637 47.83791489705276
3179 13610 876.3436334860779
3179 16204 537.652134986656
3179 18809 44.23649621139235
3180 16866 81.48844786330918
3180 16879 37.55173787242339
3180 17772 88.27854750566325
3181 3182 58.19240989884116
3181 7298 71.9083331666797
3181 14829 228.5648570997755
3183 7405 75.25469646763628
3183 17201 83.93588136992643
3183 17282 75.20147310789267
3183 17283 11.392982782956606
3184 3185 79.1801504320566
3184 11167 80.71269669085537
3184 13548 76.69947657834615
3184 17283 74.07886937306708
3185 5197 80.82141832287702
3185 5198 76.95108489059068
3186 3187 79.30717381176744
3186 11168 80.57758848430052
3186 11718 76.84406105961743
3187 3188 79.25159270031659
3187 11169 80.58212230829355
3187 14781 76.92328817159276
3188 3189 78.92243491381373
3188 14782 77.46283575235555
3189 7931 79.03901636171706
3189 11170 158.9032777066937
3189 16993 112.13881065467663
3190 18738 253.5540440553231
3191 3192 108.3185147828548
3191 4026 171.92556534433564
3191 13963 132.97459107516102
3192 4026 160.80022450986093
3192 4027 60.35798213589724
3193 17389 315.90415151446956
3193 19906 474.49596794686136
3194 10198 186.40920046873163
3195 4698 70.02559802857505
3195 12065 72.45182139494048
3195 14689 85.8270172834624
3196 5543 79.44493805171085
3196 14316 159.45416070815048
3196 17827 627.3539350066993
3197 3198 158.88773109234958
3197 6864 78.926277660446
3197 6865 78.9485156741195
3198 3199 154.341869302877
3198 4967 79.5389997447667
3198 4968 79.00481859182526
3199 3200 155.77592345990814
3199 9460 79.96041555407923
3199 9461 77.72634150035826
3200 3201 155.0271571762189
3200 11035 83.30758556665896
3200 11435 79.40548608259158
3201 3202 154.64697565554346
3201 10238 88.28912929654199
3201 10239 79.72798755558907
3202 3203 71.08297962956975
3202 11038 91.85842012487633
3202 11643 79.57122229085452
3203 3219 34.9125011553934
3203 11039 92.33822139243532
3204 3205 84.06250285046735
3205 3206 84.5527169819022
3206 3207 92.4835132705694
3207 3208 81.56276484036043
3208 3209 79.43806408420562
3209 3210 78.33495879323472
3210 3211 18.438895401062005
3211 3212 80.02848638879982
3212 3213 81.6067446910909
3213 3214 80.81507958566479
3214 3215 149.91502963988432
3214 11042 76.4470798561642
3215 3216 138.09284065738018
3215 5408 76.6439745217259
3216 3217 242.68392925290155
3216 4379 75.92957933934085
3217 3218 124.66401533342936
3217 11043 76.71699046278799
3218 11043 172.99750568439154
3219 3220 78.5824907396229
3219 11644 46.40249286276048
3220 3221 77.41227758314872
3220 9291 68.42300912751158
3221 3222 78.37145407924136
3222 3223 76.1411747539937
3222 11257 68.822015813045
3223 3224 77.34240881234642
3224 3225 76.21136814410623
3224 11645 69.18361574470697
3225 11671 330.388806049284
3226 3227 77.05548231419654
3226 12101 139.32679639228593
3226 12102 370.1805869620177
3227 3228 75.83136565667282
3227 13940 380.95846982828465
3227 16333 138.99865204381427
3228 3229 75.98744055360122
3228 10641 139.7201882387339
3228 10642 127.78085330209625
3229 10654 159.71118695690504
3229 13320 138.66721744965614
3230 3231 155.86783960581369
3230 12988 67.90376806560535
3231 11045 76.09807826682228
3232 3233 201.1025593424196
3232 10774 76.94735358154693
3233 11046 76.75472304204897
3234 3235 196.6045114500581
3234 8039 47.369105665654935
3235 12562 47.691587860829685
3235 19768 313.66468033942095
3236 3237 2453.189677391793
3236 7293 416.57623936731386
3236 15036 596.3162009603969
3237 10745 1153.4948950140777
3237 14463 39.18761844665139
3237 15009 378.96288444151014
3238 3535 220.43451725443092
3238 6165 57.66749014649856
3239 3240 191.62773972976765
3239 3454 79.83880278820115
3239 8764 161.4474183102303
3241 7438 128.48627822641353
3241 15806 35.03298875337085
3241 17762 48.260025826548976
3242 3243 138.33188218202486
3242 9812 85.36560676904173
3242 9813 80.1158478423286
3242 19591 240.06388519310585
3243 3244 66.31010509375662
3243 10060 78.79476965777822
3244 3245 202.65481954376747
3244 8648 85.44782360070506
3245 3246 170.9081849098332
3245 9614 85.3525343089137
3245 9615 96.37993653583887
3246 11225 96.08323781379471
3246 13775 103.43936384145368
3247 3248 83.96441437009594
3247 13543 91.45364627795087
3248 3249 82.46072191384937
3248 7019 244.26706654350883
3249 9329 160.7497800134331
3249 19664 61.56835184104961
3250 6883 54.1178379094809
3250 19662 7.665169712429594
3250 19663 20.97622361091833
3250 19664 22.984935161891066
3251 12607 204.17084020596138
3251 17579 77.97195002377204
3251 18373 80.58346189345644
3252 3253 284.43560335922064
3252 7761 99.28788753265115
3252 12215 310.45327739671893
3252 16128 67.59045040798695
3253 3254 44.74447816707838
3253 16854 151.69654631223895
3254 3255 88.64800482135107
3254 12214 214.77009808255653
3255 3256 60.04325888178002
3255 14521 196.64597153946139
3256 9320 298.5488306120412
3256 12214 106.00368539388668
3257 5072 92.75579799852585
3257 11446 190.0649252946052
3258 4672 95.38571443462199
3258 5073 273.6938922064372
3259 3260 139.43308770934323
3259 11050 110.21552324703174
3260 3261 225.02117750513992
3262 4029 350.1294244093083
3262 14530 185.02652543291921
3262 16710 554.8726698507376
3263 3265 58.725133423816125
3263 4153 88.7450853967687
3266 8792 42.92129433486661
3267 8793 42.17332509240831
3268 8794 42.67093310162276
3269 3270 101.00444023213768
3269 10584 90.34629147161365
3269 15389 65.09542148640594
3270 14622 168.30365192136836
3271 17041 110.93983042545266
3272 3757 78.74602885206737
3273 3274 31.28003515261545
3274 3275 52.63915034667177
3274 3303 213.4239412285386
3275 3302 55.18134885514446
3275 11694 107.40016385464311
3277 3278 74.413175508228
3278 13310 42.990025519365545
3278 13311 77.2394303852688
3279 4580 85.79060005253208
3279 12111 62.17062945667472
3280 6497 751.7713677099936
3280 6498 674.4221946667402
3281 3282 37.805514784321026
3281 15307 122.89347387792404
3281 19507 97.26129985718374
3282 3283 39.02870353903504
3282 17624 81.31258245201695
3283 3284 95.34718649793291
3283 14293 122.75024929146946
3284 3285 200.86449819351014
3284 15282 82.80706126431744
3284 15906 123.94917548730707
3285 11931 76.12542864086794
3285 11932 131.13418782836885
3285 18500 170.9366739575126
3286 5715 140.1615012454776
3286 14773 78.89025572727076
3286 18501 72.33213997832777
3286 18510 135.92487592376912
3287 3288 145.4917348729338
3287 5378 100.29739243838355
3287 13272 199.81270453172928
3288 3289 303.3536724975338
3288 13936 69.12555094532061
3289 5372 96.58723938790203
3289 18235 74.43305732174068
3290 5380 92.87733290346993
3290 10541 93.93191465597506
3291 3292 47.94270750017117
3291 5375 94.11747188063669
3291 7188 161.083003355902
3292 3293 231.7309850398136
3292 10544 324.0586578493887
3293 3294 33.606641212693354
3293 8167 170.05407720939155
3294 3295 39.60732898322496
3294 10544 93.98831455638125
3295 3296 106.02155787794268
3295 6892 252.0343333763414
3295 7560 229.77189241856337
3296 3297 86.955810670034
3296 10087 58.84889677097467
3297 3298 61.00211352139115
3297 5374 85.63070758017153
3298 3299 42.84090287328575
3298 10540 74.71441402408422
3299 4741 120.57259665366924
3299 9963 200.87884962019749
3300 3301 80.93601886931265
3300 8166 354.2998644750093
3300 12035 226.3386769884997
3301 6889 463.1552040781968
3301 15914 283.6881331556822
3302 3303 98.180813429806
3302 11693 111.25625516171857
3303 3304 43.043121195460316
3303 10139 94.30394837504468
3304 8351 164.06676125724374
3304 18945 36.14110847835769
3305 3306 173.1510330983952
3305 8929 134.36932884577757
3305 17425 526.3392776876996
3306 8929 192.962131778365
3306 18455 18.144617992863278
3307 3308 83.14564634861146
3307 13258 68.88558959138854
3307 13259 40.93182120819558
3308 3309 157.68147167479458
3308 12410 75.82786320484074
3308 12411 69.67269772178466
3309 3310 155.1560820412979
3309 8528 76.00913335143903
3309 8529 71.31117405539237
3310 13142 72.68348634039815
3310 19919 67.8530006203912
3311 18068 438.69003002095224
3312 6419 50.91005123211613
3312 6420 77.43266959187793
3312 18069 13.84464497027671
3313 12170 406.2455692191518
3314 3337 79.15236136703598
3314 10867 78.83918438155065
3315 3316 62.88571097989484
3316 16905 78.651210195258
3316 16909 47.89358169123984
3316 17744 63.414040095203404
3317 3318 49.25680369937263
3318 13662 223.94483326782301
3318 16186 291.89084146041097
3319 3320 59.524749156702185
3320 12054 133.7694772969097
3320 19853 269.3214233827114
3321 3322 153.93603394268428
3321 12904 49.22612573779432
3321 13918 76.56912658476116
3322 3323 147.50455508544974
3322 4129 76.50298599909463
3322 4130 208.79317469642456
3323 3324 138.73706642227094
3323 5400 76.6258196576773
3323 5401 53.940740181005424
3324 3327 20.69340654860089
3324 12893 54.32992014271302
3325 3326 90.61671935822727
3325 6526 128.86830313786467
3325 6527 85.85077530850015
3326 3332 42.395747237986036
3326 7098 218.30360372906893
3327 3328 97.88931996125606
3327 14670 55.69761961788642
3328 3329 88.5736242889158
3328 4341 75.72893343432828
3328 4342 76.32185355157799
3329 3330 91.97880499700506
3329 12908 76.18722933349784
3330 12279 75.55706308594617
3330 12280 76.0142152450856
3335 15331 77.40526814910784
3336 3619 73.22811200218362
3336 18083 30.36833452002433
3336 19679 192.0677634973248
3337 15177 79.6222938245158
3339 3340 452.1979036920329
3339 16063 1029.2102152494263
3340 19203 826.7466625591967
3341 3342 721.6697199404348
3341 19006 932.8740513335592
3342 3343 58.988128625370706
3342 19006 18.256831093901855
3343 19006 66.28010159247194
3345 3346 123.43020607371515
3345 7609 384.0445431651936
3345 10268 54.19269609688361
3346 7200 297.1572744116442
3346 7201 32.43236254285982
3347 3348 170.22361363421234
3347 7599 199.98456953381645
3348 3349 60.54854225555106
3348 14879 194.08110985266816
3349 3350 225.71822226668897
3349 17518 321.83236161971445
3350 3353 59.81424624799513
3350 18617 76.14090143173536
3351 5437 69.90619867148953
3351 10600 121.3315605889262
3351 12039 247.50908012547083
3352 3978 67.01007318588887
3353 3354 86.89919396836127
3353 10602 47.13814566220758
3354 3355 97.41960266613368
3354 16393 34.87245612004305
3355 3356 97.20544333113622
3355 16794 35.58414776891235
3356 3357 166.75530522020685
3356 9938 35.735926927574845
3357 7344 160.70938331815395
3357 7602 174.18413694113377
3358 4683 27.145287553202785
3358 17555 15.005586328728622
3358 18569 32.457283426308834
3359 14148 13.38468475112866
3359 18296 33.25307205244118
3359 19859 23.16675335925287
3360 3361 41.94940209199309
3361 3362 83.47242101981584
3361 3390 79.77411583431955
3361 3695 83.88660678858783
3362 3391 78.89347000978947
3362 19475 153.88070154446086
3362 19476 64.25413561364375
3363 3694 79.10106689763323
3363 17803 58.724172769475054
3363 19118 79.23974009506892
3364 3365 78.59580438809282
3364 3403 119.14185666982054
3364 3723 88.18066177286755
3365 3366 79.50144328782893
3365 3404 118.83755366511916
3365 9750 111.18303990642588
3366 3405 118.94631163726295
3366 15331 70.64121747575292
3367 3411 63.899887425544826
3367 3618 69.81495334297827
3368 3369 30.879816305378412
3368 3619 97.99341677768354
3370 14760 153.4166089993962
3371 3372 100.7058094664308
3371 14644 62.840904983423926
3371 16412 80.09516147193199
3373 3374 162.07747212603337
3373 4604 112.35248435096399
3373 4605 103.49249512409632
3374 3629 47.39439124134094
3374 13306 141.27237584056883
3375 3376 238.94299830335126
3375 5433 122.03862691507814
3375 18155 225.17697650502737
3376 3377 166.15301170197475
3376 9235 76.1664778890029
3376 16491 60.44874343577642
3377 9239 23.7927780446021
3377 14747 49.673569118802874
3378 3379 167.82536787267026
3378 4438 44.85470300899634
3379 3380 95.4515655822195
3379 6209 251.84687926499174
3381 3382 319.51284240512956
3382 3383 63.92604742811443
3382 13115 129.1966612212744
3383 3384 384.2500336652717
3383 14078 135.32201680139343
3384 4487 206.2136763482696
3384 4488 211.91309721976384
3384 6363 130.81663198287512
3386 19658 351.9958140190738
3387 3388 47.407535568169926
3389 3390 40.113122766627754
3390 3391 83.97249904422435
3390 14422 78.72563104293182
3391 15024 78.9842678208154
3391 19474 153.255438560457
3392 3393 50.555627382358715
3392 15597 158.18336837937167
3392 19474 14.735680014378305
3394 13886 520.0194893999925
3394 17801 247.94249634215586
3394 18063 120.93558322230831
3394 18901 21.057290661340225
3394 20115 19.217247824587247
3395 3396 26.24547961855982
3396 6596 79.97887452891518
3396 19232 70.28673603357085
3397 3398 77.60881460525376
3397 3734 156.22228312480217
3397 14651 20.041337303965328
3398 3399 82.481154354782
3398 3735 155.21657034708397
3399 3400 81.19979987732563
3399 3736 160.1923412480038
3399 15134 174.2389690015008
3400 3401 80.18198229518568
3400 11214 326.06483925582035
3400 15134 116.7692863644572
3401 3402 77.8684990370961
3401 3738 176.91716670319204
3401 12845 150.59316780297996
3402 3403 82.07678769643215
3402 14209 185.34394442012274
3402 19698 37.765929905216865
3403 3404 77.89373180422234
3403 3722 115.80618416077118
3404 3405 79.26800312233257
3404 3739 178.3592078162236
3405 11537 32.74626365840292
3406 3407 119.35059408778434
3407 3408 159.10644370553854
3407 14846 167.19347260938267
3408 3409 186.74446030142335
3408 7288 84.33049197066356
3409 12867 84.16384081421549
3409 18794 73.25412530530667
3410 18794 15.60710692530411
3410 19843 36.046089433276194
3411 11538 76.20470724585294
3411 18548 39.76535870281073
3412 3458 146.5201227103266
3413 3414 77.89284519537992
3413 6507 79.29338311548699
3414 3415 80.23586083792954
3414 14665 78.1664156418305
3415 3416 79.29135207655511
3415 4327 79.86892590044836
3415 17272 77.90464777949717
3416 3417 78.6648601995295
3416 15724 80.9846524656771
3417 3418 80.08979864353279
3417 6944 80.2874562701762
3418 3419 77.43634723134495
3418 15015 80.06068919151905
3418 17241 79.1434406975679
3419 3420 158.16158995507124
3419 6198 80.1378650353137
3420 3421 157.69527318858263
3420 13967 78.50778394552722
3421 3422 158.04469292062902
3421 13285 79.06585633652047
3422 3423 157.95152758728904
3422 16243 78.63551278068532
3423 3424 158.5373592067257
3423 9771 78.57167803277666
3424 3425 154.8948495358077
3424 14720 78.23265734275354
3425 18919 78.54157399358182
3425 18924 149.69854147137735
3426 3621 229.8460384355906
3426 18921 149.67721855114146
3428 3429 97.06875594657714
3429 6879 122.85711177345942
3430 3431 157.35023227804868
3431 3432 59.10221746344577
3431 15064 123.81327904047438
3432 3433 165.4825257034706
3433 3434 101.83727624076539
3433 15496 127.43967343655693
3434 3435 96.11893014624933
3434 12189 49.25315113268553
3435 8002 151.7582594113323
3435 17535 102.3078786422227
3436 3437 101.77596517386293
3436 3449 27.456652097035814
3436 13222 50.987626440389086
3437 3438 100.44224930000483
3437 4081 89.58675502328347
3437 4082 92.37060260119122
3439 3440 126.6243083969198
3439 12121 278.3047469489447
3439 14570 474.12792102501476
3439 16071 140.77571124455568
3441 4275 132.39719180612047
3441 9527 134.26658786752415
3443 3444 81.6443562333161
3443 4755 277.3883580155269
3443 12993 63.72979636234663
3444 13999 131.70412895856578
3444 14000 127.97469300937907
3445 3446 161.67961636123675
3445 4266 135.51717937361462
3445 11709 284.4248983527074
3447 7915 78.36295237903225
3447 18640 50.43878924807191
3447 19218 20.1149233900752
3448 13221 78.93065916974062
3448 13797 65.87611981383888
3448 18639 27.340363476183327
3449 13357 75.84094044355055
3450 3451 113.17429357894082
3451 4265 107.89476140234592
3451 6657 334.548493948082
3452 3453 61.49812510288714
3452 6953 81.52797585544934
3452 6954 243.67994377614085
3454 13728 136.65576540168243
3455 3456 205.77782754591354
3455 8761 35.26970813409428
3455 14621 128.9211705948631
3456 8108 226.64924721862724
3456 8763 100.30316682840034
3457 17793 143.04478511705912
3457 18435 46.23521117414965
3458 17050 55.02396618126917
3459 3460 81.45352574817919
3459 11937 158.28586042009027
3459 15882 226.71867655345272
3460 3461 79.81273101934364
3460 9758 206.40912292234805
3460 9759 129.61349307746724
3461 3462 148.01565002021619
3461 16449 91.47086611430257
3461 19645 94.42782709618874
3462 3463 140.7173862074974
3462 16679 82.26748847524415
3462 19569 82.6396078101262
3463 11938 83.02107561137804
3463 15735 81.50879728438318
3464 3465 103.03340031377537
3464 9661 81.93539520168048
3464 9662 82.28470649788075
3465 3466 149.15746130879222
3465 8838 82.6964160629612
3465 8839 82.43061010552627
3466 3467 153.87215624080994
3466 5941 82.20327729177036
3466 5942 82.14074672796494
3467 3468 141.84045744169302
3467 11939 82.03862025683489
3467 15991 82.35806085434105
3468 3469 133.8344189429221
3468 11941 82.34699759997869
3468 13878 81.88480407092646
3469 7445 81.76939598253556
3469 7446 82.47814592921729
3469 17764 134.124296739673
3470 3471 204.06526687061336
3470 11943 83.4458004784816
3470 16744 83.22788370052662
3470 17764 194.3467778571605
3471 3472 12.610063141533825
3471 11944 83.38207253650089
3471 16695 83.20177028266393
3472 3473 204.0658175649262
3472 11945 83.2740611883054
3472 16696 83.34165766461125
3473 3474 193.80281513178355
3473 10194 83.13672630386057
3473 19164 81.32642911544043
3474 11946 83.25951595434722
3474 14976 83.67914629335993
3475 3476 126.3621345374706
3475 11932 67.08903644043448
3475 15605 66.62173304327233
3476 11933 66.90143454772712
3476 12014 66.76070912300206
3476 17779 215.31850067600078
3477 3478 183.4385957425308
3477 11935 79.29520296400867
3477 15487 79.10828204579083
3477 19080 177.54598576870563
3478 3479 159.96528459773313
3478 11347 79.13665327320219
3478 11348 78.92349785166475
3479 3480 170.43297295285075
3479 3956 79.14335262536973
3479 17617 78.78397509947878
3480 11936 78.8934615400489
3480 15695 79.14034707530908
3481 6034 97.35759307894337
3481 13497 413.97084102030936
3482 3515 156.2868404435337
3482 12815 79.64547485513788
3482 18154 413.65934324749185
3483 3484 343.9416730579912
3483 3507 256.88526474133545
3483 18156 70.42291566889662
3484 3485 105.92452173086832
3484 3508 262.18332974456865
3484 4436 373.7696236786769
3485 3486 217.68968966592672
3485 13821 83.0303975211517
3486 12048 84.59348166626303
3487 3488 119.51607610782571
3487 10401 133.20213394523495
3487 12817 326.56976426105314
3487 17485 137.91618117065056
3488 13810 133.4463675105033
3489 14446 353.19878337138425
3489 18367 481.5308068778833
3489 19621 121.26175957435319
3490 8680 97.74390027605291
3490 13707 140.130312497404
3490 18445 27.410333505445386
3491 3492 116.2615388998776
3491 6475 64.05522488399846
3491 7146 134.99713243391685
3492 3493 117.5774437566131
3492 13329 71.77866504645638
3492 16175 100.84858949650675
3493 6476 65.86936095562345
3493 11266 134.71662558505298
3494 9210 185.57310283460887
3494 12516 47.13643012725845
3495 3496 81.12394873456297
3495 5020 101.04082541721144
3495 5021 84.87323372933963
3496 5020 80.01901075262575
3496 6033 162.9069175045062
3497 3498 138.75514329542133
3497 17370 77.64830492399211
3498 12823 147.4991195374618
3499 3500 91.78240454283379
3499 12816 102.53381892979237
3499 19067 296.08394873425345
3500 12817 103.94875842326391
3500 19650 98.2882347842478
3501 3502 116.8002052902283
3501 19650 8.662128589467745
3501 19651 29.557819298776526
3501 19652 33.26257243639029
3502 12818 102.38629058046776
3502 18563 79.69773550933381
3503 3504 259.5693646161186
3503 16757 196.01304017534514
3504 3505 29.237579147755635
3504 5132 105.53696205957847
3505 3506 75.57332113833172
3507 3508 339.2454127934023
3507 6363 457.70962375434
3508 3509 30.538820641989673
3509 3510 84.85089562110528
3510 3511 79.61302732623572
3510 13821 231.71756969482442
3511 3512 83.49160529734597
3511 6255 69.29856150950395
3512 3513 79.1385389937053
3512 13673 68.95880778517467
3514 3515 78.68214240005926
3514 8969 147.08224230551954
3514 12815 155.01256865320514
3515 8970 145.67321572024167
3516 3517 121.03113955232621
3516 5139 49.48181225698766
3518 18287 359.2115694806237
3519 3520 97.70772044477982
3519 13323 65.29507287356641
3519 14809 143.1223709952512
3520 3530 17.18115416942354
3520 13324 62.2711628327998
3521 9542 99.09378908459396
3521 9543 76.42177464552944
3521 13970 242.35449170713915
3522 3523 100.0203683997023
3522 3529 23.769599463425784
3522 19975 3.1139478297702934
3523 3524 125.0963019910364
3523 10072 50.90840874053093
3523 10073 78.47647926872062
3524 12519 50.43424619217673
3524 12520 78.55394515782952
3525 3526 136.8700925220046
3525 12582 87.63910469156177
3526 5911 87.90200191221331
3527 3528 137.49272125694344
3527 13208 51.806984768483794
3527 13209 87.96757326277714
3528 3529 140.80748089675
3528 10946 52.46780050679184
3528 10947 87.85741990665285
3529 9805 55.882696281909794
3530 3531 200.8698368572513
3530 14809 48.04822202559171
3531 13325 79.23161819852216
3531 14810 59.949224971748485
3532 5720 150.4741018901096
3532 18041 22.468636338450906
3532 19483 177.77295042084856
3533 3534 222.64910656151005
3533 8051 67.39328652682559
3533 18041 137.40223801263198
3534 3536 301.787332074891
3534 15408 161.1672416552518
3536 3537 163.2395731213189
3536 18383 14.646927969738847
3537 3538 82.06393764439878
3537 8144 120.78108350202376
3537 10128 121.08525203199936
3538 13322 81.03628638870532
3539 3540 74.43890248145055
3539 3875 37.368867158090985
3539 3876 67.2602989429665
3540 3541 441.7742431336409
3540 3876 46.21669653932529
3541 3542 9.642006817371188
3541 6712 102.93308563440876
3542 15854 45.993854753650915
3542 17366 39.118444453919366
3543 3544 432.7179690771182
3543 10885 271.24565670313154
3543 17366 39.41018782010308
3544 15264 136.80854277428335
3544 15508 176.3774904801873
3545 3546 43.806397379587956
3545 9015 107.45527656928442
3545 15508 40.38153221962442
3545 15509 40.10490142781003
3545 17880 14.394349998018754
3546 3547 221.68204619346014
3546 15509 27.449919204532776
3546 17880 37.01736341733332
3547 15315 126.36810354815839
3547 18951 152.41047630532574
3548 3549 253.377763283146
3548 7089 234.43317534790086
3548 17921 136.33203274674284
3549 3550 180.84348348446608
3549 12119 346.38840548502264
3550 3551 420.8405915363778
3550 14566 309.8870578748247
3551 3552 502.0336885273539
3551 18419 26.297704373354033
3551 19266 73.01823887526984
3552 3553 252.88756435610546
3552 15828 58.87301962721081
3552 17527 175.74457282243745
3553 3554 137.02043841374075
3553 14907 62.76982270610195
3554 3555 35.10978886540431
3555 3556 206.87075647174382
3555 11372 477.904192329929
3556 3557 77.86987486281117
3556 5742 97.37639271752217
3556 17539 56.22058680905904
3558 3559 37.911573861165735
3559 10453 386.88756117327137
3559 15314 165.43825254403603
3560 3561 140.43218163792304
3560 12871 79.01301492129937
3560 16890 79.12114783890598
3561 3562 140.08653494950886
3561 12604 79.08102984681292
3561 16898 77.51589189180498
3562 12872 79.23600808760938
3562 16919 75.49549395704739
3562 16927 105.87071769158118
3563 3614 19.937284606612494
3563 17711 142.21213009893162
3563 17721 76.14644178220901
3564 3585 17.691524190412242
3564 14262 75.49394985734503
3564 17711 185.27078905014255
3565 3566 142.8766421782638
3565 7516 76.96997284754585
3565 14173 42.143319030467566
3566 7517 76.94728677400954
3566 11834 83.57489701784995
3566 18557 118.29179139921129
3567 18556 12.220541054864459
3567 18558 14.722262099208422
3567 18935 10.068755762017195
3567 19842 22.117564617832954
3568 3569 162.36218682098257
3568 7487 78.20350922577884
3568 15121 81.21479709142574
3569 3570 153.60918066244145
3569 5416 77.71435698075369
3569 17708 76.19535115759278
3570 4353 77.83661480616878
3570 4354 80.60930200003301
3571 3598 44.00129974161007
3571 8045 75.53829877610431
3572 4186 201.73115595600188
3572 12919 201.70844295592548
3573 3574 60.71734571292541
3573 17286 78.33210043082937
3574 3575 412.7958839664127
3574 13343 102.97210051710826
3575 3576 66.97519956486103
3575 14407 63.42008211613333
3576 3577 22.127892880118488
3576 3748 80.09150121568072
3577 3578 68.81442577466545
3577 16396 171.30594626899108
3578 4188 268.61861201522004
3578 6520 84.6890407912694
3578 13384 46.239841340354545
3579 3580 121.19019616654103
3579 7497 75.98642931911192
3579 13993 76.71032708859816
3580 3813 76.4261124910892
3580 3814 76.33516623902887
3581 3582 26.143872123816788
3582 3583 87.57432033792857
3582 20137 41.20990721800957
3583 3584 83.2631572528786
3583 10895 218.64167770938246
3584 3601 21.107087673337514
3584 4215 132.63247565359532
3585 3586 81.10476149292738
3585 7510 59.49064757285706
3586 3587 79.72573445399648
3586 5158 195.32567086673555
3586 5159 206.81778939142916
3587 3588 80.38096474170806
3587 7842 195.06609205091846
3587 12097 207.10523414014756
3588 3589 80.82463562867756
3588 7843 194.87612888599548
3588 15449 207.10852459405206
3589 7844 194.94776444451247
3589 10640 207.05750113058082
3589 17718 80.48440793370742
3590 3591 79.55221536515783
3590 7846 203.62047088260726
3590 17718 81.81407062893578
3591 3592 80.24580545675687
3591 7847 202.91577411834066
3592 3593 79.24968606438783
3592 7848 202.87543271585565
3592 7893 78.85176981941773
3593 3594 81.89142509422669
3593 5853 202.8977485755708
3594 7849 202.4005717250219
3594 12458 79.15737878498112
3595 8603 399.89583323868214
3595 19121 283.2695417524461
3596 3597 170.11920978574955
3596 7653 377.42452153814827
3596 7654 398.53263428379245
3597 3598 124.94082399535263
3597 6632 337.4348719163486
3597 19376 213.8399037421109
3598 7504 31.966409898070523
3599 3600 86.05403550082076
3599 7506 71.32146760297846
3599 9064 60.42470153483457
3601 12921 184.08581313759527
3602 12922 161.45593894997714
3602 13059 174.58695071621048
3603 3604 74.75208056686743
3603 6863 285.0405579438488
3603 14826 397.94527119847214
3604 3605 80.58053961332197
3604 4193 109.96689040829682
3604 4962 114.48234182477272
3605 4194 109.94588203229432
3605 20084 8.855106264341087
3606 3607 110.28042319478467
3606 4195 110.81324486344661
3606 9470 108.43513749488667
3606 20084 78.48857543564843
3607 3608 30.71441466160414
3607 4196 111.00254369812967
3607 14353 112.04562233783221
3608 3609 79.36489928489429
3608 4202 157.2480615968834
3609 3610 79.38824732983713
3609 4203 156.00689304017382
3609 15457 140.85468755707853
3610 3611 78.78809040225724
3610 10223 140.55684358315332
3611 3612 60.681161449020905
3611 4205 154.23027542380257
3611 15458 140.90752828694409
3612 7876 226.26546805110888
3612 9279 140.93180596733825
3612 19185 18.940958342321345
3613 4228 305.6091957769053
3613 6519 72.13607815920241
3613 6520 75.95108210626634
3614 7509 56.865200005688905
3614 18558 140.53609265228786
3615 7491 99.16248608908685
3615 14657 99.97994870572178
3616 3617 196.01691994747443
3616 7493 100.76344335295055
3616 13157 100.4538128347558
3618 3619 147.0890061878426
3618 19679 71.84242681856531
3620 3621 26.144011087311295
3621 18920 74.38001270305541
3622 13296 154.39011006791
3622 13858 155.3183771516007
3622 19909 62.225019561781224
3623 9335 156.66052427928747
3623 9336 153.96136023305297
3623 18059 13.357312810459465
3623 19909 18.17656600963039
3624 3625 239.02781135586898
3624 6754 155.32555374027245
3625 9740 164.16081452177053
3625 9741 166.64505612623174
3626 3627 101.93086151192534
3626 13314 214.69333511532835
3626 14858 35.21463981416398
3627 9929 197.07354109698483
3627 9930 33.08090307583311
3628 4604 161.39094144586002
3630 3631 167.37447814508076
3630 5973 78.59040947274244
3630 5974 79.74286361206664
3631 8724 79.54421884472838
3631 8725 78.2273961249754
3632 10693 177.28485668454653
3632 15267 60.14205638573536
3632 16579 66.35868628612153
3634 3635 85.03073400293779
3635 14082 101.26541474217537
3635 16003 26.180218429369507
3636 3637 78.68254592849554
3636 8521 79.02634638679889
3636 13132 80.3940455328802
3637 3638 78.8773232067472
3637 11263 80.2285255671285
3638 3639 74.32980850978188
3638 8522 79.07280062224243
3638 13133 77.96581369652725
3639 3640 83.994708021803
3639 13134 77.48133029903852
3639 16000 48.81595768905236
3640 3641 155.60739925050962
3640 8523 78.99314122965873
3640 13135 77.48687578656768
3641 8524 79.65377722157301
3641 13136 76.63765035535347
3642 3643 211.5021344063965
3642 8438 61.69150522570207
3642 8508 78.73785550063637
3642 18327 235.22639542945058
3643 8439 62.00237917424429
3643 8509 110.73918415458576
3644 3645 199.2090788097991
3644 8500 74.95676802668368
3644 10849 79.19787913611407
3645 8501 76.17975944603462
3645 12745 77.99260809615869
3646 3647 76.97560757762294
3646 11918 186.16283672239686
3647 4509 157.76383409683658
3647 4510 107.15492555909653
3648 3649 107.42787129229022
3648 8503 73.50714481988436
3648 13114 80.5418111553903
3649 3650 102.57089588313346
3649 8504 72.8881966058722
3649 12815 78.93357846863611
3651 3652 112.7516637794868
3651 6050 49.81590988031648
3651 6051 75.09004003863515
3652 8502 71.53183823155175
3652 12527 74.92561451031385
3653 3654 80.35777898166626
3653 11896 158.8222925976022
3653 13126 78.90410926265305
3653 17229 63.97391263483263
3654 8510 80.07412856466134
3654 12245 80.5274985912269
3654 19174 52.676919865899755
3655 3656 81.15972374731491
3655 8511 80.38503071098226
3655 13097 79.27483319019179
3655 19174 23.74079885674648
3656 3657 79.64031103903154
3656 8512 79.89437461969662
3656 8883 79.28281072065712
3657 3658 79.58661843483804
3657 13127 79.66186937198285
3657 19462 79.5379311538846
3658 3659 79.07215105464519
3658 6844 79.66360397360408
3658 20008 61.424473172054064
3659 3660 38.11466854552607
3659 8513 79.86130184004128
3659 19238 51.14790536031212
3660 3661 41.05882510860201
3660 19238 50.82722681587087
3660 19400 23.29107741056127
3661 3662 77.8250579109147
3661 4940 79.63934207631091
3661 19166 61.68388918978148
3662 3663 79.25863352234767
3662 8514 78.97534638858941
3662 13128 79.63873313232875
3663 8515 78.99363499600614
3663 9447 79.99375927174397
3664 3665 78.68917148147843
3664 8516 79.98329351473929
3664 13129 79.67350904649142
3665 3666 79.3940004900448
3665 8517 79.39354189339707
3665 11444 79.93853487061058
3666 13130 79.24965770632055
3666 19407 72.61375530954992
3666 19413 72.92286128059976
3667 8519 79.1941748862665
3667 13131 78.93852238208073
3667 19409 71.75548023258663
3668 3702 81.03282187616635
3668 8787 141.38719874057134
3668 11913 143.51126997148071
3669 3670 67.93178678000038
3669 8527 77.7312707196372
3669 13139 77.62800164508398
3671 4691 62.425697886389415
3671 4692 77.64888857290994
3671 19678 92.2571403434201
3672 19678 140.29655442672856
3673 8542 76.29160474410016
3673 13151 78.56008660771415
3674 3675 76.36969391431344
3674 9196 89.54108965705373
3674 16126 144.45856466519442
3675 3676 106.35097538041263
3675 5289 31.955103269349273
3675 17110 53.799727599369916
3676 5819 99.63462174974124
3677 3678 11.98036128100794
3677 7144 121.8361037610482
3677 14454 29.8746202245832
3678 3679 32.960009949989285
3678 17082 31.04462538546001
3679 3680 22.165017324915894
3679 17082 28.700621084525327
3680 3681 37.74636158186259
3680 4735 92.84312316097751
3681 3682 28.40052745339058
3681 14457 201.04475990323505
3682 16442 13.144883568961015
3683 19227 21.57744739670175
3683 19228 20.199481906459006
3683 19229 6.829158800722287
3684 3685 47.85457424689734
3684 15960 75.10541038221265
3684 19229 84.28486176317006
3685 3686 59.69718809634869
3685 5385 121.28118133743432
3686 5385 396.1205901252987
3687 13226 84.69402501718318
3687 19605 19.67443913979148
3688 5965 79.75488125825325
3688 5966 78.46795108917985
3689 16249 107.95903902550315
3689 16982 31.737078345971327
3689 17970 111.74955455590556
3690 7619 110.72164522565996
3690 13642 124.21467849959289
3690 18255 151.14533325758214
3690 18827 97.38588042704204
3691 14072 83.81484132829115
3692 3693 50.38925002357103
3693 3694 83.59993678422494
3693 3831 131.20731103013242
3693 20087 77.95669859039153
3694 3831 80.90642343375914
3695 17804 40.811815886744476
3695 18045 48.31542051664776
3695 19225 33.57132910745294
3695 20145 6.602631554377195
3696 17161 56.13882287074867
3696 19476 14.009487019243707
3696 20145 78.89591629281274
3697 11293 108.30347135080095
3697 17161 57.75342501500467
3697 17316 53.88080602394598
3698 3699 192.25766026604555
3698 3702 130.02122345698922
3698 4911 198.42481762104882
3699 3700 34.17223068367731
3699 16731 18.049161195420204
3700 3701 155.00884030919465
3700 16731 41.15370997492363
3701 4914 155.33895909893351
3701 13104 142.9525317007692
3702 8787 65.14024061934268
3702 13153 46.72941658888577
3703 3704 110.86768389073647
3703 13008 190.66613240733403
3704 3705 83.89007365870238
3704 8232 181.02180695432128
3705 3706 152.7545267747498
3705 4493 106.06276903182611
3706 3707 53.8166664040268
3706 4493 112.44485441996451
3707 3708 78.19228462053235
3707 18963 117.60007470779537
3708 3709 158.81286903940494
3708 14193 121.44873523192703
3708 14194 157.55466450482692
3709 3710 271.70184663549844
3709 4739 50.16659044890782
3710 12309 40.84393938672548
3711 3712 172.80095975090055
3711 5050 76.9241081217721
3711 13809 92.40982858100391
3712 8320 78.09304219083202
3712 17480 82.66471925892439
3713 3714 73.89260236955494
3713 8771 92.03284760297001
3713 8772 116.56881283859252
3714 3715 65.54504311631794
3714 6797 320.8468805728711
3716 3717 142.73796637475343
3716 5235 137.95556854627876
3716 9753 45.07948885735779
3717 3718 159.06242866628935
3717 8304 79.62383734186805
3717 8305 78.90791694289682
3718 3719 157.95027724080063
3718 5059 79.27819908419735
3718 5060 78.85188840885291
3719 3720 154.34576905879902
3719 9748 79.20145192541737
3719 14208 79.3598012350822
3720 3721 149.50092968599128
3720 9749 78.29533749360871
3720 11216 79.69581483578285
3721 3722 62.71835357048536
3721 3739 76.26490578927944
3722 3745 84.7738854670566
3723 11828 30.891135380650624
3723 14209 82.53438651264538
3724 3725 143.139982755437
3725 3726 135.05107147331907
3725 4573 80.03847797431301
3726 4574 79.50482893111183
3727 3728 249.82016521140238
3727 4576 112.23203431634948
3727 12388 91.01057647436176
3728 11498 56.79577847235884
3729 3730 84.34745701635786
3729 11647 258.9953826448356
3729 13226 334.79772402853894
3730 3731 238.37630813459427
3730 13450 384.1145315947143
3731 3732 455.54163717186884
3731 9180 216.56438072319978
3732 3733 356.2953931375006
3732 6045 134.02668993257123
3733 5149 87.37948498520747
3733 10733 344.5757992414773
3734 3735 78.463599624218
3734 11212 154.15936909452873
3734 15180 161.56162150562346
3735 3736 78.74641494817102
3735 11213 155.7258075753415
3736 10168 157.26515266790057
3737 3738 74.73152988686763
3737 3745 63.25533961657356
3737 14205 60.42520946042534
3738 11215 149.48262464520334
3739 3740 79.23901389194523
3739 9749 149.59495289731098
3740 3741 159.12135111884172
3740 11067 72.60125956609716
3740 15718 73.70613502041323
3741 3742 132.6201023104335
3741 11068 72.43222073591546
3741 15557 74.03934640334818
3742 7766 82.73142499966512
3742 7767 80.84577085995501
3743 3744 75.75859934977194
3744 13377 84.89189411316373
3744 19844 75.5465160175457
3745 14204 68.22277088480142
3746 18436 70.84152512615393
3746 18437 29.952941815892352
3747 14845 81.49160754799435
3747 18436 31.098313300640907
3747 19095 136.63867910770506
3749 3750 176.5112107621488
3750 12072 120.61940837582925
3750 12073 99.4318855619403
3751 13389 86.62746406757705
3751 14409 78.81649245761966
3752 4751 127.9582634711778
3752 13383 141.6692564723445
3752 13470 301.5744088434514
3753 11603 295.1373062254036
3754 3755 54.39996726618686
3754 13792 203.03112972617743
3756 3757 139.62085486713687
3756 12606 79.69127325287408
3757 15385 79.18982926609095
3758 3759 110.48345875067906
3758 3812 51.28733358591718
3758 11989 25.039511292911918
3759 3760 110.19316479300531
3759 5882 79.08077199559241
3759 5883 79.20482408665545
3760 3761 110.3283967438977
3760 5094 80.00921958901125
3760 5095 78.11526438862418
3761 6438 78.80338780324776
3762 3763 79.77137254955579
3762 13442 78.98470912585323
3762 13983 78.90756600200339
3763 3764 78.33758972496051
3763 13443 78.67296483941085
3763 13984 79.67898975249508
3764 13444 78.44029766790752
3764 13985 79.48012849113489
3765 3766 82.04150126153426
3765 9150 78.9727114321164
3765 9151 79.39588635014985
3766 3767 79.7826741070524
3766 12764 78.70847524216556
3766 12765 79.51150887033816
3767 3768 79.09338625231268
3767 13445 79.3797861187139
3767 13986 79.00712539777707
3768 3769 79.19319389957448
3768 13446 79.68246217818661
3768 13987 78.94175018918303
3769 3770 179.7913797353081
3769 13447 78.74820600417017
3770 3776 37.666164829094065
3770 13989 79.88225273705038
3771 3772 70.26042616305863
3771 8386 169.71697200795893
3771 14312 200.13235304374382
3772 3773 108.08263298656698
3772 4512 303.7365057934091
3772 8387 168.30298680975915
3773 3774 75.8135155726466
3773 4513 296.02587260990015
3774 3775 76.06439508295365
3775 20062 72.03246943662991
3776 3777 152.46546461582201
3776 13448 37.492629696744295
3777 3778 76.27140854968165
3777 8933 113.86646195009138
3778 13979 112.8720052006252
3779 3780 78.1368005792992
3779 12347 156.19712980319107
3779 13980 114.17650750672873
3780 3781 119.14025072571243
3780 13449 79.63056477308042
3780 13981 112.60794736004198
3781 3782 95.68959754134862
3781 6588 155.27906642656808
3781 12986 79.35414419357163
3782 14193 519.1617220993245
3782 16011 283.4279986843455
3783 3784 42.13450276631963
3783 13000 113.3671421646791
3784 13008 117.6153905256895
3785 3786 29.212614195114828
3785 8232 213.82697693386135
3786 3787 146.41876489093335
3786 13947 242.93789536446238
3787 3788 51.56311888589529
3787 19979 249.97847093872565
3788 12114 81.47477618198758
3788 12308 461.9783243150914
3789 3790 426.99648760239063
3789 4001 180.47050813754203
3789 13255 89.68774016354136
3790 3791 75.095957694851
3790 13146 91.46036885843264
3790 13147 72.75361700433855
3791 3792 73.09967461372504
3791 8395 129.6766424083578
3792 3793 18.625183042397666
3792 8396 128.8299624076584
3793 3794 55.263965398513726
3793 13421 73.47474740089237
3794 3795 80.06107046655494
3794 4892 128.52727451436743
3795 3796 93.87342748755148
3795 8263 73.20181692486533
3795 8264 72.34386835217582
3796 3797 78.78172376107713
3796 13990 72.59425510965208
3797 3798 80.08321822496278
3797 13756 72.90690209693368
3798 3799 79.38218964632695
3798 11626 72.54155556283902
3798 13435 80.84027227341053
3799 7265 72.92537267568193
3799 7266 80.45905953164115
3800 3801 82.53070358060884
3800 13436 79.87741862866525
3800 13991 73.55021526576054
3801 3802 281.01222164008624
3801 6357 79.00616551825351
3801 6358 79.02954728779908
3802 13437 78.42327918294971
3802 13648 80.76079979090399
3802 17671 84.37079241019316
3803 3804 151.12223697628522
3803 12884 76.22348476416255
3803 12885 75.7777449850181
3803 17671 151.71425953892634
3804 3805 64.50458724623236
3804 13438 75.53275475037927
3804 13992 75.88316632818842
3805 3806 69.47288667112886
3805 8400 143.68222767594344
3806 8401 143.09912114912328
3806 18717 76.44998219388141
3807 3808 79.33770180708096
3807 8402 143.79646199237652
3807 18714 75.34643360981408
3808 8403 144.3297431098781
3809 3810 185.37348200104182
3809 12913 77.60581609786237
3809 12914 75.05689053912593
3810 3811 201.83023541109154
3810 10374 76.04130724958009
3810 10375 75.9165796916282
3811 3812 200.91883812158352
3811 13441 76.25424034592149
3811 13978 76.38674235412884
3812 11990 27.269055375939224
3813 7497 121.00944888091249
3814 13439 76.41899202930088
3814 13976 76.5592805961104
3816 8943 19.215755254928965
3816 11098 263.82874744656823
3817 7977 250.7533404157309
3817 18949 296.5165225918188
3818 3819 121.37730398254382
3818 10618 30.747841742974998
3818 17798 20.781496780614336
3819 3820 85.2011924767383
3819 11499 57.61459864394436
3820 3821 133.96025581463277
3820 7977 225.70581533536796
3821 3822 176.47155273246938
3821 10663 261.3859893495001
3823 3824 97.97118302941522
3823 17417 48.71680720638264
3824 3825 114.20944413535031
3824 19479 105.4970370876058
3825 3826 80.05030261296558
3825 15289 80.16144916154647
3825 17810 320.1125708696763
3826 8053 79.60003185137967
3826 16872 323.7408519431582
3827 3828 144.66888902837076
3827 15284 78.02456797117979
3828 3829 148.55710619364478
3828 10675 77.99053374807585
3829 15285 79.46091302602329
3829 16291 77.25656467329705
3830 4577 78.49503593052367
3830 4578 78.87146255375774
3834 3835 329.881517777257
3834 12026 35.898275336714306
3834 12947 127.35516240402052
3835 11152 92.94234753232931
3835 11153 106.98525846644495
3836 3837 182.74145653038468
3836 9318 207.62255754623965
3836 13457 99.67643065761736
3836 13650 100.9129823498825
3837 3838 304.5438017568029
3837 13458 98.35298870514676
3838 13459 99.60211452378546
3838 19657 71.84371521273133
3839 3840 89.80387666928583
3839 9989 161.38263695804412
3840 3841 80.70203350537679
3840 13092 525.8282658140313
3841 3842 248.67065195247085
3841 13471 178.9962087151162
3842 3843 41.17624837549357
3842 13044 117.26140318695289
3843 3844 264.88097236924017
3843 13045 118.88688559829129
3844 14437 128.61429263118433
3845 17157 121.95797987334204
3845 18174 51.780731577450645
3846 6531 45.26004371602292
3846 13401 95.7248068608831
3846 17157 201.32357463894175
3847 13462 217.45236030104536
3847 13464 112.33664696340782
3847 14441 94.25555494849313
3848 3849 115.18856110755345
3848 6672 191.8136670002832
3848 14434 85.49682743585167
3849 3850 73.16974839669712
3849 6673 252.89628207554523
3850 12584 130.2988183751509
3850 19756 205.20758296920556
3851 10672 211.81591515836595
3851 10673 249.72996634328427
3852 3853 219.8649147651264
3852 9444 135.02764838713708
3852 12362 461.3892933160221
3853 10604 81.49027945561876
3853 12361 58.019519413097285
3854 3855 24.013360617611973
3854 4064 215.97023287809384
3854 16682 123.89641004732385
3854 18052 191.6759207218498
3855 3856 112.66870990069097
3855 10342 89.82377872780846
3856 17774 36.29975444751024
3856 19210 29.808183688964856
3856 20011 86.75859384598198
3857 3858 81.8775619660722
3857 11646 76.17838153035414
3857 19616 194.23853233031548
3858 3859 70.70225411670478
3858 6775 155.61426173871482
3859 3860 81.83312757951762
3859 6776 153.38734290049885
3859 7683 290.1419212602765
3860 3861 83.5159023468389
3860 6777 152.20380846424268
3860 16803 135.13819734127358
3861 3862 126.99985025436341
3861 6778 151.16037334234423
3862 3863 29.001112111144668
3862 12802 106.83660546667117
3863 6781 149.13255186655334
3864 3865 77.39945424484776
3864 9857 262.6436657737222
3865 3866 93.49328552575287
3865 6770 142.3003645854742
3865 16169 200.42445899667914
3866 3867 89.14747109024323
3866 8986 200.95251843822462
3867 3868 111.25874075161198
3867 15834 202.42705315558294
3868 3869 68.26645908721233
3868 6771 140.24290534203107
3868 16405 203.65560002285852
3869 3870 220.01190850469203
3869 5142 201.21739064804768
3870 3871 213.99253503773178
3870 6772 137.2877788916956
3870 10450 83.51870933722961
3871 6772 345.46510724532277
3871 14850 85.78807093167629
3872 17155 33.3688448644433
3872 17318 73.03146260661916
3873 3874 64.58894738186324
3873 16470 88.18827356256843
3873 17318 106.70525987162826
3874 16369 536.3805006800427
3875 9584 43.42576316345249
3876 3877 81.41439939748301
3876 9585 100.95113834646662
3877 3878 150.0590447509178
3877 9586 103.4063355480263
3878 3879 39.317642387987135
3878 17064 40.06914081112344
3879 3880 51.259816841335606
3879 15123 215.33093395846757
3879 17064 32.08525324764777
3880 3881 80.79192816946906
3880 5788 139.712114848484
3880 12837 195.80330695731004
3881 3882 89.79167601510613
3881 9588 155.12017349238033
3881 12837 102.91241645081335
3882 3883 86.3660417566383
3882 8278 256.2547383626815
3882 8279 139.79803192319764
3883 3884 117.53766754199654
3883 5297 227.45535402610554
3883 9589 87.48204127177075
3884 6972 129.88656983240656
3884 7548 8.667495072809714
3885 3886 121.97683643422923
3885 12840 158.95171799128556
3886 3887 101.73109184214155
3886 16056 279.5441268492716
3887 3888 89.31242000629221
3887 5676 22.71735785885291
3888 3889 70.54337236877225
3888 7809 65.13645938489091
3889 3890 259.27087232486286
3889 19139 32.128780033430395
3890 6808 52.7470474188255
3891 6762 179.26630402200422
3892 3893 122.85062840870762
3892 8159 62.78093806839019
3893 18420 8.178129899994024
3893 18885 387.1554558808833
3894 3895 158.80332665052836
3894 5675 221.38274111605307
3894 12993 103.22328761458411
3894 18420 94.88395199807042
3895 3896 167.32597804110156
3895 13220 159.20917997107216
3896 3897 157.49144731783082
3896 11700 75.67452662166424
3897 18950 28.517496271013062
3898 3899 158.8459217031847
3898 3903 45.640820283586876
3898 4925 327.14396660880243
3899 18416 287.03251526073404
3899 18785 169.2296124626378
3900 3901 43.974909022398265
3900 10342 111.71291787004071
3900 18785 40.79919453625953
3902 3903 144.79326791455463
3903 16682 355.15073578886893
3904 3905 46.470479827903176
3904 6043 71.64905058582558
3904 12991 180.55763739175995
3907 3908 684.9473408128534
3907 18622 7.786123478331335
3907 18623 93.65022059159205
3908 3909 264.05258499629014
3908 6900 449.96214595823693
3909 5445 78.92190930157501
3909 10529 79.26731174337935
3910 3911 69.19008634256318
3910 3958 83.07605672371616
3910 5719 77.59199546407865
3911 14038 271.0748349646057
3911 17623 38.613237617610274
3912 3913 78.82460831899051
3912 4638 173.76750632501026
3912 4639 144.98879972187322
3913 3914 79.19816788412422
3913 13713 174.0231163472205
3913 13714 146.00228678037993
3914 3915 78.61382070338
3914 12500 174.5848912729831
3914 12501 147.5958375992447
3915 3916 79.21293177548856
3915 15699 147.53739566391405
3915 17634 172.4309182503806
3916 3917 79.09669623816522
3916 8560 170.86514733126654
3916 8561 147.5578403766329
3917 3918 79.03458901915302
3917 11307 170.45443220582274
3917 14030 147.90374623359816
3918 3919 79.05762469274133
3918 4010 170.67602581323237
3918 4011 147.90479547716018
3919 11308 170.51893178173114
3919 13531 148.01335915905395
3920 3921 79.11216130012309
3920 11309 170.53166702940433
3920 12567 148.12424397552883
3921 3922 79.25258792956011
3921 4720 171.01167930007176
3921 4721 148.33866108421498
3922 3923 78.94869710512421
3922 11310 170.74368502194616
3922 13789 148.35734611087523
3923 3924 78.80049082914293
3923 11311 170.44149638449474
3923 12588 148.42872611256377
3924 3925 78.94839432091489
3924 11312 170.5866953647157
3925 3926 78.45854769358284
3925 5282 170.75364384908812
3925 5283 148.22960076601618
3926 3927 79.82923192471812
3926 11313 170.54039132029564
3926 12163 148.32271656648408
3927 3928 78.80134604861324
3927 11314 170.51140558908702
3927 15700 148.09364559611802
3928 11315 170.3653888684863
3928 13603 148.17358325000262
3929 11316 170.61948013743785
3929 12691 147.56573172520189
3930 3931 79.12056558802405
3930 10933 170.4094729786957
3930 10934 147.72460026251647
3931 3932 82.05624873605517
3931 9090 170.79855846411084
3931 9091 147.5590355967989
3932 3933 79.18219022454011
3932 11317 170.65352796892915
3932 14401 147.40346951694116
3933 3934 79.21390167209724
3933 5350 170.53310772658205
3933 5351 148.0158490661008
3934 3935 78.83254827683245
3934 11318 169.91582886117317
3934 12182 148.74750384141294
3935 3936 79.2759287187903
3935 8700 160.18903820538134
3935 15701 149.62455404784242
3936 3937 79.30671252578422
3936 8701 115.8912221441664
3936 10701 150.04904803334747
3937 3938 78.0992681773477
3937 8702 71.30760714987993
3937 15702 150.0024757329051
3938 8703 26.776066197590346
3938 10103 150.20907930594512
3939 3940 79.04316168562868
3939 11334 171.23153074211695
3939 19521 167.58560212852453
3940 3941 78.92865260224886
3940 10440 170.91988462205646
3940 19520 167.77307109026546
3941 3942 81.83696276725202
3941 11335 170.75199168955376
3941 19519 168.6393420109192
3942 3943 82.29223170677909
3942 9404 171.11919241367482
3942 19518 168.92905990808637
3943 3944 79.30668970867868
3943 11336 170.5074890561164
3943 19636 169.38734016771383
3944 3945 78.9249786222645
3944 11337 170.53003502733404
3944 19517 169.22790167039494
3945 3946 82.27332679042966
3945 11338 170.70703641604692
3945 19516 169.59694504564274
3946 3947 81.68945945672154
3946 11339 170.87556460367645
3946 19515 169.79548318908306
3947 3948 79.12736188314445
3947 11340 170.5958109853763
3947 19514 169.98727483903457
3948 11341 170.7961472893643
3948 19513 170.36430103983275
3949 3950 79.25202055772095
3949 11342 171.05320197794
3949 19115 20.22430684625101
3949 19512 170.21821593925128
3950 3951 79.049632909388
3950 7176 170.58487400993513
3950 19511 170.60666926150984
3951 11343 171.06299610045315
3951 19508 79.1661384546429
3951 19510 170.56217493865563
3952 3953 88.10584016798838
3952 11344 170.8185266511088
3952 19508 78.96346813508156
3953 3954 90.71512594050891
3953 7945 164.6628611277596
3953 7946 170.72949675634382
3954 3955 79.61035669284848
3954 8298 170.6970594132291
3954 11345 160.17772963516873
3955 3956 78.97905695853213
3955 11346 159.88741168454362
3955 14296 170.6410794949385
3956 11347 159.73178106300134
3956 15695 170.6189221882566
3957 3958 118.26733287232258
3957 6332 44.312229177423696
3957 17614 14.29741969769167
3958 9744 58.92230007935968
3959 3960 35.09901017391668
3960 3961 110.00555524580584
3960 7673 80.83897589499539
3961 3962 51.28677099064501
3961 15214 123.96314706207203
3962 12869 81.58460538831395
3962 15214 68.01533287449814
3963 3964 67.10225139006
3963 8094 133.9868612427734
3963 8095 109.3248301905906
3964 3965 82.27182854816925
3964 6126 130.12272499334193
3965 11321 121.13839445922409
3965 12677 202.12147722514314
3966 3967 79.11589397673296
3966 8740 203.64917812505786
3966 8741 201.14575548890073
3967 3968 78.80987858613938
3967 11349 203.61749904497887
3967 15704 201.17944082983558
3968 3969 79.28066936566735
3968 7789 203.60724799303424
3968 7790 201.08263390128732
3969 3970 78.84825665039853
3969 11350 203.79499487165893
3969 15411 201.15346510752576
3970 3971 79.15763836402454
3970 10147 203.29307788519128
3970 10148 200.89366031114935
3971 3972 78.67024968494142
3971 11351 202.80795207306315
3971 15705 201.33156324106528
3972 3973 79.50432379911784
3972 8177 202.8801964063827
3972 8178 201.1497565977759
3973 6172 202.92891657025444
3973 6173 201.20057049380318
3973 20106 73.11776367303354
3974 5463 199.50577331728334
3974 19070 139.80098265689207
3974 19625 75.90664187252193
3975 3976 251.06235778397587
3976 3977 171.98224107774595
3976 13308 131.4025533247788
3977 11958 64.72228522204783
3978 5439 88.70331998868052
3978 5444 58.22433198788674
3979 3980 41.28646979237706
3979 5343 52.6259034222605
3980 3981 35.1164981325878
3981 19110 39.92376736774825
3982 3983 59.719741969738976
3982 19110 72.7951205450584
3983 3984 106.53881392402353
3984 19111 20.722887717681495
3985 3986 138.17443983483685
3985 6373 179.6618737750857
3985 18947 52.49926440278415
3986 9700 189.6712622556703
3986 15328 492.9321591575277
3987 3988 68.17675540560455
3987 5754 99.5927972798483
3987 10083 166.4662178402015
3988 12252 178.89265552308564
3988 12253 19.30553352850263
3989 3990 280.9712944886403
3989 6759 99.75034901363588
3989 16218 158.2512607148011
3990 3991 21.818769517194234
3990 19604 54.50594004407597
3992 3993 41.79683968698448
3992 4007 199.16011738538535
3992 10172 95.79146956658964
3993 19573 292.1953265944937
3994 13533 62.40987741660031
3995 3996 105.64739647505058
3995 13534 75.59724073239059
3995 14023 75.44570475362086
3996 3997 34.07670352761058
3996 8683 89.95027592205082
3996 8684 48.996465053981744
3997 3998 140.0282048363917
3997 8684 46.5073931283052
3997 14024 74.8723285220675
3998 3999 170.78464008080036
3998 13535 75.60170849632756
3998 14025 75.29787994925854
3999 4000 131.64062500744356
3999 12031 75.42082874426258
3999 12032 75.45937737489298
4000 13536 82.6032095289015
4000 14026 77.37967600895018
4001 4002 185.96360647302112
4001 10799 88.1870314511452
4002 4003 102.6667054424702
4002 14033 88.7137930604452
4003 14034 89.09275898886114
4004 4005 202.78071904904766
4004 4011 30.510434012151958
4004 14030 48.70138667792625
4005 13540 78.32936141025475
4005 14028 95.75669863458896
4006 4007 151.2705611828896
4006 4557 79.98917159585093
4006 4558 98.21372757419134
4007 13538 97.29887979037572
4007 16095 315.80859111990327
4008 4009 113.13749278708765
4008 13083 44.71437305742359
4008 14029 156.49793438429845
4009 4010 186.03425367068945
4009 13530 79.10024108123767
4009 14029 85.92100476301782
4010 11307 79.17087968130508
4010 11308 79.36274005720605
4011 13539 47.275582443165014
4012 4013 107.05021304902235
4012 15587 326.24753748258877
4012 16070 322.64189037775736
4013 4014 238.15730500237947
4013 4279 360.6997688117259
4015 4479 80.20021903386842
4015 12741 85.4002065485701
4015 18109 46.57085076203485
4016 8224 79.75983276234663
4017 4018 79.47480632247259
4017 4473 78.84476665732183
4017 9777 55.84822297141683
4018 4019 77.9162369259868
4018 4473 154.58453893812896
4018 12739 78.93061466209943
4019 4020 83.29927253595572
4019 4481 78.07630045229729
4020 12740 81.89459536069018
4020 17568 66.09788436957096
4021 6443 78.19768255661944
4021 6449 44.50028343271898
4022 4023 127.40623745607903
4023 4024 92.37366989259326
4023 6533 151.93659549529042
4024 6533 228.01617219099677
4024 18348 61.2307158570577
4025 14412 380.6179205388439
4025 18851 157.09192343357984
4025 19712 115.61746117139674
4026 13964 102.03341658083957
4027 4028 85.50280595606179
4027 13964 205.3790512642778
4029 4030 422.07583911379606
4029 14530 140.83557396922143
4030 4031 416.3054848566213
4030 13020 377.45950064174525
4030 15503 96.3401210467685
4031 4032 60.98163458804748
4031 6933 387.32208299349867
4032 4033 66.28673852425536
4032 4816 132.8606051255486
4033 4817 155.59264900979636
4033 17732 224.3848585547634
4034 4035 56.3393084202305
4034 5550 48.695320753944316
4034 16033 189.6653806789197
4034 17732 71.53316364291487
4035 4036 133.55530939600752
4035 5550 25.15629843405183
4036 16961 113.29020325611077
4036 18972 22.19763575076704
4037 4038 88.49924214109369
4037 10995 21.41888040895778
4037 16961 90.10093635672193
4038 4039 118.79889688261709
4038 14643 86.51520320675182
4039 4040 208.9553848454007
4039 13802 109.30694945432685
4040 4041 130.24229847327572
4040 11710 91.09377929463687
4041 4042 58.637427983910406
4041 11710 87.48098160187351
4042 4043 31.594842641821614
4042 14431 165.14772576541782
4043 4044 91.59364706958985
4043 7915 157.50652584614747
4044 10276 69.238912720276
4045 4046 39.00759075263614
4045 10278 66.6406686158765
4046 4047 98.6409262769919
4047 4048 75.41852134235953
4047 4082 127.4673978580037
4048 4049 60.1100761011035
4048 10278 195.49363158412282
4049 4050 25.46366901781039
4050 4051 81.8212651733169
4050 10279 257.199689768925
4050 13364 254.20462516513965
4051 4052 108.25909820515018
4051 6594 273.65328178103505
4052 12975 52.50880570754364
4052 16960 62.972083334883315
4053 13675 34.181686198001614
4053 18971 185.16730087709297
4054 4055 52.42084361285952
4054 9594 99.40985965596987
4054 18417 129.8705134758273
4054 20019 7.302672968861184
4055 20018 6.019297415617814
4056 15219 281.61683407974505
4056 17908 10.828848133921957
4057 4058 100.75286711298233
4057 14969 105.34691259833271
4057 17908 44.49112862662206
4057 20016 6.760880067508139
4058 4059 20.639001064764642
4058 5684 107.85260036865782
4059 4060 87.23879341715393
4059 5680 89.23801682865626
4060 4061 131.5266282029897
4060 20010 7.8797074187176115
4061 4062 86.23243965175391
4061 11780 79.33895097084775
4061 14973 77.58695394847508
4062 4063 157.08015675741618
4062 4925 82.76939283664987
4062 20015 5.810776800032609
4063 18416 12.228423906278298
4063 20011 107.2195660150314
4064 4065 116.58894839169324
4064 6956 27.27783137418785
4064 17415 22.738394304599655
4064 18052 25.01295042988454
4065 4066 126.0642691348391
4065 6955 56.108793515830925
4066 4067 51.74958671130753
4066 5691 109.55229503786236
4067 18415 23.69596926325439
4068 4069 161.8937125387464
4068 18415 46.19365724516017
4068 19831 114.81415478261802
4069 4070 219.0206632168466
4070 4071 82.35917445590849
4070 14066 144.44535214876151
4070 17530 244.06533794625628
4071 17529 45.90768324274018
4071 19064 13.310196853189527
4072 4073 85.6074511334679
4072 9985 120.27424577156876
4072 9986 37.298732583744666
4073 16557 151.29603367024689
4073 17078 57.181995343484985
4073 17988 69.6565116159734
4074 7160 78.97291608686837
4074 17078 160.71280145510337
4075 4076 445.5557155005915
4075 13511 174.74311735843787
4076 15212 89.11858527204733
4076 18058 68.08742336620082
4077 18058 25.46588307577279
4077 18440 17.687486502274748
4077 18441 20.37228994686113
4078 4079 195.19838556762411
4078 18441 39.45447870091944
4080 4081 107.70101499913152
4080 4274 101.12955367137582
4081 13799 90.51763517967909
4082 5204 205.19602633841308
4083 4084 69.95879721948646
4083 11497 81.53966852450128
4085 4086 239.7389821092655
4085 5018 100.07135578819998
4086 4087 189.83536425639605
4086 6084 78.49380104734036
4087 5205 58.7883960386888
4087 7545 99.94125958989072
4088 4089 73.47196459053828
4089 4090 101.58987146248693
4089 7157 87.6012963867274
4090 4091 17.46240121344702
4090 14900 106.7692937312835
4091 4092 39.02553174687984
4091 7157 139.54732315467243
4093 4094 55.43199520081029
4093 5857 106.04902816335655
4095 6279 153.45945675648224
4095 14591 342.3148759574176
4096 5016 391.8210840730263
4096 6278 115.5731892978692
4096 6279 89.29625830604482
4096 19036 52.95330153546034
4097 4100 104.60655769277776
4097 13358 188.17424448736386
4097 18390 349.5804470971785
4098 4099 77.84775258811206
4098 15104 307.6632358315717
4099 4100 79.70433603873002
4099 11823 54.41793823018009
4100 8140 57.94468374444924
4102 16259 26.017000707375104
4103 18306 122.54337259739788
4104 10131 83.71521161522438
4104 11724 73.8215931952148
4105 5177 35.291876525926526
4105 10385 48.86164757619313
4105 10386 75.61801025811609
4105 17885 11.905759262757371
4106 5178 43.04752092037987
4106 5179 132.96354145705496
4106 11965 35.9227437312582
4107 4108 43.997752427788626
4107 10743 80.06424739717264
4107 15019 79.73147647126957
4109 4110 185.71217420939317
4109 12210 32.589267512229846
4109 15783 41.32852170515149
4109 18183 19.094333471231565
4110 4111 188.7918363293914
4110 8124 45.690251861657366
4110 10351 79.01721387469992
4111 4112 209.89577128333576
4111 8125 50.593649722195885
4111 15785 76.25481029021785
4112 4113 214.74542214804805
4112 8127 76.56988781229596
4112 15786 74.96851403235509
4113 4114 208.8254544938776
4113 6622 126.7526626788476
4113 6623 76.11433896836577
4114 8128 75.20268474880518
4114 14096 38.618806139058464
4115 9630 99.63110625946507
4115 11365 94.97178350364071
4116 4117 77.6985563615812
4116 9208 114.01064774283586
4117 16129 127.58647016460078
4117 16228 31.335161156333093
4118 13925 123.84207730929272
4118 15120 118.98997653737047
4118 20053 10.232048245860636
4119 7486 124.83659593828469
4119 7487 77.40767837346387
4119 20053 236.38813199506185
4120 4121 157.88823010973795
4120 4130 25.625115810817963
4120 15118 80.2691176030748
4121 4122 159.19842376287093
4121 5491 104.32045554832035
4121 18702 74.03717427477916
4122 7111 104.02985376243814
4122 10300 79.62620197268076
4123 4124 195.02722640579418
4123 6524 78.79053219248583
4123 6525 285.40337871781844
4124 4131 36.82417564354123
4124 7131 44.174881947422456
4126 4127 362.6240699623913
4126 7124 45.98961091657074
4126 18012 61.47966361600535
4127 4128 80.75203626375158
4127 7130 82.71137751999204
4127 13646 72.08713767672754
4128 4129 78.82533586208378
4128 12077 154.58871136333028
4128 18689 140.6819112225694
4129 5400 148.28929167254017
4129 13918 153.7632127671625
4130 7110 76.55168346233414
4131 4132 125.21697718462535
4131 10369 46.80226150077026
4132 7132 81.57751881422531
4132 15122 46.857762070737806
4133 12737 1011.6070177892037
4133 16272 89.20056220682622
4135 4136 115.49416219926256
4135 9082 75.34801631587952
4137 4138 113.39423675347003
4137 10174 84.914829965351
4137 13778 108.71086916619097
4139 4140 100.10666845212856
4139 9086 175.62928199281583
4139 18667 156.2424323245054
4140 9086 77.07041780941654
4140 16095 47.980688851923325
4141 14093 215.51936538526502
4141 14094 64.51401885989792
4141 16785 51.11452691445548
4142 4143 58.810036061091786
4142 6910 176.432541997928
4142 11359 216.3542631298062
4143 4144 76.06859663648343
4143 5219 293.15950894869167
4144 4145 166.25463439294367
4144 5219 164.04020225727493
4145 6149 108.42721989615816
4145 7595 306.28882253711
4146 5216 250.38129695056273
4147 4148 68.83839302006598
4147 14090 66.11068811881563
4147 15894 58.84563282509709
4148 11165 191.059539091014
4148 14952 74.85281205183435
4149 4150 256.3704344947854
4149 5215 168.18822877013218
4149 7596 358.40641210848725
4150 4151 532.1763653022215
4150 15743 717.9721925781745
4150 20033 881.2727184213911
4151 4152 214.74321767305895
4151 19051 202.08846334144664
4151 19052 365.6347860262702
4153 4154 283.83562786693767
4154 4155 76.89260382828178
4154 13935 81.70601160018205
4155 8347 136.31865831982086
4156 4157 141.04651052965477
4156 5611 59.31798179045617
4156 5612 50.64410633596084
4157 7409 71.71104575996952
4158 4159 284.6236268649146
4158 7410 66.12673198337222
4158 19600 7.306186594752164
4159 4160 111.07375843587474
4159 7414 65.2273501873349
4159 11572 67.95362764177986
4161 4162 81.69479886440865
4161 5706 75.5278872780344
4161 5707 48.436595250387505
4162 4163 79.35139943671474
4162 7450 47.436436669698125
4163 4164 39.59001084718264
4163 4626 46.56854271244999
4164 4165 39.80020409099532
4164 4625 75.52370128184695
4165 4166 77.89538288404518
4165 7451 45.43512829819572
4166 4167 79.82561915569924
4166 7452 44.40622755584992
4167 7453 42.91018280935762
4167 13862 76.32430600221059
4168 8757 185.36465940988847
4168 16034 272.122193836604
4169 4170 228.45595325843644
4169 7425 102.79993937157327
4169 13860 25.74899579719763
4170 4171 580.905550446365
4170 13864 74.32402787503692
4170 18446 95.23162457414594
4171 7427 93.77458371386085
4171 12671 56.55865575270072
4172 4796 186.50732361003307
4172 11366 63.683259670040385
4172 13881 67.86480535801223
4173 4174 94.23597921416803
4173 12574 41.23584095152124
4173 12575 219.7912223853495
4174 4175 121.42035297733968
4174 4704 90.9754153926294
4174 4705 219.68591323183784
4176 12811 232.18474925777005
4176 19066 11.931731499295841
4177 4178 35.6926751194442
4178 4179 15.113488708811555
4178 15390 158.2856803209521
4179 4180 78.09604220990025
4179 15997 100.82313253058409
4180 15391 159.11036895666993
4180 15772 350.8762473134582
4181 4182 178.47533999997282
4181 13059 120.64255737612767
4182 4186 33.392212042921805
4182 7830 70.6644766458102
4183 4184 96.08735248301802
4183 12006 108.18407286349333
4184 4185 92.69210931243994
4184 9263 51.65156737020193
4185 16846 63.28177436347465
4186 4187 707.4189869220494
4187 7832 127.10732987156435
4187 17288 133.05929324819448
4188 4189 72.34818709372163
4188 7833 119.96596816014959
4188 17288 164.34817215290062
4189 6518 114.66117994011177
4189 6519 120.84407566763988
4190 4191 181.72301941882282
4190 7513 95.61708145646881
4190 11753 63.670678979282116
4192 4193 72.23143223608643
4192 7835 158.23965744609984
4192 20098 75.75624598875983
4193 4194 80.75843228616337
4193 4961 157.91030725759614
4194 4195 87.32916037390561
4194 7836 158.32540605199938
4195 4196 108.44565197069815
4195 7837 156.7868379262769
4196 4201 49.539684674656584
4197 7506 82.45311822685858
4197 9063 124.18500593241981
4198 4199 35.88572957578683
4198 4516 116.2916104341995
4198 7498 65.50548986757298
4199 4200 70.22034138036483
4199 4520 177.2515040954457
4200 4216 39.24927863290826
4200 13628 177.41223131707264
4201 4202 67.89671022874843
4201 7871 76.11306191169622
4202 4203 78.86143797284203
4202 7872 74.71225703342633
4203 4204 78.4837734945217
4203 7873 74.84635224793728
4204 4205 79.88666368661859
4204 7874 75.62812461328393
4205 7875 75.58508653838624
4206 14077 84.39300435874362
4207 4208 89.32016670697121
4207 15531 180.61206150767876
4207 19653 30.163220998099902
4208 11420 179.66065499902447
4208 12858 374.8175808205531
4209 4210 65.8459675524467
4209 11411 344.4631234243594
4210 4211 104.75236054062394
4210 14542 107.3073276140447
4210 15452 276.4752270625264
4211 4212 121.87802056018307
4211 15086 108.8776504954345
4212 7863 91.04807729867592
4213 18399 159.19776044979713
4214 4215 107.2473772275184
4214 7851 153.11190096731644
4215 14508 34.047956941439054
4216 4217 65.27807275334132
4216 7859 76.8025341152368
4217 4218 108.42005250228512
4217 7860 76.65820153927814
4217 12384 216.4777463672688
4218 7516 97.28800518704193
4218 14138 31.835588474003018
4219 11833 121.88841513008788
4219 14138 61.45205270915204
4219 17824 99.00326568423498
4220 4221 143.42671532338065
4220 7507 74.00931084277128
4220 7866 73.80177391426066
4220 17824 139.64698876471655
4221 4222 138.8820506578517
4221 7508 73.35585483514414
4221 7867 73.97683875795639
4222 4230 28.62162410269646
4222 7841 47.89173841660309
4223 7877 335.76999007231393
4224 4225 170.45131362871712
4224 7504 76.60306222994843
4224 7839 76.02737033401971
4225 4226 69.1137681456476
4225 7505 76.81705815592773
4225 7840 76.5167708267683
4226 4227 118.47629533886146
4226 7505 146.31433337671737
4227 5329 75.7725832325041
4227 7755 235.09604129976597
4228 4229 119.4153045087422
4228 6518 173.4055651716053
4229 7515 112.01900044859767
4229 13393 209.97362203017298
4230 4231 183.69932843280313
4230 17719 64.90458721870439
4231 7510 75.7588020073917
4231 18936 60.04660992170582
4232 4233 45.95730042216809
4232 10038 183.06520233481075
4232 18338 25.906340506779376
4234 4235 60.22837322873285
4234 4770 84.65221901229684
4234 8945 127.0358009948259
4234 8946 431.1467698731082
4235 12854 40.843209224554506
4236 4237 157.67506638829448
4236 9345 42.476593550168026
4236 14064 232.15562342794064
4239 4240 370.487241502182
4239 14589 81.60531374495737
4239 15405 70.54835538128009
4240 9040 83.62217194846318
4240 10741 427.8700203642027
4240 17876 70.81149470775966
4241 4242 22.356171295846444
4241 5664 48.226562484168525
4242 4243 76.34525221456263
4242 5664 55.38799426040907
4243 4244 79.01161884687627
4243 11583 80.87375168726511
4243 11584 81.01774930654635
4244 4245 81.15297574998613
4244 14586 80.6908937374046
4244 15670 81.71846274164568
4245 4246 77.97388703326602
4245 14585 81.13723395972967
4245 15671 81.87674090543443
4246 4247 79.04379342977956
4246 11178 81.84534739196297
4246 11179 81.36690493252357
4247 12129 81.64699679695146
4248 4249 41.50597363271048
4249 5677 73.98389605963912
4249 6808 218.7700444586128
4250 4251 51.33923459625297
4250 6805 88.23886394610685
4250 14588 80.17879246283226
4252 5570 47.978443133133595
4252 5632 306.1015924545132
4252 12243 266.6845194336761
4253 4254 149.1430547743328
4253 9621 37.477761403747266
4253 11423 95.01006028302587
4254 4255 35.295520987079975
4254 11423 181.68932614777955
4256 4257 208.82293842398673
4256 4258 369.45878247013997
4256 4259 128.0106694375154
4256 18754 200.38675036549617
4257 16574 661.7650801346458
4257 20115 288.01859273818116
4258 4259 493.71732662695194
4258 9491 44.12115960064328
4258 18047 16.702783721080237
4259 5553 246.71154348414353
4260 4261 94.1978874933052
4260 18901 40.986073975130246
4263 19402 176.18847657562202
4264 4265 102.49255845114396
4264 4815 98.39317804012798
4266 4267 73.4133722306221
4266 6656 155.72486294961845
4267 4268 44.6742011578955
4267 6938 62.08024445318868
4268 16788 33.34019539879579
4268 16961 207.8147602166525
4269 4270 147.5354989618257
4269 8775 133.85647330528633
4269 17535 67.60229903157268
4271 18420 196.2519520348083
4272 4273 57.63242508289959
4272 11220 146.9029014130885
4273 4274 64.9732650762779
4273 14641 59.033670065618736
4274 13357 90.07867133133865
4275 7547 200.7659817223731
4276 14583 44.39119882982026
4276 16070 263.43668670071554
4276 18883 211.53335770354775
4277 4278 34.34855197287155
4277 6948 204.36183076149788
4277 18883 233.18521762590152
4278 4279 91.18808854171759
4278 11090 59.140883648454384
4279 4280 251.92197982925745
4279 13225 263.9137171859738
4280 4281 12.854921184532682
4280 18444 74.37918238906529
4282 5862 216.2879251165889
4282 6879 87.55438216516676
4282 18751 141.62409848644802
4283 4284 130.36635652173786
4284 4285 40.157027234640395
4284 9537 131.80285686654403
4284 13223 269.99040875126803
4285 4286 11.739329148021557
4285 11703 399.8775045402998
4286 11704 455.71243798863344
4286 14642 38.58365678272814
4287 4288 89.06726206300218
4288 5674 12.073380985104505
4288 5675 92.9155434118164
4289 4290 110.70892486998827
4289 4765 103.99040621699325
4289 10267 28.068785307259123
4290 8154 89.10210978519471
4291 4313 58.14876651543168
4292 4293 78.06323495008915
4292 8323 271.50103239410697
4292 12414 66.17348283605521
4292 13257 230.2134703542954
4293 4294 17.75626620833348
4293 14611 239.09702157457932
4294 4295 71.73864174675231
4294 14874 217.7146941895629
4295 4296 22.434144498096927
4295 10788 227.03742021314162
4296 4297 93.81702219131563
4296 10796 206.84253279615166
4297 4298 139.76015191665107
4297 14101 96.23989778822606
4297 16237 90.30195416687998
4298 4299 175.05921427352882
4298 14102 78.77439597727438
4298 14738 78.26048072103411
4299 8425 88.88388718933388
4299 18996 134.23686567121973
4299 19000 99.05599356440649
4300 4301 175.76925131258298
4300 8426 103.0526848961055
4300 9936 84.05144651273315
4300 18996 16.011615918782784
4301 5710 132.31860552260756
4301 9937 76.49017483960067
4301 13318 81.41488490552575
4302 4303 90.39397335333007
4302 13183 158.0593717996611
4302 13959 116.38307293939496
4303 4304 89.48230622427673
4303 13184 158.05876977720268
4303 13960 116.27849176356054
4304 4305 89.22729325105342
4304 13185 158.07972864666183
4304 13853 116.16815611920985
4305 7529 158.1095215993603
4305 7530 116.18486333133689
4306 4307 43.756266044205674
4306 8973 79.21269077848365
4307 8231 116.30397663147205
4308 4309 89.39384252554771
4308 13905 116.22334573184055
4308 18372 19.27438605834805
4309 4310 92.53764544857928
4309 6988 116.18278327042621
4310 4311 17.974827127531828
4310 9821 116.33111867370415
4311 4312 92.12086405217012
4311 9820 60.97742748176779
4312 4313 89.35440790837694
4312 6630 140.8381438940015
4312 6631 154.03113364071444
4313 7015 56.595185589032596
4313 8154 140.80055854007108
4314 7016 78.88029698872612
4314 17216 64.586887097319
4315 4316 77.22621473270925
4315 7017 79.21731991471248
4315 17216 88.44728112420381
4315 17227 115.86302014215661
4316 17215 38.13763201657935
4317 18601 28.625834807614915
4317 18979 4.196849548689722
4319 11722 78.68129508909834
4319 17979 77.52210989903088
4320 4321 158.43524632675854
4320 14661 79.64730887374124
4320 18978 69.676511779062
4321 4322 78.75324036735215
4321 14662 79.0235150998487
4321 15722 79.15561711414531
4322 13178 79.48834467684595
4322 13179 78.52965466698359
4322 18459 79.0360401339869
4323 4324 79.49123165131375
4323 14663 80.71637076312261
4323 18459 79.66380496136351
4324 4325 79.14219658061857
4324 14664 80.93825627195262
4324 15569 77.18313528685961
4325 4326 80.24252874029239
4325 11132 80.47828734962526
4325 11133 77.41483170156303
4326 4327 78.89607318805153
4326 5765 79.08211301200856
4326 5766 77.71508925485982
4327 14665 79.13565907440416
4327 15724 74.1992396993206
4328 4329 79.26313075169092
4328 14666 108.42314356317017
4328 19562 79.18767342681568
4329 4330 78.77413797999192
4329 13427 111.15837634504373
4330 4331 70.04444038604535
4330 4906 111.59777963607326
4331 8261 115.58891827374138
4331 18147 72.86544218537534
4331 19583 96.64308227408127
4332 4333 79.19792737986147
4332 14495 116.0324830558236
4332 18147 16.571455008038015
4333 4334 78.8207890680894
4333 13588 108.616360002541
4333 13754 120.30425727824571
4334 4335 80.54459267698437
4334 11624 107.21526004071342
4334 17700 123.1572819179723
4335 7261 121.38512666402421
4335 7262 108.81720856756048
4335 17938 38.21154735207546
4336 4337 133.8221354643434
4336 13589 100.48832547747524
4336 14668 86.58603869400383
4336 17937 60.68332091198355
4337 4338 150.4872110808558
4337 4431 89.67339162941235
4338 4339 78.7731360365442
4338 6223 92.18553665265424
4339 4340 79.41337015817732
4339 13592 117.18531637160113
4339 13647 93.76024269935375
4340 4341 58.26643879871062
4340 17675 31.665949270730728
4340 17685 33.20651370287624
4341 12279 182.09342244824867
4342 12908 88.5206886753619
4343 4344 78.78863679714811
4343 13587 90.84439285936202
4343 14671 101.74907694202658
4344 4345 78.86514420255519
4344 10962 128.89279507244356
4344 10963 170.13350856005252
4345 4346 79.80506115413317
4345 17695 28.063757514349287
4345 17696 32.054724658804844
4346 4347 79.31571205237178
4346 11527 127.99112833885496
4346 11528 170.37933929116937
4347 4348 79.21626095086943
4347 10301 128.6707202840871
4347 10302 170.53733741718528
4348 4349 78.50386876783767
4348 8386 318.668168706693
4348 14311 95.83570520758268
4349 4350 79.94937498325018
4349 14675 95.69192400384797
4349 16266 175.2118977831346
4350 4351 78.90423825339556
4350 11484 95.00059805446591
4350 11485 174.58894359509253
4351 8389 323.0077176612369
4351 13052 94.70368582391637
4351 19750 49.52636459121993
4352 4353 146.25021827283265
4352 14682 97.99786895696191
4352 19928 132.94262932315743
4353 5416 153.56786259738038
4353 7488 144.61123400221607
4354 4355 107.5040856205538
4354 16395 259.98511712858283
4354 17715 121.0208157005751
4355 4356 76.21357142111694
4355 10984 286.61079482508455
4356 4357 75.85774909117947
4356 5417 155.19740131970724
4356 12936 285.87944815841064
4357 4358 77.60118723805535
4357 5418 155.18597900806978
4357 16014 285.1526930508401
4358 10370 88.91185010980728
4358 10371 79.76703906270845
4359 12268 171.44833933831976
4359 14672 71.36009492876637
4359 19589 82.1524257992131
4360 4361 137.3924482046492
4360 5089 78.24038502297876
4360 5090 78.87897705982486
4360 19589 217.72307806219285
4361 10612 74.10147477100752
4362 4363 79.0616972699446
4362 14679 73.98085201843477
4363 4364 79.05970606624024
4363 13577 79.85876945619376
4363 14679 152.93538208478785
4364 4365 79.00488599374518
4364 13578 78.8845062230375
4364 14603 29.85275395363646
4365 4366 82.49747968598408
4365 11878 53.071067757136625
4365 11879 79.15298534105247
4366 4367 82.35908470330533
4366 9146 304.46199939954266
4366 9147 79.4766710583459
4367 4368 78.8469779818739
4367 12777 32.45813615165295
4367 12778 79.59731347969604
4368 4369 79.41592072375482
4368 13579 79.42696022824737
4368 15115 304.6855184310763
4369 4370 79.72698521440472
4369 13580 78.884154203808
4369 15116 304.7247898158508
4370 4371 182.56071117373577
4370 4617 226.3091793946704
4370 13581 79.28884639385114
4371 4372 80.57876895908457
4371 13582 78.67451944342417
4371 14678 79.43860160070389
4372 4373 67.53931169167457
4372 5412 136.01205106323735
4372 14062 243.49633533022387
4373 4374 100.76957357348188
4373 8931 78.74332668364178
4374 12284 121.9249823029679
4374 14477 279.57458375661525
4375 4376 78.10813675909736
4375 5404 138.75329257320877
4375 12285 122.61432630544182
4376 4377 76.59651593273962
4376 5405 139.16251805301857
4376 12286 122.15330305958763
4377 4378 75.95963640294114
4377 6587 242.89055940994146
4378 5407 139.03359443076778
4378 16011 243.04149098181196
4379 5408 138.09197813796717
4379 11043 242.87017394800995
4380 12998 290.04888821067254
4380 12999 242.63528675264433
4381 5409 137.58556966725166
4381 18955 105.15963835265039
4381 19824 112.66215131506183
4382 18955 74.27021872983526
4383 4384 116.57511801041908
4383 9041 50.26259733760186
4383 18373 88.73328796226092
4384 6884 169.44181598360632
4384 12607 75.33588584745247
4385 4386 112.5959322489795
4385 6936 269.19485947673536
4385 6937 227.6048463224545
4387 4388 80.56794442269084
4387 10490 78.84177549713965
4387 11392 144.50932762318538
4387 11393 120.36933321724031
4388 4389 84.75627863870615
4388 15251 106.0805671254466
4388 19516 294.7703801751166
4389 4390 81.95230211578235
4389 15138 247.54312802412207
4389 15878 84.46461254890885
4390 4391 80.39026206881906
4390 15139 220.65718663721356
4391 4392 83.6455123942019
4391 11796 188.1447972241796
4392 4393 100.998082572508
4392 15140 150.22475215167105
4393 7177 85.15569284071658
4393 20034 72.77020023720672
4394 4395 101.53014287895525
4394 7177 85.65885388770138
4394 8297 144.03833903585294
4394 19510 176.02135829150996
4394 20034 17.158623207716147
4395 4396 90.26276850932086
4395 19509 116.91799842894054
4396 4397 71.58398741897271
4396 15694 69.95362885805183
4397 7947 20.523588065535993
4397 8297 115.60722824296273
4398 4399 49.754757616366824
4399 4400 78.22515640713749
4399 6334 78.03671362369496
4400 4401 76.748685096513
4400 6335 78.9273736472907
4400 12251 79.44320857210292
4401 4402 80.60370995538145
4401 13101 79.08272659235115
4402 4403 79.32921245722231
4402 6336 79.20635719617536
4402 8890 79.20444473780697
4403 4404 82.57560987311888
4403 6337 79.32749170837864
4403 15376 79.17182040840608
4404 4405 76.0699225068972
4404 6338 79.32722373332875
4404 6852 79.16019776593886
4405 4406 78.08716463410258
4405 6339 79.32745449677424
4405 14934 79.16062731587424
4406 4407 79.17817980073771
4406 4949 79.3168777312326
4406 4950 79.17237388880811
4407 4408 79.81709105237788
4407 6340 79.32834265872789
4407 16118 79.17129321369018
4408 4409 79.33369898702038
4408 6341 79.31657286136186
4408 9453 79.17178400559746
4409 6342 79.41318321261622
4409 18255 17.301998895302564
4410 4411 86.37211524469402
4411 4412 137.09263089879028
4411 8572 72.94705329738943
4412 4413 121.74037624698185
4412 6344 77.15963848512816
4412 17679 68.28597058406189
4413 4414 199.42802607942014
4413 6345 77.61226650755391
4414 4415 194.90815809990661
4414 6346 77.91492915234144
4414 8030 78.41784155294191
4415 6348 52.90698159842119
4415 17676 81.46673442919308
4416 4417 59.393697890235735
4416 4531 71.5109957892664
4416 4532 71.74591570931877
4417 4418 53.713387973376015
4417 6351 71.29959306644865
4417 13615 71.98895223069383
4419 4420 401.688913878763
4419 6360 72.35475658740982
4419 7209 151.42941564687726
4420 4421 118.59546103764225
4420 16844 81.10600885263493
4420 16845 47.45894982553237
4421 4422 100.41792296283867
4421 15087 73.79253967616323
4422 4423 207.6654501592816
4422 7215 151.14243894065842
4422 14839 48.99275475931445
4423 13455 39.45791922655425
4424 4425 76.1226574340951
4424 15188 36.116435551387475
4424 17980 127.25384898722544
4425 4426 75.56938858266847
4425 6212 137.21493245103883
4425 17644 126.84043451458516
4426 4427 76.41126640368202
4426 6213 136.88393029609668
4426 17669 127.25187625560396
4427 4428 73.08366852270049
4427 6214 136.70545845663253
4427 17654 126.51849302081173
4428 4429 67.66025168614627
4428 6215 136.9813734671931
4428 17648 126.28483741115319
4429 4460 49.404590590395614
4429 6366 29.101507126440097
4430 4431 138.99865037445542
4430 5396 67.69584726409875
4430 5397 69.66585538242973
4431 14668 133.84687138558172
4431 14669 70.27674631235614
4432 4433 79.3418681308218
4432 6365 110.23472113789441
4432 7746 170.51771874486386
4433 4434 76.35027516456647
4433 15366 169.39181510449987
4433 15367 72.54851926705962
4434 4435 79.86791147790414
4434 6111 169.91721887409602
4435 4436 238.64504905968494
4435 6361 97.14025133155545
4435 14925 76.75979520788655
4436 6362 86.5245921547587
4436 9056 83.31989902054201
4438 4439 188.38587974799245
4438 6364 122.52661833352204
4439 4440 17.17553367927261
4439 6350 161.46060179702656
4440 4441 64.20571004143706
4441 4442 127.31349769026467
4441 15253 163.43480710378384
4442 4443 95.9007855576581
4442 4490 254.89839425124774
4442 12054 410.39986796921687
4443 4444 109.72942147143965
4443 12861 412.3608397296554
4444 4445 204.64479236601585
4444 8366 87.47726162143573
4445 10855 93.5652309055052
4445 18359 117.5944338408905
4445 18647 211.3609097724705
4446 4447 186.73622845566146
4446 11183 83.09441781199004
4447 4448 106.39891691202658
4447 19156 109.80610700307454
4448 4449 93.53803247373894
4449 11597 352.31585721983333
4449 15861 158.00888959092606
4450 4451 79.78086252630189
4450 4463 34.23876738414423
4450 6369 44.31137515239073
4451 4452 78.41365782963403
4451 6246 139.87315731761998
4451 17646 141.6429392644443
4452 4453 88.02151955548288
4452 16752 55.42662441057246
4452 17656 141.7833109392312
4453 4454 78.73408272065545
4453 6241 140.96237059893355
4453 17653 141.0151864635317
4454 4455 78.99028109938796
4454 6242 140.6973994727064
4454 11749 141.20095647017698
4455 4456 72.55528250439387
4455 6243 140.6978112898337
4455 13917 141.14025213267334
4456 6244 139.96165296855713
4456 7129 142.0212831609078
4457 4458 100.45462138740628
4458 4459 160.3365403237994
4458 13349 96.14888111136032
4459 9044 35.472280126185105
4459 9995 38.19340055026966
4460 4461 172.74780540763945
4460 6216 84.24370194852358
4461 4462 157.56104648237812
4461 6219 80.13984859738464
4461 6367 77.73701768840793
4462 4463 106.71087541006172
4462 6221 78.4515511417189
4462 6368 78.86916354415243
4463 6222 78.68232190647261
4464 4465 199.31686514014007
4464 6371 110.12782517749143
4464 8919 112.45164123484915
4465 6372 102.07720708465872
4465 15471 101.91039176990125
4466 4467 79.89600145477853
4466 8747 122.47380118686844
4467 4468 78.17096144228778
4467 15268 123.83495879886482
4468 4469 82.96090984672206
4468 7797 134.7647437948285
4469 4470 82.08093853531179
4469 15269 155.07198216102418
4470 11100 80.10798384448246
4470 19321 169.9480066695491
4471 11100 37.95936061230403
4472 8185 82.6725366305179
4473 8985 79.13266757187422
4474 4475 156.15982434840674
4474 4480 162.7787968193698
4474 5063 82.22807006688132
4474 5064 81.05473312682184
4475 7669 51.484275286894245
4475 15556 80.54378843781956
4478 4479 55.109037738991546
4479 14820 79.86970549395764
4480 4482 75.46685678798933
4480 8307 103.43179012752998
4481 5225 80.70532330716021
4481 17571 75.1812976991031
4482 8322 101.26149963154401
4482 17568 81.93829628356721
4483 4484 626.0984478358582
4483 8089 154.0523721665373
4484 8090 112.22216600775894
4484 10099 132.21730073521894
4485 4486 24.008825177509273
4485 4918 55.807518289108685
4485 8970 124.17880171064746
4486 4487 173.52812027987508
4486 8971 177.6643998225752
4487 4918 157.13698954074152
4488 4489 88.92044828667528
4488 13155 72.58524037405515
4489 4490 84.88188632810952
4489 7221 143.19190169629664
4490 15253 77.85622687708452
4491 4492 105.62560655755179
4491 13618 71.047590212009
4491 18546 77.20769737929798
4492 10975 80.20370201293152
4492 17692 107.93766308867252
4493 4494 80.19182791037383
4493 8232 90.64320342876206
4494 18963 150.00311704090402
4494 20002 40.493231366488985
4495 4496 185.28230411818296
4495 12355 74.98673573507232
4495 12915 76.58468551715451
4496 4497 202.65451058307414
4496 10376 76.50124663090044
4496 10377 75.83865795065394
4497 4498 17.399260936424223
4497 12356 76.57541665668663
4498 4499 200.24139110870297
4499 4517 53.5870377858079
4499 11994 22.73200336315269
4500 4501 78.99631596128239
4500 12340 77.83961511687343
4500 13630 80.09211844772474
4501 4502 79.71576220401147
4501 12341 77.33297504425052
4501 13631 80.54547027823781
4502 4503 82.50068800041137
4502 11858 77.87272185742093
4503 4504 82.51855301360071
4503 9152 78.75622969608212
4503 18962 37.4444736231057
4504 4505 79.1282517618953
4504 12342 79.76188788374012
4504 12766 78.93225858975451
4505 4506 79.27336892804928
4505 12343 80.14659633281178
4505 13632 78.92028742573497
4506 4507 79.59424902279275
4506 12344 79.70886351757233
4506 13633 79.9556457497068
4507 4508 51.08303633853823
4507 13634 78.40854190104051
4507 19590 79.41495438397483
4509 11918 218.65875725958279
4509 11925 76.10807028168954
4510 12335 38.457022763432605
4510 19581 35.01322517635671
4511 4512 77.24693994003182
4511 13619 99.66715804086633
4511 14303 82.95636239725187
4512 4513 76.39151049516137
4512 13620 94.02420230033077
4513 4514 76.28046460491302
4513 11473 94.23625275349136
4514 4515 75.5425896567366
4514 13033 94.47802040370081
4515 8468 95.5017353261779
4515 20064 72.2945616606815
4516 7858 81.06088134849554
4516 20067 149.52258411443052
4517 4518 112.09705448132296
4517 11993 40.82561868612504
4518 4519 108.41553107957606
4518 5872 75.84553096314329
4519 5096 81.701024489887
4519 5097 76.82221438661145
4520 12353 55.794278853756104
4520 13628 71.0718196287198
4521 4522 79.6824495239839
4521 12336 74.01042527814957
4521 19581 158.2867621108283
4522 4523 64.42675084002991
4522 4862 73.76339882016973
4523 4524 67.03174782866559
4523 8265 73.3812665797863
4523 8266 102.32605298992739
4524 4525 59.13356400361905
4524 12337 72.37759234029538
4525 4526 13.40886449162673
4525 13612 103.07257787956765
4526 4527 53.38926267137867
4527 4528 20.358706581138325
4527 13613 98.84123425411386
4528 4529 42.18142976639736
4529 17698 157.5134900410565
4529 17699 78.08181307348326
4530 4531 80.28798348896501
4530 12351 57.54834517305585
4530 17059 58.96942273760447
4530 17701 77.86929944652059
4531 6351 59.389274259476274
4532 4533 140.3242742496362
4532 13615 59.35774757869041
4533 12352 81.91569613051736
4533 13616 59.34525843905511
4534 4535 127.54097565736514
4534 6583 78.48679863856786
4534 6584 76.05346574497074
4535 12349 88.20777422739951
4535 12987 84.0508518809282
4536 4537 28.799268079235617
4537 13119 168.83947173443406
4537 13428 76.69878582283108
4538 7216 443.88809603901296
4538 10135 299.93754575304376
4539 4540 31.757192041609525
4539 15646 72.9788308256745
4539 19582 76.02550646637158
4541 4542 157.33842966756313
4541 11943 74.02268637131628
4541 11944 130.23168897484666
4542 4543 79.25652026982107
4542 7334 136.8370246415229
4543 4544 79.14753026304429
4543 9130 137.32592864160725
4544 4545 82.7129497614327
4544 10906 137.8378514964804
4545 4546 77.5147094577099
4545 5708 137.1148949402237
4545 17606 135.74705823111034
4546 4547 91.50886499917571
4546 10907 136.00671480104236
4548 4549 88.32983562540781
4549 4602 415.52744045026384
4549 4603 198.06942095140414
4550 10177 501.4747176899707
4551 4552 137.72796311435226
4551 5619 44.544752355109615
4551 5620 98.74515234912674
4552 16693 91.20424013554309
4552 16738 75.95870365376263
4553 12630 75.73627171886902
4553 12631 89.75818792266426
4554 4555 114.56185890698063
4555 15017 309.32092261057653
4556 4557 189.5908827899027
4556 9086 147.80217351404096
4556 16094 92.57589647350585
4557 9086 263.6877086218265
4558 4559 309.90019128147435
4558 13537 86.62697324058415
4558 13538 148.87794130051108
4559 13778 148.23129604019334
4559 18314 49.96395352804128
4560 4561 200.27259162128118
4560 14328 66.99591600877982
4560 14329 149.27026394125798
4560 18314 148.03722774710667
4561 10901 102.44317028167727
4561 16699 149.8584425231153
4562 10913 262.2560705571341
4562 10914 148.47962890765368
4563 9262 75.7174091390997
4563 10215 228.03069295211105
4564 4565 79.00266682748943
4564 13182 158.0342819510342
4565 13769 156.48304161883135
4565 13770 80.36780739538263
4565 18911 74.65131965545055
4566 13857 155.4898759373969
4566 14719 154.919820026884
4566 18914 74.70275782660308
4566 18915 75.3929801090199
4567 5774 154.73664222565537
4567 5775 155.76348093337478
4567 18918 74.91014361884771
4567 18919 80.12543949718398
4568 4569 79.77928104435762
4568 13858 154.64684862036543
4568 14721 154.77498785684782
4569 9335 153.85317158921234
4570 4571 136.88803726117985
4570 5550 49.72316098701991
4571 19037 15.289911368730555
4572 4573 163.16050719214766
4573 4574 135.0271871671494
4573 9973 80.18354333968136
4574 9969 82.65130609911537
4575 4576 50.934212897966916
4576 12972 146.06716953681297
4577 18411 79.62189324340878
4578 16468 78.71880306411536
4579 18026 80.72571808175668
4580 4581 90.6390383546628
4580 15424 123.71892484149159
4581 4582 61.98254152917245
4581 14451 51.10588435065238
4582 4583 39.34700168559762
4582 14616 80.82454131032215
4584 4585 254.8083446711757
4584 9891 419.5999915707963
4585 6425 474.21698868609803
4586 4587 116.7891049640727
4586 14612 78.18889540067123
4586 15606 84.62520320002457
4587 4588 126.99453345763966
4587 14613 79.36739153494123
4587 14739 79.25744820088272
4588 4589 62.7629150215353
4588 14614 78.90934008283362
4589 4590 63.90705036148383
4589 13316 78.53063060417084
4590 4591 124.47394414052556
4590 13317 78.34017450211383
4591 4592 158.05932823083492
4591 4648 79.42778933562856
4591 4649 80.3304571423148
4592 4593 220.73581601764323
4592 12488 79.57227298899564
4592 12489 101.52904851320578
4593 4594 76.53772543175339
4593 8551 136.90940919507335
4593 8552 144.96598799750942
4593 15607 80.54765252184211
4594 8421 64.29348065050317
4594 14035 92.83886697761528
4595 4596 206.3670405487597
4595 15687 236.08990576881672
4596 4597 200.41970540866998
4598 4599 201.19866088633853
4598 9693 236.825086820053
4599 4600 186.72444180103912
4599 5972 79.61805769763691
4599 5973 78.40551720847076
4600 4601 149.93274725808726
4600 8723 80.61217665996075
4600 8724 80.88206388175243
4601 4602 150.0951338040806
4601 8721 425.59645310523496
4602 19219 412.12434600705024
4603 10177 560.7928134687613
4604 12041 239.81623117084698
4605 13307 263.34985152418784
4605 14760 80.75318839464039
4606 4607 270.2498867427147
4606 10828 104.7632526612083
4606 10829 93.69039888519895
4607 13891 84.25050885295875
4607 14749 98.49089994000295
4608 4609 114.29035472996654
4608 13895 97.70678313616413
4608 14761 55.19266911703127
4609 13896 116.84627065757869
4609 15896 237.88464217965947
4610 4611 177.15845049585403
4611 4612 37.01206590104858
4611 12360 69.95896689423522
4613 16614 73.02295206909507
4613 18888 132.6354442659047
4614 4615 25.35005352560777
4614 12363 642.9762721167905
4614 18888 14.22754162952122
4616 8348 77.33924626244414
4616 8638 105.8647976897237
4617 5403 244.61361896854623
4617 15117 78.57521147522495
4618 4619 128.2202659775817
4618 5426 80.53934049680545
4618 15525 44.13186073680964
4620 4621 125.39256491626189
4620 5419 78.33306603021587
4620 10369 79.23766187243781
4620 16566 178.550587087169
4621 5420 79.26250710728131
4621 15122 77.26926405321684
4622 4623 136.95951732019014
4622 5422 79.60166591719826
4622 11983 79.4494040414466
4623 4624 80.89476148817407
4623 5906 31.168036605582653
4624 5087 122.1537742350327
4624 5088 78.20840748698684
4625 4637 119.86339678112157
4625 5706 203.08943163205268
4625 12496 115.77251965052015
4626 4627 161.9002112234095
4626 7450 79.04401725434003
4626 7451 79.17736580796547
4627 4628 126.11784953630365
4627 13712 79.0496542005835
4627 14771 79.04710374980304
4628 4629 56.358073419496876
4628 10907 78.73615875883111
4630 4631 76.18060088619674
4630 4639 28.401185155766207
4630 14779 50.74120250153786
4631 4632 77.6272139992403
4631 5639 145.13181445943673
4632 4633 71.91997177559246
4632 5698 173.80659783936866
4632 16090 228.3728360945111
4633 4634 169.0067348213888
4633 10471 78.56230385622659
4633 10472 79.30975824261435
4634 13706 79.2998886444286
4634 14777 78.59974538495223
4635 4636 127.44097715242539
4635 9667 79.28242748006888
4635 9668 79.22689989737675
4636 8844 78.92612934279585
4636 8845 79.44785060457302
4637 5704 160.94223254157362
4638 13713 78.85239380767504
4639 13714 79.1647570496356
4640 4641 85.94634856834936
4640 10197 81.35580797106407
4640 18669 136.28182213247203
4641 4642 83.9113491882405
4641 12156 141.3014209683231
4642 4643 60.177743816410015
4642 14780 76.64830714018542
4642 14979 88.69486358233222
4643 14979 126.90300417264635
4643 15211 70.84488136230172
4644 4663 79.18819982059716
4644 12485 126.59960198674621
4644 15606 132.56185631646855
4644 18428 61.87173320362695
4644 18429 61.78129795859612
4645 14723 61.61034573317946
4645 18429 5.496000495415741
4645 18430 46.98397621096802
4646 4647 62.179766716523005
4646 18430 5.236539205978015
4646 18431 47.372043879190116
4647 4648 78.87138431012986
4647 12487 157.3221867249136
4647 18431 61.92180086101587
4648 12488 157.85520800582475
4648 13316 126.33241039963409
4649 4650 78.4374858860248
4649 12489 203.4897967087216
4649 13317 167.89295346236628
4650 4651 82.80724545138136
4650 13318 209.9298193667347
4650 16089 203.46086818289044
4651 4652 81.77392670813977
4651 5710 136.32735315126433
4651 15628 204.77111390344953
4652 4653 26.331411749080438
4652 5711 154.01258223252293
4652 7361 208.8603941903154
4653 4654 80.71421566667996
4653 5712 183.97895283256184
4654 5713 193.79900152063047
4654 17640 203.72126737014682
4656 4657 140.3924767502622
4656 13707 79.05598634560035
4656 14772 78.76164028667742
4657 14773 77.76864617637366
4657 17873 30.585738102717464
4657 17874 16.44711575099569
4658 4659 170.89583509272728
4658 13709 78.83380179214494
4658 14774 79.09080628901823
4658 17874 124.60080005460215
4659 4660 171.68561625229472
4659 12027 79.04191469324965
4659 12028 79.22109260410315
4660 4661 169.11430029549268
4660 13710 79.08650099364786
4660 14775 79.35126215097077
4661 13711 92.77448487788155
4661 14776 79.0763224114046
4661 17633 97.19397045610542
4662 4663 78.5379525027056
4662 12484 197.3029710657219
4662 14611 216.90210710007503
4662 18818 83.28595930004914
4663 10797 116.17048362352911
4663 10798 183.08783947594594
4664 4665 47.57841130964363
4664 14722 61.70927533712259
4664 18428 5.290685702278359
4665 14722 61.97940583351589
4665 18431 5.282345850011119
4668 4669 90.80091970558593
4669 4670 88.76235538424832
4669 5229 178.97222352639403
4670 4671 87.46526620119128
4670 13824 177.18450091269855
4671 4672 88.46002119685421
4671 8309 177.1976750411347
4672 5073 176.99212933961917
4673 4674 49.601693160983395
4673 13961 81.24694328392768
4673 16127 85.86961944855749
4675 19596 91.16150519854101
4676 4677 167.22328704494888
4676 8452 647.438428997755
4678 7437 128.20845466516886
4678 11797 42.343142017974934
4678 15806 41.19099906899505
4679 4680 87.81023441647879
4680 4681 104.16797606727982
4680 12918 72.71951639398051
4681 10400 71.85131933944399
4682 17483 45.82281763062058
4683 17483 19.476172535910138
4683 18569 24.13443570758035
4684 14926 75.91933376188628
4684 17483 204.28016996912498
4684 18766 201.54452812217937
4685 13486 228.4099420521872
4685 17373 153.1499021933035
4686 13238 46.23829326788607
4686 18155 7.331005574637393
4687 4688 35.28357627964553
4688 4689 42.72285676172019
4688 12392 55.176227572051666
4689 4690 76.49403250909597
4690 4691 12.831903203432477
4691 8494 52.758919295258565
4692 4693 82.27718744988582
4692 13113 52.84281901018595
4693 4694 82.26414363911277
4693 6106 127.07977019181217
4693 9049 173.22640338978204
4694 4695 81.82451004339367
4694 6107 127.00875064099316
4694 9050 173.68624528328462
4695 4696 82.35115125609701
4695 4857 126.81739452026927
4695 4858 174.99165224685845
4696 4697 70.97677390228134
4696 6108 127.89072961106486
4696 9051 174.95583453411388
4697 9052 175.99720625582876
4697 13735 58.92024885006825
4698 4699 338.01811146325747
4698 18334 55.09116473370037
4698 19992 93.92118455943665
4699 9061 146.03433566061892
4699 19838 87.37062002932296
4700 4701 204.95014343348566
4700 16071 540.481932640616
4700 16558 135.38986489214827
4701 4702 159.76777275069995
4701 12120 100.94292656013893
4701 12121 183.1599256557141
4702 14569 206.60534170665088
4702 14570 122.62850674205814
4703 4704 92.0092711498058
4703 12573 93.80139771944516
4703 14330 192.34644809168958
4704 13881 191.67973460037655
4705 12575 93.86750407816803
4705 13785 42.235346518013316
4706 4707 94.3036881771196
4706 13538 251.30844835145743
4706 13778 55.706401225639034
4708 4709 79.13194208044783
4708 13784 52.43688931746369
4709 14325 193.33735683896577
4709 18150 59.514142397943004
4710 4711 79.62297903588436
4710 18990 200.54899360736573
4711 14327 209.01104351498486
4712 18157 56.67234955786196
4713 4714 51.51500326134591
4713 7037 74.15441971236348
4713 18157 27.498995920313504
4714 4715 27.092068254852677
4714 18253 242.9049142052335
4715 4716 80.89454491318014
4715 7038 108.60871986694328
4716 4717 81.65055366977745
4716 12589 108.61575044363246
4717 4722 20.945628415441064
4717 13779 58.17091946338641
4718 4719 159.66503127415058
4718 12579 38.46499702271156
4718 13787 77.6506906103311
4719 4720 184.7947607175163
4719 12566 79.52256321461749
4719 13788 79.98982561034637
4720 11309 78.93161821634095
4720 11310 79.44041594078048
4721 12567 79.03146105389668
4721 13789 78.96245273355639
4721 17576 29.166521546522162
4722 12568 78.67248414424608
4723 4724 140.35050469786376
4723 12569 79.28907870410335
4723 13780 78.86077765749528
4724 4725 149.68000455948317
4724 12570 79.36518697741046
4724 13781 78.99213720226271
4725 4726 161.62840716806505
4725 8687 84.75311181775596
4725 13782 79.77507800346906
4725 17916 34.064226972416165
4726 12033 79.11339379704351
4726 12034 77.5077694820514
4726 14039 256.5796591742925
4727 4728 48.806077648403964
4727 8563 132.13707865940904
4727 14321 210.97113290169722
4728 4729 50.32741461017021
4729 14322 198.99458852792588
4730 4731 100.87146705990868
4730 14277 202.56886217035992
4731 9671 203.49611203804022
4732 4733 35.21073780026245
4732 9939 197.9780885481037
4732 19149 25.437988556036377
4734 10919 83.13020387239774
4735 4736 48.968079827079784
4735 13672 47.338983750466866
4736 4737 109.18277580507478
4736 17683 47.53145171448843
4737 13651 124.15863615717505
4737 18748 153.09356982772516
4737 18821 97.9356846870896
4738 12888 151.3551826206818
4738 18747 79.38275560199034
4738 18748 23.653048112463413
4740 4741 76.59087434652801
4740 7561 79.38095529296353
4740 7762 60.7738520044204
4741 16540 51.40594957566029
4742 4743 521.1500257060942
4742 11824 323.81624279386824
4742 15062 353.97650059654416
4744 4745 202.5178371148755
4744 4935 100.187372465688
4744 9045 90.39050589947176
4744 15173 239.02609098840435
4745 15172 118.8458259009713
4745 18357 95.43365699294763
4746 6031 386.95017104569126
4746 10205 384.0367405405204
4746 18248 105.76194937126269
4747 10204 132.64357676677167
4747 14163 41.92803166951242
4747 19744 254.4600801992283
4748 4749 305.69294774929983
4748 12072 186.79419928808323
4748 14409 94.06518585468855
4749 9998 131.09700709767023
4749 13390 258.0085825265506
4749 19835 10.110003875344834
4750 4751 392.17466875729576
4750 5527 263.96120148270114
4750 19835 190.67110298270492
4751 14833 49.9578382410673
4752 4979 62.9033250822525
4753 4754 80.85112059337908
4753 17404 17.757712470015587
4754 7938 81.73957090674524
4755 4756 61.12498790488986
4757 4758 89.6110089522053
4757 13184 152.8057129903022
4757 14815 31.213199220377106
4757 18182 44.37302064499792
4758 4759 89.0904887478215
4758 13185 152.20618891698913
4759 7528 60.13751123651315
4759 7529 152.17895797001836
4760 4761 79.46919051434223
4760 8972 152.21936409718234
4761 8214 152.20268559621414
4762 4763 199.96716163813994
4762 7340 76.47119623987898
4762 8565 76.52960393837077
4763 4764 92.33331117445846
4763 7341 75.6063368562248
4763 8566 77.48380628575508
4764 4765 90.39314872614116
4764 6629 49.17571307769628
4764 6630 152.02670808713
4765 8154 156.96692018022796
4765 9620 38.05519866369769
4766 4767 173.4823858844565
4766 10502 52.30822520650753
4767 4768 12.499449974415224
4768 4769 36.59470332914122
4768 14404 48.03896577323462
4769 7575 116.54449731358582
4769 7576 210.94378788489442
4770 4771 101.5294449688031
4770 11695 391.41213782845216
4771 4772 339.1792011182743
4771 10871 171.62313733411006
4773 8715 55.55066150195447
4774 4775 38.80774123919746
4774 6297 117.96413892588821
4774 19213 157.78518459266442
4776 4777 81.61363241279463
4776 8715 49.999829676201784
4777 4778 145.8907285879775
4777 8852 91.70733252977784
4778 5980 92.20651598356216
4779 4780 79.93872308159467
4779 14884 78.11686314441388
4779 18155 79.64396137575855
4780 4781 80.43906830422095
4780 10833 77.67325008308536
4781 4782 83.58963117158622
4781 15031 76.92840998768432
4782 4783 81.6588042738837
4782 15032 78.05019652178393
4783 4784 160.4979112877701
4783 17785 183.91600215295247
4785 15440 166.85389362530034
4786 4792 43.70243349317498
4787 4788 75.98269187586371
4787 6301 170.15728590181516
4787 9246 140.4832862996935
4788 4789 76.47374559838936
4788 6302 170.09674131053373
4788 9247 140.59598622535916
4789 6303 170.24368751086908
4789 9249 140.78973013231712
4790 6295 64.83643264890075
4790 19071 153.91369587429227
4790 19317 109.60706703874348
4791 4792 118.6351825505341
4791 6307 185.7307004242892
4791 19318 92.4279747108961
4792 6300 126.2542386272048
4793 4794 54.0656605390616
4793 13800 127.8764934325284
4793 14250 95.8528569321686
4795 5784 83.1708677450336
4795 14446 138.8731182330057
4795 18367 12.110714395265173
4796 4797 49.845703086231254
4796 16749 73.19985518677538
4798 9369 102.02905136032304
4798 10626 99.1148048083206
4798 12958 183.99601690857483
4799 4800 79.80720304274863
4799 17736 77.8064536930529
4799 19630 106.2025185367157
4800 12700 128.41525883773815
4801 4802 78.86107841475147
4801 13194 128.31373113260221
4802 4803 88.0480614427768
4802 15380 128.52825920852513
4803 4804 79.13931146065767
4803 9372 83.43458427575226
4803 15381 128.41704414566112
4804 4805 75.94797998700955
4804 14701 62.15201484236486
4805 4806 52.97449607080044
4805 6566 184.34475937885915
4806 4807 25.13067244212338
4806 9373 83.14538520461751
4807 4808 78.8724491173766
4807 15383 184.44428702019434
4808 15106 184.51714811534694
4808 17752 87.79662513508926
4809 5804 79.26174277920838
4809 5805 78.58236350566747
4809 17752 199.11848430684344
4810 4811 200.77601576042218
4810 7812 79.16519521366897
4810 9375 78.53151235504394
4811 9376 48.48943490659131
4811 9793 37.919459526265854
4812 4813 448.5586133929782
4813 4814 43.9896414782314
4813 14887 168.23843377795382
4814 19599 1025.3545477107605
4816 4817 159.35493781523812
4816 18037 84.66327937447208
4817 6874 145.56662304995564
4818 4819 139.17714160246214
4818 5549 75.72308999962102
4819 4820 104.93689977668525
4819 13201 45.2928617021049
4821 4822 203.87781273421888
4821 12508 97.91753388027038
4821 16637 51.069863872435086
4822 4823 97.41215590950702
4822 11119 97.10881718559341
4824 4825 54.187106769295056
4825 10123 60.5957056126744
4825 10124 27.39918563522962
4827 4828 28.062136297795952
4828 4829 220.35141252508382
4828 13911 45.94577126343455
4829 16599 230.76628306511336
4829 16729 426.9405982129082
4830 4831 446.3395240605619
4830 8636 366.3528344837777
4830 8637 237.09093036713227
4832 4833 102.91282146246253
4832 7687 86.14803693983457
4832 10454 111.35210790336987
4834 4835 25.257682563995694
4834 10866 28.3941439836303
4834 17744 16.7499595385705
4834 19801 18.516123441403714
4835 10866 28.73088005940354
4835 17749 25.464759076029328
4836 4837 92.86810620010914
4836 4840 536.3576029709257
4836 17273 20.224039449672805
4837 9892 72.43924409653158
4837 18593 67.8259856077524
4838 7343 80.6028052918002
4838 17889 65.51355836349526
4838 18593 13.675590446188988
4839 4840 135.91727942137086
4839 12755 72.49479017463695
4839 17940 83.05307041838778
4840 16930 159.04773054048508
4841 4842 56.77404222004436
4841 6746 85.88717331368915
4843 4844 120.53615672748369
4843 10398 136.482106430748
4843 10399 60.675890980559295
4844 15368 59.706195815447764
4845 4846 58.31937290964686
4845 7757 65.13367448508964
4845 15369 62.03848737059152
4846 4847 67.10358803376502
4846 11978 45.33677071169942
4847 7758 64.43192923694095
4847 19386 95.4756078965171
4848 5074 46.37115336047225
4848 17371 70.74307581459503
4848 19386 29.901464746401402
4849 7739 35.35546064458591
4849 7760 200.1447268525423
4849 18363 75.69553596792542
4850 4851 155.06519091671012
4850 7633 87.26632327733856
4850 7634 56.464908294116995
4851 4852 142.18871967601265
4851 10049 86.77681263205609
4851 10050 87.2104582826207
4852 4853 92.24096869775106
4852 8023 85.44245991510304
4852 8024 83.35199627205247
4853 4854 104.90645234628218
4853 6054 81.75151715106188
4854 4855 142.54411550705518
4854 12529 81.89116566892099
4854 12530 82.79844146622482
4855 4856 161.63373712171867
4855 5306 81.79661628728621
4855 5307 82.69689556006382
4856 4857 159.167668277562
4856 7744 82.09916029094653
4856 7745 82.26054158733716
4857 6107 81.6887378331905
4857 6108 82.637553789993
4858 9050 82.5293458327573
4858 9051 81.89589608189013
4859 4860 175.13718310498385
4859 11405 79.28305180409637
4859 11406 78.17154173171011
4860 4861 201.19935881466716
4860 10851 79.50830265527718
4860 10852 77.92860000700361
4861 12747 80.07141620527985
4862 8265 64.59358302900671
4862 12336 79.47138452326979
4863 4864 122.46517344774335
4864 13159 86.06587647220414
4864 13160 71.23290693677318
4865 4866 80.6054426804633
4865 13736 148.76930809148342
4865 14708 90.52447326960007
4866 11188 93.38967787754251
4866 11189 44.61684008757911
4867 4868 157.05154781991882
4867 7313 76.15090757999286
4867 17058 81.16430694606734
4868 4869 80.22107148653446
4868 8235 76.45921676548578
4868 13405 80.45535082127884
4869 8236 76.9825285300042
4869 12247 81.20863971776583
4869 19471 75.11705143831917
4870 4921 20.02998470381653
4870 19466 77.83690360183516
4871 4872 79.58971066906945
4871 13407 78.26146554531563
4871 19465 74.16281952644349
4872 4873 78.30410313080547
4872 4942 78.21913876887236
4872 4943 78.69419783887669
4873 4874 79.53615616062142
4873 8241 78.88260941043255
4873 13408 78.15981123231113
4874 4875 79.25286171017598
4874 8242 78.32942933363691
4874 9449 78.89598573485002
4875 4876 79.5443426753638
4875 8243 77.98667595360921
4875 13409 79.36157079135616
4876 4877 78.49187456635269
4876 8244 78.6508153461009
4877 4878 78.89568753242105
4877 8245 78.3934647433014
4877 13410 80.11696778177857
4878 4879 79.0526565588013
4878 8246 78.48227430882555
4878 19895 72.59927392643534
4879 4880 79.12281587417316
4879 8247 78.24902932008487
4879 13411 79.40548302471899
4880 4881 80.00252882811765
4880 8248 78.27119006012794
4880 9275 79.38316477983058
4881 4882 77.91496374783411
4881 13412 79.215381093038
4881 15973 36.69477798511079
4882 4883 79.13074957435816
4882 8250 78.50427360592772
4882 11265 79.32818931081302
4883 4884 241.11305198744134
4883 8251 75.09281868983406
4883 13413 82.95315645086114
4884 4885 182.0965972878459
4884 8252 58.302830956700085
4885 4886 77.75314071131251
4885 17946 44.701128830929264
4886 4907 22.083563667801066
4886 8253 57.87937680410316
4887 4888 65.91301630148917
4888 6531 69.12466610052655
4888 14500 164.19012490028018
4889 4890 132.59915971652345
4889 11596 430.71147227899047
4889 13428 35.17443015338549
4890 13418 95.75234454683832
4890 15466 205.2660445967707
4890 15818 94.75454370614511
4891 4892 133.62340295029415
4891 12265 144.7677969522355
4891 13420 72.63330944772073
4891 17641 81.11407097036127
4892 8262 80.10625768505356
4892 8396 72.91131618872676
4893 4894 120.8033732502997
4893 8267 101.82424174498419
4894 4895 75.85019980748889
4894 4985 121.8042469538985
4894 4986 103.96766621375794
4895 4896 78.41489739285028
4895 8269 103.70055616197291
4895 11847 122.41704890036043
4896 4897 205.3907921237523
4896 8270 93.59152627123251
4896 13423 61.414896826320465
4897 8271 77.6138263446529
4897 12473 59.442008612472414
4898 4899 100.6797100781068
4898 7701 79.30442414041683
4898 7702 79.97182363721663
4899 4900 50.44078870621377
4899 8256 80.52698096789372
4899 13432 77.83761320879304
4900 4901 141.68418568630483
4900 13430 92.6964277123336
4901 4902 107.74724000790513
4901 8258 79.2719329547028
4901 13425 79.54918267306587
4902 4903 108.76810136236014
4902 8259 79.73802135375595
4902 11741 78.74838372467651
4903 4904 92.96715864473502
4903 8260 79.93989391074251
4903 13426 78.58261121257124
4904 7118 79.08197463349974
4904 18939 12.598697294095043
4905 4906 112.36227000749525
4905 5390 79.13803817666185
4905 5391 80.07216019481011
4905 18939 182.31128435244437
4906 8261 79.63560075500202
4906 13427 79.4337777817465
4907 4908 80.75659524671109
4907 15065 158.21553071151024
4908 4909 79.07082061842533
4908 8254 79.79383232590088
4908 9350 78.70415510765105
4909 8255 80.00601359844526
4909 13431 78.60493086277673
4910 4911 150.89972195146387
4910 4919 101.49015780096738
4910 13434 105.9224445839219
4911 4912 13.62645797589903
4912 4913 74.83636411076223
4912 8275 51.46357679106143
4914 4915 75.95804731083622
4914 8276 58.03423980330507
4914 9950 196.98209143313412
4915 4916 99.61618199052799
4915 8277 58.70133770041758
4915 13106 196.17398852796774
4916 4917 96.60703594261716
4916 7881 196.29291648853044
4916 7882 111.3976941138369
4917 5822 68.43616507184322
4917 5823 121.44792051389582
4918 5387 125.31995016454763
4919 8274 44.36834997639865
4919 13434 74.83454484390816
4920 6835 175.45143474673282
4920 6836 203.62216333093218
4921 8885 58.73577169818236
4921 19472 82.97379587532618
4922 16937 297.22729883475745
4923 4924 231.3779164107317
4923 9991 145.37994678121834
4923 9992 82.40674874292371
4924 14408 153.6946384409718
4925 11780 95.93452280455215
4927 4928 19.072700877604984
4928 12800 52.65176962020804
4928 19690 13.174664605798524
4929 4930 80.60310319582443
4929 6779 156.02067176042146
4929 7152 156.25334073967935
4929 19690 78.21554269164758
4930 6777 230.1418040375208
4930 6778 155.40660812911534
4930 9174 155.86055025421086
4931 11646 388.62814193298436
4932 4933 132.8758546570316
4932 12212 52.95877585479634
4933 12212 103.20969666330454
4933 13974 41.86554256491285
4933 16130 334.95910973556266
4934 4935 100.0646609303361
4935 9044 87.88713724352183
4936 4937 80.13933923704855
4936 12619 78.18339309764241
4936 13269 78.919235803975
4937 4938 78.83912453521546
4937 12399 79.23947365498091
4937 12400 79.03881026828748
4938 4939 80.67406702917604
4938 5740 79.24314337856853
4938 11898 79.46616426263391
4939 5740 108.64757703090112
4939 8513 85.48480141519838
4939 8514 72.69177249520645
4939 19166 20.522484734125207
4939 19400 70.2716463857656
4940 4941 79.18344756013734
4940 5739 86.70780201408856
4940 13128 77.94290389773437
4941 4942 79.33916377560236
4941 14932 79.2137345999908
4941 16494 78.06065434044652
4942 13407 79.44868682124732
4942 13408 78.18651256079545
4943 4944 80.8069127361365
4943 8240 78.92170196361985
4943 8241 78.42299007441811
4944 14498 78.81240748623681
4944 14499 78.5474578445523
4945 4946 79.10561091145487
4945 13740 78.7123995831873
4945 13741 78.66565415921674
4946 4947 79.3391640301838
4946 11607 78.60431141716731
4946 11608 78.7835247186451
4947 7232 78.496223745717
4947 7233 79.22865504852393
4948 4949 80.12863545412054
4948 14933 78.29561252687557
4948 15562 79.03590863430254
4949 6339 78.18752345388285
4949 6340 79.23166791541479
4950 4951 80.65561005020994
4950 14934 77.97131947999853
4950 16118 79.9116553233902
4951 4952 78.04769007392166
4951 6237 78.84594902904294
4951 6238 78.58945919490097
4952 4953 78.7609122648649
4952 13638 77.76994211368743
4952 13639 79.13511301445746
4953 4954 79.67270026395018
4953 12067 77.53015389201227
4953 12068 79.6809095874547
4954 4955 79.59486070458892
4954 14935 77.60826356398795
4954 16495 80.00068055101487
4955 12897 77.52359541340138
4955 12898 80.21205377486856
4956 9563 101.29241206833233
4956 19204 11.893944997016616
4956 19236 38.15265991881322
4957 10323 79.08266049454187
4957 10324 78.9289019414729
4957 17467 40.97616956091139
4957 19172 275.64836426453854
4958 4959 200.36291977323862
4958 18015 65.808377817962
4958 18590 78.6504223820143
4959 4960 256.83366837618826
4959 13024 78.8922443576152
4959 13025 78.65530876432729
4960 4961 110.23908885995195
4960 6637 73.91627736052598
4960 6638 87.7034052055881
4961 7835 72.76076664741574
4961 7836 80.03204778950752
4962 4963 104.9805801101214
4962 15460 37.71923246173908
4962 15461 55.03891799872983
4963 4964 83.50715698222314
4963 12932 22.901290331471785
4963 20083 30.01889363711991
4964 4965 35.287660299078766
4964 9472 76.78543766979507
4966 6864 227.55227009805856
4966 9459 166.0153961544763
4967 6864 158.48680409191394
4967 9460 154.69724355531645
4968 6865 158.5234482684366
4968 9461 154.28861308301563
4969 4970 79.60478054467865
4969 6866 158.44817004540658
4969 9462 153.95615948534768
4970 4971 78.83879852171
4970 9463 154.42601401414933
4970 13003 78.78830857338616
4971 8132 78.74336587446999
4971 8133 154.95842770362987
4972 4973 79.02782695872752
4972 9464 154.94824028411676
4972 13950 78.8538182953791
4973 4974 79.42886013887667
4973 9027 78.27014304314423
4973 9028 155.83125984894866
4974 4975 79.59547745006122
4974 9465 154.56872352088843
4974 12294 78.9737372615177
4975 4976 79.27106240865835
4975 9466 154.77518055154542
4975 11227 78.91131116223754
4976 4977 79.5053419880661
4976 9467 154.46309486859388
4976 12733 79.2011222129767
4977 4978 79.08794394652155
4977 9468 154.6836536361452
4977 11239 73.72156811725343
4978 4979 87.6532106006882
4978 7937 220.45082484864554
4978 7938 154.04246052559262
4980 4981 116.8185844462179
4980 11836 48.25942901091816
4980 14176 88.48396430236828
4981 4982 66.8601237818147
4981 10379 89.31747917406763
4981 10380 84.6638032492753
4982 4983 65.90865681753644
4982 13476 168.6432286450423
4982 14177 85.28759068822103
4983 13477 167.39842343096663
4983 14178 82.8885379197248
4984 13252 103.42890083008378
4984 13253 108.8581155422875
4984 19336 19.30354397737966
4984 19337 15.643683918402507
4985 11847 76.08115495862158
4985 16764 50.214271213606516
4985 17860 76.96123563355499
4986 4987 127.08114170038637
4986 8268 83.15999516220356
4986 8269 75.57758867925989
4987 4991 28.907100333080113
4987 13732 34.75086657293641
4988 4989 126.49952185750965
4988 10308 75.04464552089847
4988 18342 77.91266447559109
4989 4990 152.84885826054625
4989 11829 75.89009301347707
4989 14170 77.3977128365936
4990 11830 75.71790953945163
4990 13034 77.80814211492407
4990 19930 153.32912658352345
4991 4992 128.37643256758608
4991 11848 47.73177184434166
4992 18612 64.64094122968883
4993 11852 35.882809075278466
4993 17857 57.21766007278772
4994 4995 150.63382485378116
4994 11853 41.1607872302535
4994 17682 52.40473371515598
4995 4996 151.61286470956574
4995 11850 80.72772809867394
4995 12895 72.84819313399126
4996 11851 78.68184551696461
4996 14168 72.7988518906139
4997 9155 78.34270349743105
4997 9156 29.59655486325246
4997 11066 157.7662676147952
4998 4999 223.1343771894538
4998 7031 148.82920700098464
4998 8951 92.32561758604501
5000 5001 77.9492406013671
5000 8111 79.31732299193438
5000 14421 79.6264465332004
5000 18608 86.4512387922572
5001 5002 85.69081250015779
5001 8112 79.32004101390096
5001 12789 79.61600219959446
5002 5003 81.53339466980476
5002 8113 79.26937685086224
5002 11292 79.78423362391594
5003 5004 83.64350471024892
5003 8114 79.31724210389008
5003 15592 79.63049092839435
5004 5005 88.32796832350054
5004 6701 79.31994387615431
5004 6702 79.6262758885355
5005 5006 82.84365794436754
5005 8115 79.30983543019329
5005 15261 79.6262106645227
5006 5007 82.33148083247494
5006 8116 79.30664605117283
5006 14694 79.6306126568071
5007 5008 45.43033781855366
5007 6561 79.31976939691788
5007 6562 79.61571614319459
5008 5009 80.13421458835379
5008 6546 79.61540101879366
5008 6547 79.62236913422085
5009 15753 79.45013277077952
5009 17261 85.98996076380716
5009 18450 79.37577299972568
5010 5011 237.76568497540978
5010 6812 272.44581894408486
5010 8117 80.17141036942358
5011 5012 77.94866883051802
5011 6811 78.52147679336684
5011 6812 80.2615941062332
5012 8119 76.60183416437815
5012 14901 82.02697004800085
5013 5014 68.57927592391096
5013 7008 316.9330208983155
5013 7297 215.30381962690214
5014 8634 400.0114893604954
5014 18048 30.777250481538548
5015 5016 52.094481593399834
5015 6077 76.34996656937888
5015 7543 362.80650201987345
5016 5017 56.77567253245373
5017 6078 137.01060457078742
5018 5019 100.99257293034823
5018 6084 289.456572134372
5018 18887 20.624426243992417
5019 6086 231.5753014425251
5019 9524 60.002323470622464
5020 6033 96.46398819776995
5020 9172 125.32537833953954
5022 7018 167.85153308825764
5022 9327 240.39605688023198
5022 17579 83.92289145326325
5023 5024 81.91280336705218
5023 11204 170.1989717249699
5023 13958 111.37386489818223
5024 5025 83.26160706413316
5024 8311 190.15389201097372
5024 11202 170.5677630163295
5025 5026 78.53765342940844
5025 6894 191.6447724550834
5025 6895 171.01374984608435
5026 7585 192.91450363136084
5026 7586 171.4520250999325
5027 8316 200.27634477873522
5027 11206 269.4226635810015
5027 13722 56.843695863727
5028 5029 83.01120287027196
5028 10357 121.40289125803922
5028 13975 297.60932308243224
5030 5031 302.6123202696482
5030 6786 79.34506395138374
5030 14848 115.38636485523418
5032 5033 270.8409176776407
5032 13272 200.7653078302597
5032 17289 85.9599153292024
5033 5034 182.98321138217884
5033 15950 97.5669545473337
5034 14755 200.57307268380896
5034 19785 102.48774636926359
5035 7613 190.1223108359044
5035 7614 330.7234601292234
5035 16628 204.01124340834673
5036 19167 359.0927232275276
5036 19601 604.1404017200555
5038 17420 354.56368255817404
5039 16865 431.37596880299554
5040 18782 830.0209622694001
5042 16870 594.3341146160653
5042 17810 447.1303114172955
5044 6601 140.82783555144576
5044 15683 501.00753052610264
5046 5135 100.60780094884954
5046 9490 34.07227046432247
5046 9491 52.780271021146774
5047 9490 52.3065754972148
5048 5144 104.83963135166582
5048 6739 342.5734531931886
5048 12331 296.0800284023167
5049 5050 39.64039653437547
5049 8150 78.433314656947
5049 14606 53.07882238768811
5050 5051 109.78385011638403
5051 8151 79.11918693660797
5051 17480 49.842095922256405
5052 5053 28.837941593711456
5052 8152 113.43652948427969
5052 17480 157.8741359949803
5053 5054 78.88375042541513
5053 8153 80.83106378101431
5054 5055 79.1253572613205
5054 8299 157.80040149871863
5054 14650 158.92352577741084
5055 5056 79.11770036809665
5055 13994 158.9858041094554
5056 5057 79.09173249501266
5056 8301 158.0998913921695
5056 10167 160.37618064288083
5057 5058 79.05102982742761
5057 8302 158.38195525430734
5057 15133 158.69552827512447
5058 5059 78.99201648388312
5058 8303 158.50108183376346
5058 12844 159.78477960874318
5059 8304 159.44418216148523
5059 14208 159.41089171655028
5060 5061 78.68500547231103
5060 8305 158.61746597455078
5060 9748 158.10607096633223
5061 5062 79.29426738717356
5061 8306 158.1919491648072
5061 16617 158.2033399081625
5062 5063 79.08071475632399
5062 7399 157.55909364548853
5062 7400 159.901999095929
5063 8307 152.586085254274
5063 15556 157.7468168135768
5064 5065 23.449905059861752
5064 7669 195.47621049367788
5065 5066 55.653802703162114
5065 7664 258.04114648199817
5066 5067 40.45905573532242
5066 18784 115.14452434677301
5067 5068 64.7335073912216
5067 16515 125.17704267095314
5068 5069 148.82991406104736
5068 7731 97.78779707696415
5068 7732 86.59718387903763
5069 5070 151.60049674579378
5069 8308 92.51268282519523
5069 16122 91.8928874163765
5070 5071 129.17874221576145
5070 11445 183.58271411017557
5070 11446 185.04048956951863
5071 5072 15.128278982063264
5071 8321 72.95644837460051
5073 8309 88.42324773545147
5074 5075 96.94839510894461
5074 6458 123.08285078993542
5074 11978 190.98450675346461
5075 5076 107.98266161248148
5075 6123 248.1484570859897
5075 6124 121.6720160284658
5076 14927 268.2808006260791
5076 18931 181.43499523515132
5077 18932 96.2636507361096
5078 5079 172.93098449226272
5078 5871 143.1758922167871
5078 17260 415.1914557084668
5079 5080 246.39475235287858
5079 14052 193.3730256952113
5079 17939 729.2265807853807
5080 5081 188.3415021303839
5080 14053 193.350929238924
5081 5082 79.19926651686659
5081 11979 289.69728643142963
5082 5083 83.59530918071265
5082 13684 258.49166029218225
5083 5084 35.503809685573486
5083 13684 179.7360606413407
5084 5085 43.183040424609544
5084 6435 156.56281938254045
5085 5086 48.131780177141174
5085 11982 260.66360025298326
5086 5087 73.58533309899444
5086 6436 123.88999304147853
5087 7134 44.323248908838
5088 5089 80.44575358244151
5088 5423 81.85527526154533
5088 5424 80.9746348405025
5089 11984 218.01177457812943
5089 14673 119.87684079178091
5090 5091 82.48416038155212
5090 11985 217.4854689891775
5090 13583 72.11098530171483
5091 5092 80.72041003607055
5091 5879 108.1150045558231
5091 6467 94.45785658327156
5092 5093 78.9099557305985
5092 5880 110.12781216496178
5093 5094 80.21187653050589
5093 5881 110.41675801060575
5094 5882 110.33890498620983
5095 5883 109.871902270224
5095 6438 110.17262037543995
5096 5884 110.15112586282378
5097 5098 49.082994507377904
5097 5872 109.63843307133364
5098 5099 79.94691309464555
5098 6443 216.69520715968733
5099 5100 79.02776516835779
5099 6443 137.10541581903064
5100 5101 115.47469502894344
5100 5885 83.40014871378557
5100 6449 90.44825058902569
5101 5886 86.27640995112844
5101 6450 86.26626517154871
5102 5103 199.55976747274306
5102 5888 85.87037751626629
5102 6451 86.62338400496891
5103 5118 41.28677065184499
5103 5890 81.9963764657414
5104 5105 80.81656187990583
5104 18561 188.06469982328545
5105 16481 51.9949199190323
5105 17256 61.25746885521894
5106 5107 96.01178780958051
5107 5108 200.74554615742818
5107 6440 74.43417018846101
5107 10334 52.36176556831989
5108 5109 201.48563479267045
5108 6441 73.8290561824873
5108 8575 72.62399007798463
5109 6442 74.2603345232229
5109 19306 5.02703948494129
5110 18353 141.37599855892566
5111 5112 128.68800797753175
5112 5113 95.75227896193256
5112 5128 35.171151114095835
5113 5114 52.64591823168685
5113 18862 99.19664817574878
5114 5128 180.38080315221762
5114 18636 32.603506361927614
5115 5116 77.88287811762287
5115 5875 126.66286442033372
5116 5117 62.4855118203575
5116 5901 80.55312332033495
5117 17505 237.90835260590606
5118 5119 75.50373191859457
5118 6452 44.61550896772353
5119 5120 75.56609987128738
5119 5179 133.7791332309966
5120 5121 74.63853669920796
5120 5891 133.7011223118907
5121 5122 76.29842974940199
5121 5892 133.2236161458041
5122 5123 101.09569920861851
5122 6444 55.40116959640488
5122 10331 68.75259253914156
5123 5124 100.64572834301391
5123 6445 51.895173268877144
5123 10332 71.88820359934779
5124 6446 51.672816476805465
5124 9955 73.37428986207321
5126 5127 94.19109433266584
5126 5905 78.23008989742743
5126 6447 67.80744370880775
5129 5130 117.27127537707985
5129 5865 75.34337175820548
5129 14145 47.11919980452188
5130 5866 76.11384123842463
5130 8036 102.92238420319761
5131 5132 96.66762590644407
5132 12819 404.62988442465667
5133 5134 156.61440998884797
5133 6795 304.2978916320479
5133 8901 282.84112934281495
5133 13096 38.928619663163985
5134 5135 199.45436540726024
5134 14990 44.423811528248486
5135 13095 321.7606676366696
5136 5137 104.1826000893171
5136 7680 147.60557896449842
5136 15403 401.54532717935774
5137 5138 84.83735702936744
5137 14426 402.87518612911674
5137 14427 54.161386650801795
5138 5139 85.39956878998613
5138 7918 400.19909996496926
5139 16172 400.86481275046896
5140 5141 80.21623059640558
5140 13363 89.59416905728386
5140 15609 391.0697478212099
5141 10329 400.9377744932408
5141 14840 191.25467398240863
5142 7308 83.93092812738217
5142 16405 88.23906177562237
5143 17429 313.7052113253974
5144 5145 388.59264165831536
5144 18057 253.7904481621622
5145 5146 98.91955386700303
5145 7824 98.93099405140563
5145 7825 195.8658182366181
5146 5147 62.44955803580217
5146 7624 144.57751778965468
5146 12333 394.7778930758405
5148 6603 40.954198122859076
5148 7305 79.07161205751278
5149 5150 65.92797149360418
5149 6045 253.9390437743913
5150 6046 216.53632228850464
5150 10992 81.68168076515474
5151 5152 197.336290308406
5151 5752 58.27841044964606
5151 9634 60.273502115248334
5152 5753 60.166909684594955
5152 9635 59.33463869011324
5153 5154 171.70189512045818
5153 14268 101.98404217039905
5153 15928 99.31748484494378
5154 5163 19.345451214245102
5154 5999 99.91130168411432
5155 5156 149.78269784204028
5155 12107 76.23830447188043
5155 14259 72.17044807716823
5156 12108 76.62631456525385
5156 13035 72.87319125887974
5156 17845 154.539682941054
5157 5158 190.98924924310808
5157 12109 59.39334436756809
5157 14260 81.22300012161674
5157 17844 10.363956244777738
5158 7842 79.33266471239558
5158 18936 81.95165182601902
5159 12097 79.96155455825136
5159 14264 81.37245942967738
5159 17885 190.68583205096843
5160 5161 174.42156146510783
5160 13248 73.5047990956946
5160 18983 6.429707091114057
5161 5162 33.55867717187742
5161 11913 84.56195401571732
5163 5164 264.389405954578
5163 6000 78.73095275363485
5164 5165 265.7344093281163
5164 12098 75.10091011220386
5164 14056 118.96067823329962
5165 5166 76.48160684592449
5165 12099 76.52750340282003
5165 14269 115.37028997619983
5166 5167 194.01494329315793
5166 14270 115.4132603460769
5167 12101 24.743816595660462
5167 14272 112.69277931864264
5168 5169 101.6758691442555
5169 5170 105.0947102856697
5169 12102 80.28024925850809
5169 13939 80.444181422879
5170 5171 95.58909240747354
5170 12103 80.19613775454388
5170 12297 81.06922289828546
5171 5172 100.47060679217984
5171 11235 81.44472924840218
5172 12732 79.75427085384196
5172 17144 79.60571563450394
5173 5174 86.25542380134247
5173 10978 72.35450249778474
5173 10979 75.67449031081921
5174 5175 105.22956428904992
5174 5518 73.38272234904186
5174 5519 74.8084550195954
5175 5176 90.44917565924226
5175 11523 73.06458855799947
5175 11524 75.16021151440012
5176 10311 72.90884439970459
5176 10312 45.54787490920874
5177 12106 99.31010591201903
5178 6063 28.633394219791647
5179 5891 75.06563171447964
5179 18466 75.36178826601932
5180 5181 150.65384607081228
5181 8531 119.64619844253822
5181 8787 24.49464470022516
5182 11630 53.572342203827226
5183 14265 100.45676646595942
5183 16732 100.67539649762541
5184 5185 88.10242933371524
5184 5653 393.87675755059274
5186 5187 473.71499427489124
5186 11824 153.67931095260877
5186 15061 295.0892756301
5187 5188 248.45028874956128
5187 15061 397.9698140674707
5188 5189 274.7708912477088
5188 15238 99.76370664119865
5190 5191 79.17988870640353
5190 13552 80.05645182982813
5190 19428 78.72321121053405
5191 19432 81.06667874109657
5192 19435 83.17572283066139
5192 19436 97.65874064484187
5192 19438 74.86187540640925
5193 17342 79.35982097600294
5193 17347 8.974936226360388
5194 5195 79.43943962345188
5194 8641 79.53143267244592
5195 5196 78.64730849560259
5195 13546 78.90530471155901
5196 5197 77.95060753118818
5196 13547 79.22321452287744
5197 11167 79.15591208772864
5198 13548 79.39829966151562
5199 5200 78.59987045049581
5199 6624 79.43567791185446
5200 5201 79.49609969790532
5200 12322 79.4538808210892
5201 17266 79.48629789332011
5201 17309 78.34292169057505
5202 5203 79.15136842145883
5202 13549 79.53133249156059
5202 17309 79.38738015198916
5203 6517 79.55731299116376
5204 9527 158.5023076502379
5205 5206 130.46114074178575
5205 7546 38.06645553263632
5206 13361 194.15552385768112
5207 11825 501.48789307510873
5207 12289 99.68959771716852
5207 19972 233.76436892495533
5208 5209 96.1532976884719
5208 7202 371.2954886173805
5208 7826 242.55487976779835
5209 5210 117.14998870229459
5209 14091 202.26041980340483
5211 5212 49.03397834363076
5211 11726 38.68372725753287
5211 14093 91.50397317227062
5212 5213 81.7460940718407
5212 6534 40.648465730593074
5213 5214 63.04881461393692
5213 14094 75.99969868461531
5214 5215 43.30334510344444
5216 6329 69.51252488555824
5216 6604 40.402889698813325
5216 14090 63.18016355814407
5217 5218 318.63554987569773
5217 14086 109.35125999264099
5217 15020 83.66290763773614
5219 5220 140.85129370200636
5220 6149 74.75944436873317
5220 15019 87.76083082822012
5221 14083 100.94279100135478
5221 14882 46.16211959973131
5221 18217 147.52657904916612
5222 14084 103.18069970099927
5222 14756 98.95954076619628
5222 18217 226.13389630615015
5223 5224 109.872503733357
5223 5227 82.97738684248014
5223 7664 66.27921203997849
5224 13016 84.3873505520878
5224 13830 46.34486351145694
5225 8985 159.04672350500832
5225 17570 85.380368581807
5226 5227 119.71838616084491
5226 12739 77.875121758765
5226 12740 115.1403140654442
5227 7663 84.53527881614465
5227 13016 109.9967631265252
5228 5238 17.6288120082344
5228 13019 58.78789256307063
5229 13824 87.8821973488661
5230 5231 142.87988926011457
5230 9834 76.34513288617303
5230 11459 74.36132687277552
5231 5232 139.60715016503661
5231 9266 76.04333736270321
5231 9267 74.13159812025218
5232 5233 147.98756900431198
5232 9835 76.06269575509715
5232 13826 74.20829035898059
5233 5234 134.8928047192857
5233 9836 78.20879637936962
5233 17569 74.55978320381516
5234 5235 109.58280511772809
5234 9837 79.48586503664983
5234 17572 76.17537286468799
5235 9838 79.23010783923678
5236 5237 224.6160670136198
5236 7729 76.00364689421687
5236 19660 24.218836389978442
5237 5238 220.84600375294966
5237 10159 76.23041751016035
5237 10160 45.826100394993134
5238 13832 46.65798254990649
5239 7188 78.82228967426552
5239 7189 62.64233925658009
5239 11069 171.05304407771177
5240 5241 75.69079012172514
5240 6386 201.7532273878182
5240 6387 166.2705812336785
5241 5242 76.00151004069548
5241 10550 165.43822193128474
5241 14985 201.04103101557678
5242 5243 73.72931850191333
5242 10551 164.4590894866442
5242 14987 200.3737640602086
5243 5625 201.22740699632882
5243 5626 163.6615674999336
5243 18187 9.223837315782491
5244 5245 78.95997510919973
5244 10552 162.50082698221414
5244 14988 201.1540742444858
5244 18187 73.82975791500773
5245 5246 79.03726249950161
5245 10553 161.6338953741427
5245 16524 81.39548988405147
5246 10554 160.63250944821797
5247 5248 186.1702270974167
5247 6472 140.12224109618444
5247 15726 92.91690342499054
5247 19047 22.932226202366643
5248 5249 35.09413855221174
5248 13835 25.24606937624889
5249 5250 108.0893246883595
5249 13835 28.78074276466419
5250 5251 31.02807710195801
5250 11536 112.34742279653855
5251 5252 23.398929748685767
5251 13833 100.53055202954431
5252 5253 132.6004700421747
5252 7011 74.72386760904969
5252 11554 79.34542188155301
5253 5254 133.0878027201122
5253 10425 76.07445825705858
5253 10426 76.28800056958119
5254 5255 132.83857541559334
5254 9393 76.00193039355482
5254 9394 76.18011106292727
5255 5256 244.44297639677796
5255 15442 75.91319661210053
5255 16051 76.33546471614349
5256 5257 83.54484303062993
5256 15443 76.38004669945175
5256 16766 77.00292713735013
5257 5258 83.68416551357953
5257 10549 154.75020551153895
5257 11802 152.1594249490601
5258 5259 83.03802999983597
5258 9521 361.78262279514456
5258 15810 152.2721251121116
5259 5260 83.32685001155923
5259 7167 152.359538642419
5260 5261 83.49737566384069
5260 15156 152.41557952059506
5261 5262 166.5900072358187
5261 9520 152.53776628372034
5261 9521 77.68354392252274
5262 5263 254.79039879086574
5262 7973 108.4812422433623
5262 14975 296.52032002604
5263 16773 38.942015182245164
5263 17050 36.31939151164403
5264 5265 79.5164840357848
5264 14323 106.84674120511475
5264 14877 105.72245540504663
5264 19337 69.31146918839072
5265 5266 78.97093466429503
5265 10816 107.14205744945535
5265 10817 104.5706586770794
5266 5267 79.09659962993213
5266 14324 106.71237557969702
5266 16490 104.46786352809636
5267 5268 78.89983949235828
5267 14325 107.36754418252318
5267 16458 103.39263330217696
5268 5269 80.6786353495811
5268 14326 95.58552948715786
5268 14740 104.96452809690074
5269 5270 110.23333012783979
5269 14327 96.80968035282703
5269 16386 104.21925869994243
5270 8417 102.61042076060308
5270 14334 177.62305146134344
5270 18730 244.98208991221304
5271 5272 118.01544336488179
5271 7374 104.80039184536521
5271 7375 90.95738129005308
5271 18733 77.47252374645271
5272 7039 102.04795148527863
5272 7040 93.1170159650818
5272 18529 75.3402860220524
5273 5274 139.97255451784503
5273 12165 79.03267239536676
5273 14336 78.44020683726606
5274 5275 140.75082321670928
5274 12166 78.99134316993926
5274 14337 79.07736029379808
5275 5276 109.50492354021212
5275 12167 79.20005362622935
5275 14338 79.17709714206904
5276 11142 62.90549741068635
5276 11143 79.07385491337212
5277 10900 49.568617954949545
5277 10901 177.7228627254656
5277 15551 260.3231850468965
5278 5279 162.68404764173937
5278 7454 79.30943447457744
5278 7455 80.09495921472349
5279 12159 80.37313304391759
5279 14331 79.67490410382455
5280 5281 181.5503701134122
5280 12161 80.4053160109237
5280 14332 80.2699075626499
5281 5282 186.31097708100856
5281 12162 79.18599375078529
5281 14333 78.90753574818955
5282 11312 78.92044392981481
5282 11313 79.00465267299015
5283 12163 78.74424774124289
5284 5285 246.94050130154332
5284 8950 159.96286422969018
5284 9261 93.86758477629793
5285 5286 95.37251332609281
5285 8562 123.41339839537142
5286 8562 108.19513119642494
5286 19688 230.9599849640416
5287 5288 109.41815718658424
5287 17545 741.3038516569654
5288 8951 1146.4579836014314
5289 5290 110.25499374148762
5290 9196 11.315807039664184
5291 5292 98.68792969216864
5291 14069 111.52866136203576
5291 14070 133.51164611646558
5292 5293 81.00277988563491
5292 14250 86.94944668519591
5292 17538 94.80326908377279
5294 18300 113.15577669367381
5295 5296 116.78069968712394
5295 11783 42.808910218817026
5295 19944 278.04158861872685
5297 5298 44.80935982931022
5297 8279 13.933628149911454
5298 14445 97.63175099023219
5298 15220 99.17757195661372
5299 14240 38.26268616697011
5299 18367 116.1229183399112
5300 5301 159.06005892841893
5301 5302 164.42756228311328
5301 13907 85.2166170219055
5301 19098 83.672458109027
5302 5303 143.03826245885367
5302 9831 85.30506620286206
5304 5305 82.88870896132903
5304 5336 14.258272881596495
5304 13110 64.17135741401376
5305 5306 81.73330164616384
5305 7743 168.33502509348028
5305 12528 143.6110695532156
5306 7744 164.62025251835024
5306 12529 142.7068214163791
5307 5308 77.17787227942904
5307 7745 157.69777212839819
5307 12530 142.53721663579233
5308 5309 37.99181948416644
5308 12531 138.08621019741508
5308 17782 157.04721834546987
5309 5310 37.67293384746103
5309 7275 238.98031871326327
5310 5311 129.94695966281563
5310 12532 131.70903597585018
5311 7275 79.97206479641325
5312 5313 31.7906753917699
5312 14115 79.58909318453074
5313 5314 73.17749123721653
5313 12534 119.07455014339922
5314 6348 118.94894388107298
5314 6365 110.4254788283876
5315 5316 165.28756980803755
5315 9426 43.085790475504
5315 14109 85.91883262716824
5315 17368 30.600160259031384
5316 5317 134.4070650170451
5316 14110 79.69247416502178
5316 14602 80.06825989826037
5317 5318 198.2714841811134
5317 9167 78.9842440113683
5318 5319 202.5761017192008
5318 14257 47.037781633098575
5318 15926 77.70723215847426
5319 5320 198.31741282729072
5319 6021 77.64542295830852
5319 6022 43.750057980808165
5320 5321 199.6956788847623
5320 14111 90.05325220018791
5320 14786 77.60669729519148
5321 14464 76.41677234693687
5321 18562 6.067317986169868
5322 5323 200.20679298276633
5322 14113 82.08443063985973
5322 16274 84.07154108982506
5322 18562 200.62447701678326
5323 14114 82.00171538777437
5323 16320 82.02388821007412
5324 5325 129.85735139362015
5324 5540 103.26229898303073
5324 17694 135.70853956474173
5324 20095 141.58222231951464
5326 11466 193.51957640356744
5326 11467 95.29065709714891
5326 19954 191.26621589291386
5327 5328 75.80183343205519
5327 6634 184.33319858878835
5327 19955 55.264619257913566
5328 5329 76.54781039820944
5328 12540 184.91194640113423
5328 14118 93.91345661514656
5329 7840 186.060462887707
5330 10397 76.79187134849387
5330 10398 74.0537360851653
5331 5332 126.01670244762755
5331 12543 159.45192695200808
5331 14116 74.79929311476846
5332 5333 95.80961407639973
5332 12544 159.52475217702607
5332 14117 75.02708217524109
5334 5335 184.86220639028951
5334 13241 79.2353171950898
5334 13242 78.99805286872108
5335 5336 219.3549160699331
5335 11889 78.95615955832625
5335 11890 79.28347674598828
5336 13111 79.19165853608874
5337 5338 142.33876577290442
5337 6455 160.15022034744558
5337 6456 78.16762485354218
5338 9426 39.14604309030348
5338 17368 26.935530076610036
5339 5340 147.45022583173682
5339 8926 44.95997366015255
5339 8927 75.75401606651043
5341 15446 205.23398769783432
5341 18011 154.27215827476044
5341 19927 124.1082219631153
5342 18120 87.67332020953924
5343 18120 622.5414864407686
5344 5345 556.7953190882058
5344 10695 273.9174542852254
5344 10915 157.9969409493502
5345 10555 246.83406453265482
5345 12254 46.94153658418812
5346 5347 143.64510796023106
5346 12040 78.94026035789854
5346 17919 69.59064306800114
5347 5348 158.34544688333202
5347 12180 78.90962513836163
5347 14399 78.97183138429833
5348 5349 106.6478346320044
5348 12181 79.24231742918226
5348 14400 80.30241541656636
5349 5350 79.6288861241088
5349 8697 90.33578004104447
5349 8698 90.7934191250451
5350 11317 78.88006782893616
5350 11318 78.80942673074568
5351 5352 79.39432271248353
5351 12182 78.85235186456303
5351 14401 79.29613499279925
5352 5353 79.41694933888704
5352 5650 200.95995923090587
5353 5354 79.40607243728553
5353 9103 201.101304083804
5353 12183 78.84239214111773
5354 5355 79.26073694758009
5354 9104 199.53763633253158
5355 5356 82.26559034671351
5355 10491 78.74725476652897
5356 5357 72.4331471828016
5356 19575 111.57038595054168
5357 12184 78.58953780760622
5357 19576 75.8843922382986
5358 9676 75.5799758936458
5358 9677 78.89653164249351
5359 5360 126.99731628088003
5360 5361 152.6102211895283
5360 7047 100.65538796331384
5361 5362 24.12616822272179
5361 14392 48.87074312459877
5362 12177 73.24646606264022
5363 5364 131.59757438475214
5363 12178 72.89787435312303
5363 14393 72.33942080545839
5364 12179 72.84012711038068
5364 14395 73.5666341877709
5365 5366 257.35438542222926
5365 10808 78.95682451068836
5365 10809 113.41540970462384
5365 18983 143.61031832513663
5366 14741 114.41701621440247
5366 18987 10.064835048345552
5367 5368 122.89236913788928
5367 12185 81.80271078885967
5367 14385 78.53417357061647
5367 18987 79.5338850208627
5368 5369 98.15216037010627
5368 12186 81.52956323467916
5368 14386 79.97083816212135
5369 5370 80.28725591456833
5369 9905 170.4660598948227
5369 10132 215.22796050389996
5370 5371 51.341690231132525
5370 12187 89.92080806850583
5371 5638 148.74792381830835
5372 5373 95.11863400745706
5372 14754 105.28543305389331
5374 16541 78.96305367749997
5375 5376 79.75589353066627
5375 7199 321.3108184346308
5376 5377 78.40506530004683
5376 8660 362.6850297890993
5377 8167 203.4281593767031
5377 8660 305.7432202371118
5378 5379 167.61546995935788
5378 17015 100.64699544042989
5380 8162 97.26869576313649
5381 5382 159.94750954889327
5381 11728 45.99355913476339
5381 13289 110.20533120461006
5382 5383 64.65371023952281
5382 9735 31.81352974019126
5383 5384 286.9189378233648
5383 9734 70.522632464432
5386 5387 77.98719672779242
5386 8969 61.37754995186046
5386 10954 69.77875753614572
5386 13115 157.82167652334897
5387 8970 62.53749892081058
5387 14078 156.11175367369117
5388 13849 76.28952239587807
5388 18958 32.63384708950579
5389 5390 78.65990254487448
5389 7117 195.64603976350298
5389 14666 111.95230958658615
5389 19560 79.29389034055923
5390 7118 195.25799802039853
5390 13427 110.99614457753027
5391 5392 79.17160085672285
5391 7119 182.3455593937968
5391 8261 111.52086919131406
5392 5393 79.0822893080392
5392 14494 75.16586245042285
5392 14495 111.49024513305274
5393 5394 78.74479486795066
5393 13753 75.65744332279242
5393 13754 109.00593478002158
5394 5395 79.93884784121234
5394 11623 75.1910325474131
5394 17700 108.33937432772787
5395 7260 75.40313053877804
5395 7261 107.9183520246345
5396 6353 96.10125744486707
5396 17660 67.95810013082209
5397 5398 78.71516986362538
5397 14669 139.99789115684496
5398 5399 80.43963420385548
5398 6223 140.35717317132298
5399 13646 74.60617833462365
5399 13647 138.84039484793635
5399 18690 73.63342567641163
5400 14670 138.26708637445074
5400 18687 74.551246305317
5401 12892 100.32050924861946
5401 12893 138.72949084548628
5402 5413 37.72649919034208
5402 15118 41.163254027803156
5403 5411 22.496018040018903
5403 14791 135.7536489195717
5404 5405 77.50429297349294
5404 14543 142.567050586429
5405 5406 76.05873618176552
5405 15113 143.50562418752583
5406 5407 76.45556834684248
5406 6591 144.21903098890093
5407 15114 145.64667696476192
5408 11042 148.72838218137616
5409 5410 37.9194645641628
5409 13938 113.71358839862943
5411 5412 81.36327370796508
5411 14678 55.57115434141384
5412 14061 75.56699264067464
5413 5414 158.00932582002997
5413 14680 74.26049570411882
5414 5415 158.90896313964808
5414 5492 75.17420718072631
5414 18701 72.83620793175328
5415 10300 78.30911004201641
5415 10301 75.03584331571656
5416 7487 162.46386959204008
5417 5418 75.32396597034968
5417 17716 179.89930576469288
5418 5419 78.67098374713632
5419 5420 125.04108246463942
5419 10370 57.6696883176801
5420 14681 59.143435120144844
5421 5422 81.2503828661521
5421 14672 78.7424462285802
5422 5423 136.19176637164168
5422 11984 78.57985402666536
5423 5869 31.73120670223998
5424 5425 206.3591889506621
5424 6437 123.79262891695463
5426 14682 80.82291039752572
5426 18964 90.55651366819207
5427 5428 234.17321508225254
5427 6030 76.11003878021901
5427 16346 147.7580062987197
5428 5429 51.350321240540886
5428 14797 76.02455709989177
5428 14798 18.908812158759204
5430 9081 180.62970808560334
5431 7284 143.338442122483
5431 9053 286.60158702054787
5432 9064 208.8337597941496
5432 9065 110.30436311368082
5432 9066 182.33745387942764
5433 5434 405.26224285378345
5433 5694 404.7741220167238
5433 16949 195.37938076597266
5434 9048 174.1231892967237
5436 5437 152.07144246495477
5436 8446 57.900929026028166
5436 12039 131.52205978771667
5437 15318 40.7424265711427
5438 5440 74.86906940279765
5438 13697 114.06310090387719
5440 5441 48.96126514171317
5440 14700 176.4827547664795
5441 6157 169.17938843741592
5443 5444 96.31813056605692
5443 12317 290.76957243557865
5443 15324 116.60450687380174
5443 15708 43.51786726086958
5444 15325 107.3081648645419
5445 9113 474.9446011895249
5445 16840 56.76750018063836
5445 18623 243.38480269793922
5446 5447 24.22129586679947
5447 5448 76.37656690433181
5447 7991 152.2051998864837
5447 11164 199.98345689252073
5448 5449 90.07050279900754
5448 7992 152.36937421385977
5448 12036 200.03649846254268
5449 5450 77.21000544483482
5449 7993 151.63865041384423
5449 12711 200.39867018266412
5450 5451 19.582848054942012
5450 8000 252.4429647353656
5452 5453 138.71561446179987
5452 9689 75.91522425258874
5452 9690 76.59251345335919
5453 5454 70.42840323643756
5453 8849 74.94327751108275
5453 8850 76.13893011425054
5454 14254 75.63160245068157
5454 16298 75.68638812177431
5455 5456 203.35371311663442
5455 10821 79.05941855842049
5456 14255 79.56470610744434
5456 14746 78.77777084813005
5457 14256 81.39184158316698
5457 17031 233.26356125656497
5457 17204 16.262714857588747
5458 16355 99.34944412202512
5458 17204 49.84134095091534
5459 5460 76.17436663211438
5459 7987 150.58483369799092
5459 19319 194.800894987303
5460 7988 150.24717691620515
5460 12708 200.46712346337674
5461 5462 45.84880617195183
5462 7989 149.77889303894528
5462 17619 201.8004005546891
5463 11353 76.77085199899402
5463 11354 75.01834344465489
5464 15084 274.81875044380126
5464 19070 21.288740423546628
5465 5466 78.8818579360854
5465 9931 210.64088503403957
5465 9932 212.33124712113792
5466 5467 84.76408283929436
5466 12658 210.40485711836612
5466 12659 212.97072102014658
5467 5468 84.36468239267049
5467 12707 210.19521837232804
5467 15440 213.17946415914085
5468 16947 54.129822914676964
5468 19766 128.3977346255693
5469 5470 80.50677174355786
5469 10964 74.85587578744008
5469 15446 62.18675141101946
5470 5471 78.9085316536623
5470 10965 74.59031599470487
5471 5472 78.83566363633511
5471 10966 74.75777457211463
5471 11511 79.61483256043905
5472 5473 79.57060894231448
5472 10248 75.28599403984954
5472 10249 79.0719439498499
5473 10967 75.46871534955837
5473 11512 79.18208393459723
5473 19884 74.38158374761584
5474 5475 79.63000857813702
5474 11513 78.6376636961183
5474 15967 150.80832032798185
5474 19883 76.58863150898827
5475 5476 78.98009189213664
5475 11246 83.16638324798562
5476 5477 79.0713422800633
5476 10970 80.03783576989282
5476 11514 79.1495077581838
5477 5478 79.33905931377328
5477 10971 79.17420819731063
5477 11515 79.49488240493797
5478 10972 79.26653167291062
5478 11516 79.39516470816163
5478 18704 72.12834354482582
5479 7074 79.5046241765167
5479 7075 80.20346827845489
5479 18703 163.36983053880513
5480 5481 41.23062063186157
5480 11518 85.43149484271913
5480 17691 18.080342744802998
5481 5482 39.91755520800567
5481 17691 39.6747286119965
5482 5483 78.88396878425203
5482 9362 140.51759779836172
5482 9363 176.41138059846875
5483 5484 79.25866348886375
5483 10294 177.23454578676075
5483 16021 140.17468815439625
5484 5485 78.79806944853121
5484 7710 197.80001965176984
5484 12952 140.7310902246547
5485 5486 79.33560310371342
5485 7709 140.06189245999155
5485 7710 120.19087750755364
5486 11509 120.09307070358058
5486 15232 141.09455690835364
5486 18724 73.08650662984832
5487 10296 176.57927012806263
5487 16177 140.94006633899343
5487 17165 16.74781133391261
5487 19769 18.533376398616053
5488 5489 78.71998799784325
5488 10297 177.0457888624228
5488 11733 140.2614827400996
5488 17165 62.48671945419385
5489 5490 75.8445527709446
5489 10298 176.47849120519857
5489 13685 140.02857963438478
5490 5491 77.2981618458485
5490 10299 176.1917999381031
5490 13919 140.1733268707981
5491 7110 155.52283234614526
5491 7111 160.48807048033515
5492 10962 78.3816764204693
5492 11527 79.59366069684349
5492 17695 100.34658746909206
5493 5494 189.43178632119012
5493 10963 79.07086244128939
5493 11528 79.50525834421893
5493 17696 138.440312160816
5494 8401 79.1612547302049
5494 8402 79.16005976978678
5494 18716 140.71776746295527
5495 10306 194.10264647821717
5495 17692 77.36517484428724
5495 18546 216.35424883132063
5495 18719 72.0802945902485
5496 5497 77.727196177032
5496 10307 205.8152609299771
5496 10975 103.23378662009371
5496 17692 81.01206852493557
5497 5498 78.66948306668525
5497 10976 102.37735629781882
5497 18344 207.2793578007215
5498 5499 68.35270300570689
5498 14169 157.85218284368582
5498 17855 90.5062148216889
5500 5501 84.91098707852271
5501 12466 213.10585975024873
5501 18713 220.8241266025705
5502 5503 69.83085128182722
5502 10310 226.40796225787017
5502 10751 107.84046251235387
5503 5517 26.28659172998381
5503 8996 104.53474251776998
5504 5505 92.19700661694795
5504 12753 181.27180643600596
5504 12754 611.9675979774252
5505 5506 79.76948467815114
5505 16435 238.60974962703887
5506 16435 158.5308311092523
5507 5508 115.02983979534802
5507 11529 91.51383298917594
5507 16187 174.4034771520506
5508 10968 91.93682488185792
5508 11191 90.98052381003666
5510 5511 160.58029726235856
5510 14656 175.87068708773296
5510 18579 360.26815713648807
5511 5512 159.86560306049284
5511 14074 175.2273031894473
5512 5513 162.0296383743735
5512 19711 174.6676758503354
5513 5514 158.17196274861126
5513 12725 176.03715417203423
5513 12726 332.2895731155048
5514 5515 102.0782472667228
5514 11017 175.94724134595734
5514 19027 156.11276320867594
5515 5516 199.67214949683483
5515 10326 221.21386185745732
5515 16182 176.8119400867845
5516 10327 220.75073971882944
5516 11417 175.4112822238726
5517 5518 65.72145721368958
5517 8997 196.67679816977346
5518 10978 87.17861894976161
5518 11523 104.5039880387033
5519 5520 76.9201126864851
5519 10979 85.88795254427164
5519 11524 104.83738298881327
5520 5521 74.15588862686872
5520 11525 105.40280939016998
5521 5522 76.28896725180041
5521 10644 86.42538643676997
5521 10645 104.81363601705041
5522 5528 24.352632418131652
5522 11507 85.6919657873832
5523 5524 144.96245948904723
5523 11521 113.7725395843653
5523 19378 196.72649143586858
5524 11522 124.93984177127132
5524 19946 188.00880861546233
5525 5526 123.9085749689854
5525 19904 147.43668896002947
5525 19915 537.5127282738052
5526 18630 85.67439338884961
5526 19900 193.76728436815023
5527 13382 87.41069099814423
5527 19950 196.32846317263437
5528 5529 75.22894025376318
5528 10980 61.78226136093187
5529 5530 73.64690573493834
5529 9960 85.65786277200107
5530 5531 83.97306671668395
5530 10991 91.96095814814366
5531 5532 140.2260647780837
5531 7908 107.62209912571825
5531 7909 107.87199574435041
5532 5841 215.72931323543705
5532 5842 108.55463067439955
5533 5534 79.60251934748722
5533 8590 215.32904611138946
5533 8591 223.7305520219685
5534 5535 155.76482967064229
5534 10318 224.16199504903597
5534 15963 216.207771105316
5535 5536 71.489086336698
5535 14459 250.43631853922517
5535 15346 217.50056797899856
5536 10042 216.13274277283304
5536 10043 224.23020479463798
5536 19310 75.33098763538116
5537 5538 81.99322479691195
5537 8049 193.60506641220172
5537 8050 145.17645471186995
5537 19310 82.15019109513776
5538 5539 81.60487597153997
5538 6058 169.27602836305965
5538 6059 145.91030880365784
5539 20094 44.30874916273331
5539 20096 49.928876798128044
5540 5541 49.13307414014579
5540 18236 104.5685833645085
5540 19893 135.3071086783147
5541 5542 124.6647333561673
5541 14105 134.63984377010374
5541 14106 316.612457553659
5542 5543 131.71178942907065
5542 14315 275.5283517850644
5542 15365 170.38847885093907
5543 5544 253.63296912823077
5543 14928 206.81426154503993
5544 18266 32.707105598300906
5544 19885 198.47957420848468
5545 5547 43.47266738582262
5545 5864 127.63568347832557
5546 18889 294.51437739982964
5547 6876 175.57148932159393
5547 11053 26.60256360605792
5548 6874 102.18348664516924
5548 6875 226.7009826149004
5549 16287 120.58910968970176
5550 17725 52.60026088976073
5550 17732 117.40346453737062
5551 5552 159.7845302962334
5551 6662 391.43359483173117
5552 8767 42.90305149094729
5552 17906 34.08970782887599
5554 5555 99.64785810804412
5555 5859 74.07387214740703
5555 5860 75.22193793542172
5556 5579 160.92284947406193
5556 20102 49.623392255290455
5557 7346 110.3270752273976
5557 20102 38.60696576941793
5558 5559 156.8662462177447
5558 7033 158.49046693729903
5558 14224 77.99570808235609
5559 15010 78.52246010561505
5560 5561 79.40444079728614
5560 11102 78.3482174777364
5561 6388 39.47345199057317
5561 15011 79.03222822893723
5562 12397 325.4614252616205
5563 5564 609.5288250098961
5563 12313 240.34152966988069
5563 19393 823.0795507770288
5564 5565 46.97364885349369
5564 17425 40.6638324278351
5565 5566 81.96228533099926
5565 17425 40.592550498423044
5565 18788 17.520601155265727
5566 14638 81.06034838181306
5566 17427 103.97696563745453
5567 5568 245.73902434891545
5567 5635 25.73173838740086
5567 17207 311.50125246262246
5568 5569 78.67363150862197
5568 12738 104.95148562038777
5569 5570 109.68490136991372
5569 13803 133.18041668766892
5570 5633 107.20138217940821
5570 12242 80.79721177134307
5570 12243 170.70214047343842
5571 5572 79.85227160115126
5571 8881 80.68498388621659
5571 12398 79.34980840347043
5571 17915 38.57460973732791
5572 5573 78.78246554980113
5572 14862 80.27470826753414
5572 17360 82.40081352069251
5573 10789 79.79090508815025
5573 12244 313.9190638181561
5573 17047 79.4954143748635
5574 5575 80.23531101303742
5574 14726 169.1947450652812
5574 14727 76.57062183656808
5574 17047 163.8471479913784
5575 5576 76.51615909999057
5575 16214 76.81286419750973
5576 5577 74.9656507889737
5576 8404 76.83263287818284
5577 5578 77.26062259312772
5577 16213 77.04169594531191
5578 5579 75.55272934952791
5578 9918 77.95992999398459
5579 5580 88.4349517858051
5579 12651 77.62780432378122
5580 5581 78.07300076844245
5580 15621 78.19254897984034
5581 5582 80.22752840459914
5581 7346 72.10563058372372
5581 7347 77.94007001895089
5582 5583 79.14928291158786
5582 7033 79.26413720295908
5582 7034 78.08031680459895
5583 5584 79.12147690655193
5583 14224 79.43534818674337
5583 14225 78.2918535589589
5584 5585 79.0941303534918
5584 16212 78.0302004113532
5585 15010 79.33273335007696
5585 19951 78.20990480925119
5586 5587 43.583131899300525
5586 11102 78.48067481945127
5586 11103 77.56946601666817
5587 5588 36.22405911596776
5587 17622 46.81282845503354
5588 15011 74.5615835813459
5589 6390 193.15216520838706
5589 17176 7.453474632183776
5589 17184 32.06875672237566
5589 17185 62.22593945664145
5590 5591 107.28379687193313
5590 6391 193.41420969044702
5590 17177 7.468990507962632
5590 17185 44.155967059934426
5591 5592 105.89325259793291
5591 6392 192.529916761527
5591 17162 9.136584929231915
5592 5593 27.038852928540713
5592 6393 193.76815832764507
5593 5594 81.21928453572497
5593 16973 9.56358347267306
5594 5595 107.85644522562879
5594 6394 192.03240822043395
5594 17186 9.174067565383332
5595 6395 193.47873433884428
5595 16971 7.3126831135889265
5595 18492 84.84286811737228
5596 5597 19.977560074583597
5596 6397 189.1737575823975
5596 18492 85.86654366812304
5597 5598 59.27942194827936
5597 18491 96.27980181119761
5597 19533 236.42509312007604
5598 6398 194.36615665996015
5598 18837 13.36583287878965
5599 6399 189.2078378238
5599 18837 67.16465989072373
5599 18838 24.27267390589439
5600 5601 88.24868777909718
5600 6400 277.7227984234353
5600 16968 48.23852883384417
5600 16969 35.51262445697333
5601 5602 139.94358660231362
5601 15692 77.3330538046793
5601 17178 10.298898395068807
5602 5603 141.46532485814106
5602 16198 79.02534301655504
5602 17179 7.36941573063423
5603 5604 140.73034759904925
5603 10480 79.80625797632368
5603 17180 7.444115795785357
5604 5605 140.17469764881204
5604 16199 79.97858240073494
5604 17181 10.390368689916547
5605 15744 80.34770999968224
5606 9637 77.04964008985304
5606 17183 106.53789356302195
5606 17968 74.53329802124487
5607 5608 140.48352823462497
5607 8814 77.68136947351715
5607 17968 27.41714525815199
5608 5946 77.51684944373609
5608 17610 161.64603475852377
5609 5610 100.63926179154299
5609 15981 74.82012026008708
5609 17610 10.378199786201327
5609 17611 201.64689362438884
5610 5611 67.39681195569801
5610 16210 75.09121867275384
5611 13563 232.87617736679556
5611 17898 16.430714967721286
5612 5613 22.603540298467728
5612 7424 91.88500669089319
5612 18807 126.74482391321327
5613 5614 104.174115389145
5613 7409 136.37526107360333
5614 5615 72.70142918032114
5614 16302 137.77227925291206
5614 18807 10.199183271260837
5615 13571 208.31850861300677
5615 17899 28.240590925211215
5616 5617 21.817088822901304
5616 10899 93.52233097979769
5616 17899 24.164754578684345
5617 5618 87.65705094000899
5617 10908 212.87793426299487
5618 5619 31.168201257008207
5618 16738 137.38715601887586
5619 16201 93.5353757343033
5620 5621 113.46073641122047
5620 16202 93.28436850861605
5620 16215 78.4252757447525
5621 5622 32.48053544424038
5621 16216 78.22985991844008
5622 5623 60.24634176510099
5622 10171 93.20382668139315
5623 10178 78.23420232134674
5623 17900 24.596668147840173
5624 12155 88.33584251277992
5624 17900 56.922088239096155
5624 17901 29.380166874144564
5625 14987 78.27646752533335
5625 14988 78.3083351030845
5625 17901 84.37562312579854
5625 18187 201.34043935170845
5626 5627 130.61065546503562
5626 10551 72.98802286173674
5626 18188 10.23681845140197
5627 5628 76.39321263660761
5627 15938 73.27345977864272
5627 18189 10.422048294263682
5628 5629 77.7085923267096
5628 8198 149.75189288312288
5629 15612 155.52532233977172
5629 16032 155.77477410087906
5629 18190 78.0912628409766
5629 18191 41.49800840607449
5630 11448 150.57346015540082
5630 18191 35.10216597703659
5630 18193 34.87221502435818
5631 5632 80.2174009289276
5631 15542 155.94999817961886
5631 15543 155.27269825871443
5631 18193 47.74781436365954
5632 14014 156.33657626064843
5632 19096 62.5717677683777
5633 5634 79.76311308736943
5633 13804 88.51052610992977
5634 5635 227.93510152347073
5634 13804 191.9815173051716
5635 5636 726.8888445189244
5636 13805 41.44377047935242
5636 18788 27.7789844913887
5637 10920 35.26552521080027
5637 10921 187.98506943339862
5638 12187 132.21483254429785
5638 15630 210.64770964180371
5639 5697 38.39766631210364
5639 15697 73.3590006311376
5640 5641 202.60993841275717
5640 12713 79.62165288118408
5640 20108 79.67457987726691
5640 20125 27.24525388979301
5641 5642 197.77690774728177
5641 14252 79.71767271268946
5641 14253 79.39916152707463
5642 5643 161.89216837370515
5642 15437 79.57744450970802
5642 15438 79.55269836092303
5643 5644 76.08104905868113
5643 6296 79.36100453904041
5643 6297 78.76212967034267
5645 14999 44.20624870325656
5645 15000 406.8985907651705
5645 15003 76.05445031646055
5646 5647 112.89333747138257
5646 10601 37.34706422484274
5647 8734 181.11750430934893
5648 5649 66.63040703758212
5648 8732 431.3801584618683
5648 17445 23.648114424143074
5650 9102 79.0884229464075
5650 9103 79.5491259821786
5651 10095 188.33872357947473
5651 10096 108.28469900763488
5652 5653 83.33669964331472
5653 9043 171.23797682821825
5654 15452 166.52110167172037
5654 15453 119.45932598791293
5654 16401 175.06241021620028
5655 8641 73.59508140699359
5655 17791 10.88426240780303
5655 19327 68.1065593577061
5655 19451 80.98918732335062
5656 5657 77.60851427187495
5656 13547 73.23133655765093
5656 17203 12.215939237626406
5656 19451 79.04767987851551
5657 11167 73.99821384499089
5657 17201 10.33432003497208
5657 17283 81.58079397268378
5658 13548 73.75194906279287
5658 17202 80.62258805354364
5658 17282 12.009321736498498
5658 17283 76.82353652485386
5659 18943 52.50085769748077
5659 18944 14.109214157079517
5660 12322 75.73879070380904
5660 18942 15.908068381939431
5660 18943 14.70537016977386
5661 5662 79.08512641481185
5661 6976 74.16382453786558
5661 7103 80.00849804696706
5661 17264 78.2803295299406
5662 5663 79.42090220290513
5662 12047 41.16500503022523
5662 13549 79.21083430477508
5663 6281 88.4265288399397
5663 6517 79.14050217706733
5664 5665 26.379545695463207
5664 13551 79.32038197802551
5665 11584 69.4669297999682
5665 19427 55.22144471636879
5666 11585 53.68883037666357
5666 18977 71.29863916821195
5666 19004 77.61355222821575
5666 19432 56.39858242947904
5666 19433 79.28246656949841
5667 13506 18.930876241475936
5667 19274 41.922845645282344
5667 19434 80.19765200413093
5668 11171 162.11368049793342
5668 19274 35.10898589900852
5668 19435 105.36422034659711
5668 19436 85.76351538630352
5669 9339 89.25460823872552
5669 19437 36.73427326339183
5669 19439 44.31536788842517
5670 5671 47.18800363627915
5670 17062 89.89434934986048
5670 19445 97.39522122262721
5671 5672 66.37824564986725
5671 10458 191.68396894048556
5672 5673 481.82295024226187
5673 10672 395.20287977274825
5675 10670 133.4736709381068
5676 5677 80.44867644117602
5676 6291 134.91393678237716
5677 14588 139.87550282416925
5677 17068 69.32404165977749
5678 5679 100.41430362513829
5678 11501 174.69139378539597
5678 11502 197.5966807511091
5679 5680 153.8247065439997
5679 13276 123.6717248789424
5680 11779 181.58382560556228
5680 18421 78.11526622076036
5681 5682 167.775122363279
5681 6806 76.5707830892566
5681 6807 76.53584476179925
5682 5683 149.42934554249592
5682 18886 7.6284618436217855
5682 19752 76.83644860337266
5683 13205 122.64840052365906
5683 18764 181.26181255816596
5684 14969 99.87491089638016
5684 14970 120.93492801096023
5686 11707 102.22194766424118
5686 11708 102.07538131861321
5687 5688 80.20760146736029
5687 9186 203.82377027008937
5687 11007 141.57141229433088
5687 12423 153.07998058969196
5688 5689 79.84504502007837
5688 9173 174.72197711751232
5688 9174 153.92762501859067
5689 5690 78.54687906497863
5689 7151 174.0885340794656
5689 7152 155.1966521599651
5690 12424 155.55679203019488
5690 12799 174.1982960103892
5692 5693 120.3464249531835
5692 7422 62.76036166265597
5692 9600 62.34844938255129
5693 9601 62.25636620814382
5693 14630 63.38983706375434
5694 16948 57.88531124570846
5694 18336 10.727825551024099
5695 5696 134.01796689667918
5695 8430 61.5853706949194
5695 8431 24.405944800074572
5695 18336 134.50535422674082
5696 12666 168.3211581087599
5696 16378 63.10288141218773
5696 16790 32.50787240253427
5697 5698 75.35775970210678
5697 15210 38.98444420434385
5698 5699 70.4092252179052
5698 15202 86.00016676889304
5699 5700 168.8166783626181
5699 10471 85.47842570039012
5700 14777 85.08755498550948
5700 15203 84.88385736840002
5700 17629 208.46433571492656
5701 5702 26.36463510896157
5701 9666 84.31865220204126
5701 17629 175.34028846572832
5702 5703 137.1023097546076
5702 9667 80.46105493560444
5703 8843 85.53646726723146
5703 8844 81.89255576531141
5704 5705 33.78108087173716
5705 5706 43.510636957123076
5705 15205 82.59620505699289
5707 7449 84.31469954842642
5707 7450 81.89372809931635
5707 17630 159.41402206560514
5708 10906 82.62422268885108
5708 10907 82.82661183038277
5708 17630 125.53990819113903
5709 14780 78.6335224350085
5709 14978 82.33631981995927
5709 15196 185.17279615585332
5709 18662 192.03260795372796
5710 5711 84.59566164012045
5710 9937 142.8935020826296
5711 5712 81.6483250648656
5711 7360 167.78093266463105
5712 5713 85.28353107112494
5712 6323 143.95521234962848
5713 6323 161.98865680176917
5713 19940 94.00099591786227
5714 19079 89.58776514886452
5714 19940 1.4128673614166667
5715 14772 79.29793384553169
5715 15195 79.45312131779009
5716 5717 169.99525118235402
5716 14775 78.80610926381678
5716 14950 81.09649037662139
5716 18527 166.3371668204402
5717 14776 78.92109325039002
5717 15209 81.56118485307489
5717 18864 108.89677435312595
5718 5719 154.02598752265297
5718 18865 9.638070602325831
5718 18866 12.54647869160349
5719 6042 118.60806458648423
5720 5721 75.66877447413431
5720 20085 37.203929742318394
5721 8441 79.30379223034424
5721 17314 32.12278792783468
5722 17294 52.29168026761408
5723 6973 77.04359171822934
5723 6974 78.4284410574981
5723 18902 108.43197384236272
5724 7147 159.2977806192701
5724 7148 78.976290039249
5724 17454 80.1972815560709
5725 5726 81.94029712719099
5725 15045 38.732803179663925
5725 19113 78.74558327310076
5728 5729 954.6744633031685
5728 15681 164.89926881255016
5728 18090 339.5450646149737
5730 5731 53.15290997814054
5730 9534 131.13695263341828
5730 16676 30.98330422681685
5732 5733 46.49610582845811
5733 5734 140.8595831821743
5733 14699 266.44184327937154
5734 5735 58.577504125619
5734 18349 47.616682814968215
5735 5736 43.90255089361861
5735 6317 80.27868256904088
5736 5737 373.3281684109044
5737 6315 96.52037912497283
5738 5739 95.45230409461273
5738 6845 79.12007995311976
5738 14932 63.85785849777296
5738 19463 95.02326742170938
5738 19464 83.75908942871115
5739 14932 80.42312709220164
5739 19238 41.05511684873659
5739 19960 55.848732826189654
5740 8514 81.08489364719041
5740 9446 78.6848799067609
5740 12400 77.53900104259176
5740 19644 112.29927316777382
5741 12401 57.34410105884737
5741 17488 40.191997588296246
5741 17489 21.783774733213715
5741 19644 95.58251335698738
5742 5743 175.95938143368107
5742 15419 135.8676578703795
5743 5744 48.094992815133615
5743 16518 103.5239575102865
5744 7615 121.45271622602415
5744 11464 188.89116871021878
5745 5746 144.4278248867298
5746 5747 114.51939969784713
5746 12289 15.691574295810952
5748 5749 75.12462063728738
5748 7513 18.810056278059854
5748 7514 160.2566865438632
5750 5751 50.93993165206995
5750 9942 267.87855085585073
5750 9943 90.76920936739477
5752 5753 192.28225267864977
5752 9981 58.44350712773367
5753 12188 60.46706324959411
5754 5755 103.77162416517749
5754 16454 55.94210593979931
5756 18060 39.953160881099436
5756 18066 15.128535729927545
5757 5758 113.06301276044982
5757 10203 31.12351272011075
5757 10216 174.91379999515684
5759 5760 58.74870152016157
5760 17305 48.42803766975024
5761 5762 40.578506138966596
5761 8992 90.07553196952153
5761 8993 113.41058889578267
5763 5764 79.00476642875547
5763 11131 78.44074291186517
5763 16839 79.98422426674362
5763 19272 78.95764914326877
5764 5765 79.83464925682605
5764 6507 79.37632437750038
5764 6508 79.23647602943674
5765 11132 79.19284647460708
5765 14665 80.96346129118635
5766 5767 79.8748212280963
5766 11133 80.36019519584951
5766 15724 77.71310363684192
5767 5768 81.22555185260764
5767 6943 79.44765093816989
5767 6944 78.26097965119382
5768 5769 76.7858421783724
5768 11134 80.44606770915985
5768 15015 77.96316440295814
5769 5770 158.1407827138174
5769 6197 79.19187853194884
5769 6198 78.52466037910555
5770 5771 157.73741568240226
5770 11135 80.3815109916641
5770 13967 78.96597317430123
5771 5772 157.69779488949357
5771 11136 80.23506675710216
5771 13285 78.62836529254335
5772 5773 158.07677386072157
5772 11137 78.48042051424225
5772 16243 80.08228433616458
5773 5774 158.8712745797141
5773 9770 79.41732049551226
5773 9771 79.99731931155421
5774 11138 80.21844167701828
5774 14720 79.31451939900289
5775 11139 76.82208892403726
5775 18797 241.5122985631744
5776 5777 182.31168163663403
5776 10614 42.525730227279375
5776 16402 31.205579511183632
5778 5779 94.26555368394109
5778 12364 1359.1394915987848
5780 5781 51.955624204359594
5781 14411 72.32878940761441
5781 14412 146.1928339208329
5781 15504 184.84530634145815
5782 5783 141.20547608980965
5782 14445 82.76507253122344
5782 15123 75.4869616697285
5783 5784 128.2198491108263
5783 14241 87.99639805022038
5784 5785 136.85765312082674
5784 12426 77.6782466759015
5785 5786 81.11082224181423
5785 14446 80.80648845812298
5785 15507 80.24537763370707
5787 5788 137.17156088908138
5787 10957 26.59350547672859
5787 13169 79.44546078984892
5788 9587 79.22186958759079
5788 9588 80.99381554838332
5789 5790 192.75644420503988
5790 12797 135.25346934952705
5790 12798 152.91398591428717
5791 5817 36.43565922558385
5792 5793 81.14641034486186
5792 5921 95.51685433126113
5794 5795 72.45833436794088
5794 19264 199.25304247990348
5795 5796 29.48534879872421
5797 5798 81.28939177581296
5797 5915 79.76214824403205
5797 17593 72.34520254250991
5798 5814 25.478390663316336
5800 5801 84.35912457276206
5800 5909 99.07517306039905
5800 12581 98.77518664707557
5801 5910 99.25015075846167
5801 10027 98.96266551373164
5801 16894 18.559547875956092
5802 5803 78.84529541569357
5802 16894 78.97621703453632
5803 5804 78.88429953016926
5805 5806 200.83148171717752
5805 5917 99.52149415017509
5805 9374 101.71206404187319
5806 5918 101.91442013962799
5806 12583 100.51870554086717
5807 5808 79.98739287208655
5807 5919 102.13918112954916
5807 17751 199.76986581172136
5808 5809 78.27972255472237
5808 5920 101.99583031682444
5809 5810 79.16158368461494
5810 5811 79.10708512362832
5811 5812 79.2155884963862
5812 5813 78.29965686836354
5813 17584 203.28872247637173
5814 5815 78.44159997357018
5814 5916 55.277987703796235
5815 5816 75.52153566336787
5816 5817 77.04934260201361
5819 5820 59.43560947817839
5819 7779 48.43640617170444
5821 5822 127.89553680773564
5821 8538 45.285322520739015
5821 13107 23.234879112164535
5822 12462 74.73787988300919
5823 5824 21.81916886964194
5823 12454 81.53183920866937
5824 7883 95.5250821322899
5824 12443 136.63512187904064
5825 5826 97.1034608928502
5825 7884 76.04202153924832
5825 12431 78.27970975788011
5826 5827 165.95898554812766
5826 7885 75.98220569073084
5826 12433 78.53233052121172
5827 5828 265.143584891383
5827 6008 76.28951033414525
5827 6009 77.74053971706786
5828 5829 265.28004799912543
5828 7886 76.42950919255327
5828 12436 76.45695013816099
5829 5830 274.64098204448186
5829 7887 76.8106018291789
5829 12438 77.37267980264058
5830 5831 73.78983520475379
5830 7888 76.6737846117908
5830 12439 76.29994967570684
5832 5833 123.7348558183298
5833 5834 37.41212308021895
5833 7217 44.8509005389141
5834 5835 368.96896377537297
5834 7207 54.497115223014845
5835 11062 58.73820384704186
5835 11063 126.94594715087669
5836 7897 76.39336982072392
5836 18465 74.35790514943399
5837 5838 77.579131519389
5837 7898 86.62498499354915
5837 18238 94.83569351397986
5838 7899 74.34758346956376
5838 14618 35.197615919903484
5839 5840 205.9412062439324
5839 6134 117.3783411635756
5839 7913 80.22805636810163
5839 12452 72.25768707252563
5840 7914 96.28854924127413
5840 10537 84.82160453729091
5841 7912 76.64498928956664
5841 12451 72.28819233995733
5842 5843 114.75920963967701
5842 7909 139.6893885364269
5843 5844 83.69021937013244
5843 7910 139.80595872971946
5844 5845 70.29887955315598
5844 6735 258.58987721991997
5845 5846 133.60640983456733
5846 5847 18.538813617949017
5846 13023 89.18210032604345
5847 17839 133.69587304623138
5848 7891 99.75772640291126
5848 12460 60.96585538700803
5848 17839 10.441788523161655
5849 5850 100.07995043754377
5849 7901 78.4639907404367
5849 12428 80.59854782878273
5850 7902 78.2547899337259
5850 12429 80.80207668881002
5851 5852 98.31091696511484
5852 7892 77.96870571704193
5852 12459 82.69141484815243
5853 7848 79.03612537792634
5853 7849 81.41486017892544
5854 8648 114.81694951392497
5854 8651 38.829850504631885
5854 12522 41.187365662915305
5855 5856 53.80609948135823
5856 13363 104.06689500514702
5856 16510 123.86176498481554
5857 5858 125.56015212582415
5859 16623 64.86858230350185
5862 5863 104.18039369468312
5862 11456 220.91396037531416
5863 5864 313.7567849836874
5864 6877 81.62548227974813
5865 5866 116.4309116899353
5865 5897 36.38724140029271
5866 5867 150.08980780817708
5866 8035 76.46336825195759
5867 6455 186.54989593799522
5867 12544 64.75168476827517
5868 9069 67.94245072749794
5868 18931 113.57741363004605
5870 12721 176.5259167306336
5870 19026 226.23809061177622
5871 11972 116.66099123344645
5871 19976 90.48719795201623
5872 5873 67.78622173669709
5872 11994 110.91710943941632
5873 5874 140.0118541420938
5873 11996 110.34382638491108
5874 5885 29.44500409891926
5874 11998 110.50891844726283
5875 5901 120.97940825434303
5875 11963 93.06105262957259
5876 5877 142.67049058123405
5876 9954 77.49561973739823
5876 9955 76.69578554297243
5877 5878 159.36905023759948
5877 7899 77.5494266641187
5877 7900 75.48119565641869
5878 10334 74.9414631223982
5878 19704 93.6236510560287
5879 5880 81.16168256232662
5879 11986 110.6614859712741
5880 5881 78.7920387022756
5880 11987 110.4527739273515
5881 5882 80.04683100120978
5881 8391 110.14045320391574
5882 11988 110.20580592308986
5883 11990 110.37374855966088
5884 11992 110.6269529987078
5885 5886 116.34450946888488
5887 11999 138.71940133164483
5888 5889 59.02033522920041
5889 5890 140.4758088541622
5889 10754 138.79103706010636
5890 18466 10.463643240496525
5891 5892 79.12246041460719
5891 6063 132.43643220564186
5892 5893 71.0435765692344
5893 10331 65.88788559318702
5893 18467 133.3359128678506
5894 5895 77.78990994916917
5894 7628 111.77462985275127
5894 7629 39.25177220705307
5895 5896 70.12390713116152
5895 11976 111.98001900090466
5896 5897 88.47187887331167
5896 10058 112.74302394150979
5896 10059 110.433933056765
5897 14619 40.01261176331046
5898 5899 40.59521766380206
5898 6459 210.62497553459397
5899 5900 80.24825505662425
5899 16438 49.47081409323615
5900 6460 234.3563583937633
5900 17095 20.835136342396545
5901 18649 161.22662693400125
5902 5903 176.00779689585494
5902 9342 46.83675497910294
5903 10712 40.97439873341842
5907 12175 57.147887004019246
5907 15165 83.8639147292486
5907 15881 175.11095111685734
5907 20034 149.13789176323698
5909 5910 85.52919250809055
5911 5912 88.42351036572829
5911 12582 137.01464611573545
5912 5913 99.16982334977376
5912 19046 117.64133712497691
5913 10079 148.51127695116153
5913 18133 106.99296298728582
5914 5915 76.47607204170374
5914 17593 80.07083715193629
5915 5916 79.05980899152982
5917 5918 203.08821393543627
5918 5919 120.24747905280734
5919 5920 79.84552695658991
5920 12205 7.016932174842389
5922 5923 78.40038640885871
5922 5954 47.805282972485884
5922 10718 55.120988939099405
5923 5924 77.2981477602388
5923 8824 148.79082680641412
5923 9578 153.8190673283911
5924 5925 74.57310990741246
5924 10445 153.8733239294863
5924 18425 131.09930334250697
5925 5926 76.38629176143755
5925 8825 148.84691525114377
5925 15986 153.91902338014594
5926 5927 75.54656101323576
5926 8826 149.05706849889626
5926 9398 153.60621607220838
5927 5928 76.30177469489247
5927 8827 148.74700042596643
5927 15987 153.64038200506985
5928 5929 75.60796966956067
5928 8828 148.968835785786
5928 11395 153.65050617307796
5929 5930 76.09948221784974
5929 8829 149.41330138842918
5929 15241 153.45201346180383
5930 5931 76.97521009925708
5930 8830 149.4684518210356
5930 15988 153.51794714379383
5931 5932 75.3755000941851
5931 15989 154.08302751699227
5931 19574 148.974428574507
5932 5933 75.73296064661804
5932 8831 148.9141420556079
5932 11806 154.16174687534996
5933 5934 79.05981284433066
5933 8832 149.03723170554
5933 15814 154.19990041254997
5934 5935 78.80768943480712
5934 7184 148.82624094549774
5934 7185 154.36301861070464
5935 5936 79.21255064252188
5935 8833 149.29132613630912
5935 15168 153.98744034877933
5936 5937 79.20738008626668
5936 8834 149.69331649659486
5936 9495 153.6188038792317
5937 5938 78.03118264183638
5937 8835 149.45877725603384
5937 15990 153.6501750550776
5938 5939 79.46367934796343
5938 7966 149.5574049328915
5938 7967 153.63118251276444
5939 5940 80.174119421683
5939 8836 149.39114367111324
5939 15303 153.7114043591874
5940 5941 82.03930599805776
5940 8837 149.00145882589328
5940 14281 154.0275344302242
5941 8838 149.07041943401728
5941 15991 153.91636104021183
5942 8840 100.58716906246397
5943 10634 61.81825110419148
5943 13845 27.599968095278058
5944 5945 79.57916839553343
5944 6383 140.66804258841984
5944 6384 161.31874762107154
5945 5946 78.75388159415053
5945 8813 140.54835432860978
5945 15617 161.6172847902486
5946 8814 140.35206863097642
5946 15980 162.01071797426917
5947 8816 78.86324483842715
5948 8817 101.13559630521948
5948 13561 201.29585785644613
5949 5950 74.55858151610639
5949 8818 101.45814205323856
5949 10714 103.42642302619998
5950 5951 75.60290037384716
5950 8819 101.29488416362358
5950 10715 104.5459796235186
5951 5952 75.83976308035116
5951 8820 100.86008639881626
5951 9725 103.76537279150207
5952 5953 76.64473388921014
5952 8821 100.03185483254765
5952 10716 104.9471416807656
5953 5954 76.20363023273107
5953 8822 100.08168227604199
5953 10717 105.06763938389399
5954 8823 101.50423438993226
5955 5956 58.03141473418139
5955 14382 92.64482110233601
5955 14383 97.8562119448311
5956 5957 97.21760243727337
5956 14382 102.26204665746904
5956 15977 115.20235953824194
5957 5958 160.09467286095335
5957 8854 152.46559812264184
5958 5959 157.31866892131782
5958 8855 152.10391125193135
5958 10704 102.62707825471324
5959 5960 161.183881651787
5959 8856 152.8829842017186
5959 10107 100.49301567200958
5960 5961 173.1948971965408
5960 8103 69.19190316861835
5961 5962 30.46781205802157
5961 17612 100.79278575613586
5962 8857 120.75357649987856
5963 5988 20.40601492773544
5963 7982 391.8909243830603
5963 8811 65.84378186827536
5964 8858 132.9705216806458
5964 15414 147.06915706485904
5964 19074 42.67790212991356
5965 18207 56.675341452306185
5967 5968 79.03739674245233
5967 17510 216.71928557737965
5968 5969 79.05034101839219
5968 8719 233.98712490627594
5969 5970 78.60753220297927
5969 8720 223.6608673541785
5970 5971 78.61387968672531
5970 8721 213.91894405390005
5970 19639 33.168694861725754
5971 5972 79.19822932630534
5971 8722 205.24992387040106
5972 8723 197.03912082710846
5973 8724 177.22592431883837
5974 8725 157.04138882697
5975 5976 78.3645874650715
5975 19060 134.45753311873958
5976 5977 92.75289325371561
5976 19059 122.7373130472054
5977 8726 111.38091187616207
5977 9696 201.41860949940016
5978 5979 85.74518268911255
5978 10719 75.69268619686353
5978 15433 74.35987308658933
5979 5980 77.18066332894182
5979 6312 144.9318134976766
5980 8852 144.95943731523295
5980 10720 75.44904630562357
5981 9253 75.10140103081818
5981 19793 124.16332350936601
5982 8815 101.07156829977835
5982 10721 75.49544467056455
5982 17611 75.989750926362
5983 5984 201.56289803480598
5983 8861 107.04926955564534
5984 8862 134.00292315536302
5984 15976 135.28744831124519
5985 8863 134.77343518216196
5985 10911 136.35072157662674
5986 5987 87.39495931342523
5986 8184 123.16782755209212
5986 15979 113.61774896132151
5987 5988 114.36458158167603
5987 8168 113.0854347378192
5988 10722 52.46601625190867
5989 8847 88.5558225208342
5990 5991 75.70306011349125
5990 13634 51.905923644622725
5990 13635 156.16138673584405
5991 5992 30.127235284128254
5991 12383 153.24119498774857
5992 5993 103.43250483762033
5992 12382 52.68430048210179
5993 5994 219.3896025321941
5993 14055 258.992920064399
5993 14187 50.22065587826832
5994 13482 251.413469698119
5995 5996 100.1305632230229
5995 12464 172.96749738153278
5995 12465 115.48007550621172
5996 5997 66.60294890563019
5996 10770 173.13418784712186
5996 10771 499.8878171532901
5997 5998 33.418432008884054
5997 14448 73.96110702095973
5998 5999 100.62225202893985
5998 8999 173.0471189997616
5999 14056 263.9005893484523
5999 14268 173.19054055257226
6000 6001 74.28562669361766
6000 12098 268.357861298789
6000 15928 170.7249007750564
6001 6002 28.935690336126147
6001 14057 269.4710206031699
6002 6003 48.33632497599371
6002 10650 169.5169098700432
6003 6004 50.59620184007423
6003 10651 265.6750669154018
6004 6005 24.128772418061942
6004 16556 98.1921322445479
6005 6006 75.92137741335092
6005 14058 265.6678389347246
6006 6007 76.15698079853814
6006 9940 265.25593823509803
6007 6008 74.18586832414225
6007 14059 265.290567428784
6008 7885 167.0606876606903
6008 7886 265.4702303086002
6009 12434 110.14819091199516
6009 12435 77.67371718442328
6010 6011 50.68171650108846
6010 8586 77.84736228345702
6011 6012 22.21417853722134
6011 8585 34.60391005542026
6012 6013 77.38646877984908
6012 14788 151.45902905935327
6013 6014 105.46424284908053
6013 7643 152.79953896134026
6014 6015 88.7155001786285
6014 11368 36.24134796488098
6014 14789 151.97517655592875
6015 6016 105.31562000634844
6015 10036 151.97371499289036
6016 6017 43.58591092598665
6016 8016 36.062349289918984
6016 8017 260.4339926436463
6017 6018 28.63097969054732
6017 13469 100.08062975937199
6018 6019 49.11398309522214
6018 6056 77.09388962316321
6019 6020 80.29624181013064
6019 6055 99.37676689019534
6020 6021 80.71987621790771
6020 12553 100.029872677132
6020 12554 76.97132689462619
6021 14786 198.82898285529726
6021 15926 200.2954859144266
6022 6023 47.286140454843235
6022 14257 200.3478107399756
6023 6024 27.193056908589305
6023 13484 99.10847310456279
6024 6025 51.35101459526186
6024 14120 196.8177432625697
6025 6026 24.438873559096855
6025 7747 98.52997205864644
6026 7760 197.87449720387934
6026 17378 54.770043806506365
6027 13486 99.26221931311112
6027 18767 9.27805054419705
6027 18768 66.60245242439493
6028 6029 44.82338422002734
6028 9077 97.45158224181753
6028 17375 84.83913319352732
6029 6030 77.689583468483
6029 9076 74.46738838956448
6030 14797 234.69014723376588
6030 16346 75.01473245636612
6031 13385 13.996964117288524
6031 13386 199.97284360367956
6032 6033 110.58405690206723
6032 6034 58.711120699372366
6032 13497 77.28257449447364
6033 13497 168.72012405414975
6034 13819 76.66958272851191
6035 6036 79.39896810744429
6035 13503 85.78204665259621
6035 16615 63.25999023642474
6036 6037 54.4942423155373
6036 10234 63.28152612092486
6037 6038 80.770616832526
6037 13504 84.41215838142888
6038 13491 41.93612392147781
6038 14367 62.927332152018735
6039 6040 70.08187032228778
6039 14155 71.22405297023433
6039 14784 59.19243423161308
6041 6042 173.43844656570434
6041 6927 153.471518571268
6041 9122 122.20999010336945
6041 11329 79.08248943764514
6042 11360 105.03902204942466
6043 6044 46.21485505309314
6043 12990 111.49165404336351
6045 6046 132.5965108898622
6045 9968 541.43987667072
6046 9968 567.3083087277062
6047 6048 185.19860895712173
6047 8018 74.42790320900797
6047 12526 113.15831895558044
6048 6049 72.83782167723078
6048 8019 74.57755692210925
6048 11888 112.25669245308009
6049 6050 21.438434792969375
6049 8502 113.02791857033888
6050 8020 73.90147193181292
6051 6052 16.137255499136632
6051 8021 73.73120693011093
6052 6053 82.5069486523681
6052 12527 96.82450495575314
6053 6054 82.218532185199
6053 8022 89.48762429784676
6053 12528 99.36408231417236
6054 8023 91.10222068479031
6054 12529 102.38014660366846
6055 12553 80.73863130851399
6055 13469 77.32658121248868
6056 6057 75.47924860789001
6056 12554 128.75070728206367
6058 8049 86.4835197484597
6058 12536 88.36173840349232
6059 8050 82.02099909828293
6059 11533 86.38632258783545
6060 6061 153.97195571192563
6060 8040 82.43395507163575
6061 6062 86.60986010845065
6061 8041 82.031599140874
6061 12538 86.59066498219666
6063 11966 53.454673373852586
6064 6065 81.77319266184075
6064 6995 78.52404212324373
6064 6996 81.20185729396728
6065 6066 80.72912847986143
6065 9570 77.95592100626018
6065 9571 81.68051967818592
6066 13900 39.82053495500283
6066 17281 61.14149911881129
6067 6068 179.9488623120083
6068 6788 143.65132496557428
6068 8773 97.07253689011877
6070 11668 200.69215924106788
6070 12219 80.12051635435299
6070 19997 36.36513683626464
6071 10530 79.16786744135365
6071 10531 69.48527718893628
6072 6073 78.7212804241926
6072 10590 68.91674410370754
6072 14903 79.91199221016042
6073 6074 79.09440672193624
6073 10591 68.85820124269095
6073 14453 80.28346875153711
6074 10592 70.56336642821688
6074 14904 80.17166532179134
6075 6088 102.17010119275662
6075 10995 243.80548276779962
6075 18972 167.08441375409828
6076 6077 45.52912094392127
6077 7544 136.37195455428727
6079 19040 38.49626301035528
6079 19613 35.3493447815595
6080 6803 168.31834150465852
6080 13899 74.44049766322384
6080 19613 226.695072220992
6081 6082 63.03692717617122
6081 6804 167.20974294768206
6082 6083 42.73886229143206
6082 15216 70.13196257895771
6083 6806 166.70802199692184
6083 19751 14.77491773073199
6084 6085 18.515602480149692
6085 7546 199.5916811841496
6085 18765 28.002312229886755
6086 18549 29.34415021648084
6086 18799 13.702537407925933
6087 6761 82.81763860962954
6087 12130 262.3859264705141
6087 16856 190.89274487907778
6087 17036 159.57723823526172
6087 19004 20.393823262822146
6088 14643 272.57892571715047
6088 15405 99.81100756466573
6089 6090 56.78992984655092
6090 10588 345.83987402718935
6090 14901 77.51041997383263
6091 6092 48.597040346783984
6091 15583 49.78580621953205
6091 16157 47.82245044230542
6092 6093 160.69854373498416
6092 8911 27.632551231027684
6093 15583 79.20012901583608
6093 15676 190.9439146458661
6094 6095 86.49280699977275
6094 14592 196.8414093855229
6094 18352 190.7666773755048
6096 6097 197.35282681689515
6096 6228 59.21700786473105
6096 6229 89.32347789545796
6097 12064 77.28182500305977
6097 12065 83.94987693575109
6098 6099 76.93113079558374
6098 6125 22.79675805674839
6098 14927 84.73705684264787
6099 6100 21.67405475630123
6099 15361 96.90257484473587
6100 6101 57.78228623087886
6101 6113 20.901026205828373
6101 14148 60.08807448157341
6102 6103 134.43340998330288
6102 13239 50.14337237760836
6102 13240 75.18890245166615
6103 6104 134.08017298113617
6103 12391 75.018017035824
6103 12392 74.12727225323785
6104 6105 138.1376751891432
6104 8493 75.34647467666437
6104 8494 74.98972956391661
6105 6106 82.39977656934553
6105 13112 74.68294732709602
6105 13113 74.2053701439514
6106 6107 81.77438594375697
6106 7743 159.08769827131366
6107 7744 159.80802069775802
6108 6109 73.00013523612395
6108 7745 158.86136749764586
6109 6110 207.70541043236804
6109 13734 80.90820840958318
6109 13735 71.5426771963004
6110 6111 152.33740997601825
6110 7277 76.62622773462671
6110 7278 76.18194252094143
6111 14924 76.4887633277449
6111 15366 77.0395016993823
6112 12304 71.19012074439698
6112 12305 79.70724434111654
6112 19259 97.88608925518575
6113 14147 80.39517961869781
6113 19022 184.53529154523724
6114 14926 75.75073847769694
6114 15362 75.40148129080092
6114 17379 200.00409787883092
6114 18768 198.8409029828053
6115 13485 82.9401113424739
6115 13486 81.64441291019402
6115 17376 98.20757718478168
6116 6117 99.89725533805185
6116 7752 134.09890693045827
6116 14929 39.30607901633502
6117 6118 43.01063198670711
6117 7753 131.4046956082755
6117 15396 123.01290545747327
6119 6120 95.73966806027457
6120 6121 103.6033648585589
6120 12917 33.01043637576701
6120 12918 72.92838520107304
6121 6122 119.98652443487674
6121 10399 74.79213596791449
6121 10400 71.77728031260548
6122 15368 77.11154506034323
6123 15369 76.25400011722128
6124 6125 143.2548769540589
6124 6458 96.90657800395078
6125 15360 74.17215289468892
6126 8094 76.52224812154917
6126 11321 80.4068539635504
6127 6128 110.83204144499487
6128 8095 99.5321404461485
6128 8705 80.69472609086839
6129 6130 158.72075209125384
6129 8096 80.4873625769142
6129 8705 76.54768053844421
6130 6131 158.62181462175528
6130 8097 78.78003524081785
6130 12669 79.04569539310478
6131 6132 155.75631721290472
6131 8098 79.03495425568798
6131 10496 78.38931278230116
6132 8099 79.18167323853251
6132 12670 78.07539394918274
6133 8100 79.0525062786657
6133 9682 78.22687355234562
6134 6135 57.14392033626508
6134 8104 80.3137002348654
6135 6136 22.328239183086325
6135 12679 72.21042084825798
6136 6137 78.91619064522986
6136 8075 122.9157855339301
6137 6138 96.55090411365786
6137 8077 123.00938947668442
6138 6139 83.00827694342692
6138 8078 122.42241898568611
6138 18974 72.61997514515093
6139 6140 77.51415929291085
6139 8079 122.64759652832109
6140 6141 34.77183356043228
6140 8080 122.54383026356822
6141 6142 41.87685827977473
6141 12681 85.33800037187498
6142 6143 78.71532392756615
6142 8082 122.88534277461765
6143 6144 119.02337866181611
6143 8083 122.98815886157726
6143 9896 85.44624178313359
6144 6145 135.01423551881956
6144 8105 80.10353299136175
6144 12682 85.45272203211361
6145 6146 138.03800247471344
6145 7364 80.37087070876028
6145 7365 85.48801246444252
6146 6147 86.76583850698776
6146 8106 79.89588205418693
6146 12683 85.56177485380324
6147 6148 44.20456794925876
6147 12678 34.692973093948126
6148 6607 172.92717594512246
6148 8107 34.920546518836765
6149 6150 100.70928333843284
6151 6152 33.82552802077908
6151 12637 120.34888658502027
6151 15585 42.03569312177277
6153 6154 60.66635117606545
6154 13086 49.91168818062138
6154 13650 107.6771933737669
6155 18976 61.973291652481244
6155 19880 11.48453938345272
6156 6157 81.68485358253989
6157 14700 48.55969590631077
6159 6160 63.82386886252735
6159 18034 33.37873725964627
6159 18414 106.38560684966835
6160 19725 181.1649075290997
6161 6162 89.06761040036348
6162 6163 125.4361743929669
6162 16548 61.55846898653875
6163 6164 40.68311318350532
6165 6166 57.29485038123304
6165 7778 113.6513244635546
6167 6168 57.145494209779976
6168 8344 137.07934164935355
6169 11013 125.94074897685502
6170 6171 427.92948098724395
6171 8636 518.8087512434608
6171 9022 360.2461803675347
6171 9489 92.50724163265998
6172 8177 79.18804325483922
6172 11352 78.00287295716706
6173 6174 158.7073855787817
6173 8178 79.09636368173939
6173 20143 73.4991254063174
6174 6175 158.54268837899897
6174 8179 78.99532159446487
6174 12713 72.7637703794926
6175 6176 111.91531526606163
6175 8180 79.06702936329572
6175 10500 77.75027746675045
6176 6177 44.32840410089912
6176 8181 92.13198985912653
6176 8713 61.90903374476534
6177 8182 78.6203821302888
6177 8713 57.122912249887875
6178 8183 78.56963913340972
6178 9688 79.65215546608302
6179 8184 78.53627505960287
6179 8811 79.9489968384192
6180 6181 206.28657690970584
6180 17619 75.24783555958018
6180 17620 79.18627504744659
6181 8186 76.41169269400946
6181 12710 74.96742095844263
6182 8185 78.92537583457315
6182 18164 128.5672654537475
6182 20110 73.29210470507334
6183 6184 43.0363634308885
6183 12704 74.1877476000318
6184 6185 93.96192954291882
6184 8174 113.04578802655624
6185 12705 74.6955007840908
6185 18158 18.299084887182996
6186 6187 200.59631155275943
6186 12706 75.82715340807198
6186 18295 16.857219673333656
6187 6188 157.13389075851964
6187 8170 75.69926860255701
6187 12658 76.84054571347073
6188 6189 96.05820963741614
6188 7371 77.1465162923467
6188 7372 75.91736908721356
6189 6190 40.68868422919898
6189 7041 76.39628171548198
6190 8171 75.63369048931857
6190 20131 111.8817826515414
6191 6192 79.01432237252625
6191 11712 79.01060289225587
6191 11713 156.7120433156599
6192 6193 79.74197164686477
6192 14914 78.652284106387
6192 16998 157.47657401756246
6193 15012 78.5162999294261
6193 19293 79.04934074063517
6194 13965 157.96143640384363
6194 19293 79.55684396392445
6194 19422 79.02461976296219
6194 19423 77.8624452724021
6195 6196 79.53952542625298
6195 13767 78.40343249811322
6195 17312 157.83767090072024
6195 19422 78.99703402081666
6196 15013 78.30451612124355
6196 17268 78.98155827103737
6196 19421 156.82712752733295
6197 11134 77.12347533626196
6197 11135 158.1749611491496
6197 17268 80.53529375154503
6198 13967 157.5214160883599
6198 15015 77.46255902785342
6199 9334 76.67628916879099
6199 18981 156.1528614721935
6201 6202 169.67738881428687
6201 6259 31.551389690023978
6201 13662 60.41598308688871
6202 6203 225.65669240434576
6202 9996 79.36481626557482
6202 18357 79.43142918666032
6204 6205 102.33671897488558
6204 15146 117.22247474796747
6204 18230 21.905599202693846
6205 6206 163.9232851315514
6206 6207 301.67492925778686
6207 6208 173.95250556163782
6207 18382 150.76980329369795
6208 9430 156.1614095582027
6208 18381 182.97334698136723
6209 6210 104.98885537952926
6210 11033 10.786103268264347
6210 11034 98.29260980107799
6211 6212 75.82905236544556
6211 15188 100.86604991201413
6211 17687 102.57874242792029
6212 6213 76.21011795315393
6212 13652 138.6610841663597
6213 6214 76.31897965381596
6213 13653 139.0273608098732
6214 6215 72.1045167603626
6214 11676 138.94967608499763
6215 6216 70.17567715970569
6215 13654 138.7022378640437
6216 6217 74.96686976771934
6216 7068 141.7738655949264
6217 6218 73.61493135957178
6217 17673 147.52710455442403
6218 6219 24.125312532817027
6218 9364 146.3999769479141
6219 6220 47.338912740528784
6220 6221 109.98212731926174
6220 13655 146.61088033198203
6221 6222 107.77049664961008
6221 7706 146.92208563528234
6222 6245 27.78822940547839
6223 13647 79.37112573786202
6223 14669 79.78413020609794
6224 6225 150.95733252768417
6224 11062 69.91786123118504
6224 12445 72.39403946945413
6225 6226 134.43589477744342
6225 8572 73.75187987931075
6225 8573 72.19874960308793
6226 6249 23.187772082097194
6226 17679 65.4590445955207
6227 6228 23.95458247566022
6227 12064 197.22081542981343
6227 13656 351.2623043825865
6228 15367 78.56281447548061
6229 6230 240.13925191773524
6229 13658 76.78649109913243
6229 14925 77.06431378671813
6230 9056 75.39292367117648
6230 9057 49.371032892669405
6231 6232 52.425311808469445
6231 13615 72.2731791757122
6231 13616 70.3862834468533
6233 8892 291.2545545234794
6233 12251 80.33248391575503
6233 18017 59.11378075090626
6234 13101 67.40662451447594
6234 18264 692.6850111581315
6234 18402 85.91450117970328
6235 6236 82.82795157230886
6235 13637 78.27111381293963
6235 15376 80.19484123035869
6236 6237 75.71321944024848
6236 6852 80.36112375250048
6236 6853 77.98148637591447
6237 13638 78.4269798951002
6237 14934 80.49610207340658
6238 6239 79.77338856854693
6238 13639 79.4969596123865
6238 16118 79.32143409094867
6239 6240 79.27399667128304
6239 9453 79.31644939690788
6239 9454 79.05979342752123
6240 13640 78.56101098049196
6240 16085 79.36135479272707
6241 6242 80.35579850964908
6241 13644 78.46738673184383
6242 6243 76.48289625154526
6243 6244 73.45283197569029
6243 13645 80.19706545281878
6244 7130 81.45449011083679
6245 6246 78.44659891830445
6245 12074 120.59532337442734
6246 12075 142.88841308855277
6247 8354 79.41568172215533
6247 8355 101.63257538786587
6247 18647 210.8453422767946
6248 12059 210.37020540253263
6248 12194 86.53237343707423
6249 6250 120.05075184204524
6249 7639 50.20490512062042
6250 6251 200.13561158195563
6250 13667 81.91482315305956
6250 17679 205.777855101097
6251 8030 77.55865900730159
6251 8031 82.70631830143063
6253 6254 71.41484217959102
6253 13670 82.36552536903584
6253 13821 48.647871596699154
6256 6257 307.6855255519376
6256 10760 275.0482509091851
6256 10761 91.85907186390261
6258 6259 162.10662795695401
6258 13661 76.17261833827904
6258 14514 83.33153731655462
6259 16116 71.67180936680504
6260 15078 169.30079382220083
6261 6262 111.48455035679332
6261 6265 44.09264818160953
6261 14860 195.46708729890688
6262 6263 104.39938116939678
6262 6266 43.81255223110688
6263 6264 75.29080417737889
6263 6267 44.752798053474166
6264 10569 187.9648470282427
6264 18350 67.0570084383593
6268 14577 108.0498561233778
6268 15546 66.78720536017808
6269 6270 134.52833615283674
6269 6957 76.28178168509882
6269 10452 187.82963983674549
6270 6271 202.4219734216478
6270 6958 75.79106078758613
6270 10452 77.8810428905153
6272 6273 184.8190234692844
6272 11085 541.8477327548351
6272 11086 518.5731106748705
6273 14997 606.8644445124868
6273 14998 273.91696463966883
6274 6275 255.26341057360338
6274 14589 80.18673443612659
6274 15046 82.37634415589758
6275 9039 78.21845247884757
6275 9040 74.6517965504055
6276 6277 68.49728115873747
6276 10741 79.00910439809542
6276 14590 32.82134476916195
6278 7811 229.68283635802317
6278 17231 313.9271898540111
6278 17876 311.4431219421226
6279 9536 74.96907106138437
6279 17230 133.80438527007666
6280 7978 61.84808661057656
6281 6282 78.81822217424428
6281 13190 84.54409397054457
6281 13191 86.60083621538271
6282 11582 83.3712525625594
6282 11583 87.60141604692753
6283 6284 77.76710140059097
6283 14585 88.23130918726062
6283 15038 82.64487299031775
6284 6285 78.72450773122935
6284 11177 82.22047297214354
6284 18928 8.886046040233834
6285 6286 79.82967718706284
6285 12128 82.22712988594617
6286 6287 159.96871883735622
6286 7004 82.22732603013131
6287 6288 76.85519393030611
6287 14584 89.1302531719202
6287 15039 82.22904046244116
6288 8117 89.61633276667328
6288 18448 78.50709153041174
6288 18451 82.23360958107611
6289 9113 81.5331090228596
6289 18622 151.1424773949926
6290 15048 98.5308489989613
6292 18623 74.0495213423611
6293 6294 67.66561629437439
6293 7065 80.14963688119695
6293 7066 70.26648559614175
6294 6295 79.20175697827813
6294 14210 84.33299165702263
6294 14256 285.6338460395997
6295 7980 153.33193922353897
6296 6299 29.887027160802717
6296 9319 50.055412542469476
6297 15438 161.76919165715816
6298 6299 231.72839539159577
6298 6757 77.96855116323782
6298 15034 116.77354954348039
6299 15707 78.23768575442323
6300 6308 53.81068806497186
6301 6302 75.70522871602333
6301 7990 154.3211662921112
6302 6303 76.6482003139759
6302 7991 154.2831077722022
6303 6304 93.08262435172858
6303 7992 153.73981228634887
6304 6305 88.94252544517266
6304 8000 127.3047117265244
6304 11398 201.94117810010422
6305 6314 65.21375240105144
6305 10985 145.52184894178833
6306 6307 95.68861201160179
6306 7987 104.04964478708641
6306 19318 186.8461457418381
6307 6308 81.75200613480894
6308 7989 102.04701201862665
6309 6310 92.70488217221649
6309 19165 176.72331323058157
6310 6311 73.91452323989309
6310 8714 138.69084272967748
6310 8715 132.2879144799125
6311 6312 104.57165399559543
6311 9691 112.27242120442604
6311 9692 78.3131235134095
6312 8851 107.78843912947103
6312 8852 75.18932161176383
6313 11356 138.99869875203245
6313 11399 135.45221500618626
6313 16413 102.24462113146141
6315 6316 47.235723721076916
6315 7570 49.03735229528447
6317 10449 91.19761163241145
6318 6319 180.12364004177115
6318 8990 65.68947230622442
6318 15221 34.838522054014824
6319 6320 83.03051290395953
6319 12425 178.85635854002913
6320 8991 96.58533047586224
6320 14908 57.282300694532516
6320 19135 24.421512505329048
6321 6322 49.37204821097115
6321 10743 81.50633118091933
6321 11327 121.60946514515706
6323 7064 51.485827181262295
6324 14037 104.83178219311414
6324 15628 216.48029679239505
6324 17640 222.5756095007036
6325 6326 151.63395025678477
6326 8773 103.22344043683341
6326 8774 222.63073490002282
6327 6328 86.2409339114303
6328 13771 338.5799814285275
6329 6330 56.2804319021277
6331 6332 79.27570870296252
6331 14013 122.47141041778065
6331 15696 195.12865855339618
6332 17628 122.87786323078444
6333 6334 157.8932864712742
6333 7316 74.14991820597481
6333 17986 61.538491124507665
6334 6335 78.59300828242023
6334 17490 83.58550505727129
6335 12250 79.88271179426084
6336 6337 79.13434892637702
6336 8889 80.79504817596968
6337 6338 82.51222746204785
6337 15377 80.70633563726842
6338 6339 76.12256466820449
6338 6851 80.12866590622224
6339 14933 80.1280530132874
6340 6341 79.7070428827171
6340 15562 80.11658072985135
6341 6342 79.9482865236949
6341 9452 81.88022990670197
6342 15563 76.69749596992308
6342 17930 59.92468319400875
6343 11062 149.58384001636924
6343 12444 73.29010229316499
6343 19827 153.74303834856778
6344 6345 119.50095608982387
6344 7638 77.8968563308813
6344 19827 137.27246332362992
6345 6346 201.4914347383097
6345 19686 38.98499946828824
6346 6347 194.67189309609017
6346 8029 78.07078765810238
6347 6348 24.942011572117803
6347 12534 48.793448648087164
6349 6350 35.97606664665822
6350 12723 112.48788683998839
6351 6352 50.442935617195104
6351 17059 67.39862701981127
6354 6355 78.64677802462285
6354 12278 82.60220057649286
6354 18658 275.2523906601833
6355 6356 78.98246998522625
6355 15564 82.34220293613878
6355 17689 280.53931472881413
6356 6357 79.24755439467343
6356 17688 280.8455123519253
6356 19755 82.44443029549485
6357 13648 279.8942061385204
6357 13991 83.43149430157237
6358 13436 82.61834814852635
6358 13437 279.5783619609418
6359 6360 162.29193222273963
6359 12195 104.78925901638067
6360 15145 130.28855765612332
6361 6362 236.86825923143684
6361 14924 70.07949840085422
6362 9055 75.69223954406678
6363 6364 229.69469105483125
6364 13155 125.04446053680444
6365 14115 139.4432758734973
6366 6367 174.1806352518448
6366 18749 97.1180008855651
6367 6368 158.49443899217238
6367 17661 98.07438783530739
6368 6369 105.03237477425056
6368 17664 97.50778030743244
6369 15229 96.7417092250969
6370 6371 77.21499406578897
6371 6372 202.63990512315337
6372 18856 46.3461639537056
6373 9700 138.6577092074114
6374 6376 54.34337787537542
6374 18070 160.4907602477037
6374 18077 608.3846258638446
6375 17381 348.2474372566058
6375 18076 523.3304391442327
6375 18079 14.083547254535599
6376 18070 124.33003405459156
6377 6378 141.37410205598502
6377 6400 44.09091790365833
6378 6379 140.33969287886677
6378 15614 79.03806208238058
6379 6380 140.14344599563856
6379 10479 78.59950177232493
6380 6381 140.81973898050566
6380 15615 79.38407268355141
6381 15616 79.07072548736683
6382 6383 95.27076887173581
6383 8813 79.26235921589367
6384 6409 16.2101273832818
6384 18832 67.06711098938946
6385 12738 124.96236222275061
6386 6418 30.404992111212103
6386 14984 53.01912882153663
6387 6401 53.86111655571548
6387 10550 76.10953884490429
6387 15937 127.01820536190664
6389 6390 107.15281878965712
6389 13693 194.15774094066637
6389 20147 193.34246023236358
6390 6391 107.21458990155763
6390 13839 195.23379278708646
6391 6392 107.31743248590512
6391 11151 194.76148346640866
6392 6393 106.55180251043257
6392 18846 170.50697618060127
6393 6394 107.13769799869006
6393 13841 197.70942432682966
6394 6395 108.41642519740293
6395 6396 84.54162570910701
6395 9582 196.7565662406511
6396 6397 85.14746356172067
6396 17613 196.22027837243152
6396 18492 189.62144522995607
6397 6398 79.2834721321937
6397 10465 196.5261760566864
6398 6399 79.28396880808438
6398 13842 197.15560592653947
6399 6885 273.32358893746164
6399 19332 187.1644618120987
6400 15613 35.337943969666476
6401 6402 126.40671003131067
6402 6403 76.29103790588287
6402 15937 53.542814244356784
6403 6404 75.94625394177781
6403 8197 139.19817575141784
6403 8198 129.93545202976827
6404 6405 76.02411872693783
6404 10943 138.85449711111227
6404 15612 129.72454129634184
6405 6406 80.11635538652148
6405 11447 138.68057958030042
6405 11448 129.74554790219312
6406 6407 81.65056334062524
6406 9786 138.27405761948168
6406 15542 129.86415944054687
6407 6408 76.90371154631532
6407 10065 138.42017110961623
6407 14014 129.82776612214442
6408 8653 138.4812993490119
6408 19144 82.21998873790717
6409 6410 155.25286824873916
6410 6411 125.44100917792566
6410 13879 83.19622269581154
6411 6412 122.23835575473804
6411 7423 83.15455374832572
6412 6413 127.6425457035775
6412 15618 83.28953032086727
6413 6414 140.47449653346598
6413 10898 83.54182185034325
6414 6415 142.96444266799162
6414 15619 83.43846011865641
6415 6416 143.66674230272787
6415 15620 83.87971084826239
6416 6417 140.0412954373845
6416 10170 83.4186797851635
6417 6418 111.15118803060791
6417 12154 83.99223323989743
6419 13773 113.19934744934449
6419 18313 305.44466353087995
6420 13608 45.817309152960675
6421 13609 346.7568577841543
6421 19127 190.81533417251683
6421 19703 326.32483553249307
6422 6423 11.79173036983915
6422 9743 106.68266360276158
6422 10459 320.12941466315027
6423 10462 27.277845572924143
6424 7550 73.50527351153858
6425 6426 175.38172808967045
6425 9891 84.53786370885624
6426 6427 197.5475315880396
6426 9891 174.94206837025962
6426 10711 370.2468433008408
6427 6428 832.6867312405882
6428 6429 87.81016740428703
6429 6430 122.21382528273463
6429 9047 193.85604275355288
6430 6431 109.21897909654662
6430 9047 76.8932906881518
6431 9047 181.18778229684912
6432 6433 58.466369940854946
6433 6487 92.83802228477694
6433 17199 247.80186235447061
6434 6435 47.72742949030368
6435 6436 99.77041448582197
6435 6437 401.1787799844088
6436 6437 153.7223703471766
6439 6440 99.66427211887824
6440 6441 199.91824620990957
6441 6442 201.6835006705368
6444 6445 100.95131948881043
6445 6446 101.07558631793779
6447 6448 96.11687279033502
6447 18331 72.0544709838836
6449 6450 114.13085732630147
6451 6452 199.15681984878188
6453 6454 79.66655129022172
6454 11968 370.07843766858184
6455 17554 17.88385156006673
6456 6457 76.80802422108027
6456 14108 145.84683273078983
6457 6458 105.22323895637633
6457 7736 145.7230516457363
6458 15371 144.02354936963613
6459 6460 98.33700819624194
6460 6461 71.5048878946963
6461 6462 81.5386238004597
6461 17096 199.10032473477997
6462 6463 75.49640697721956
6462 11270 82.41827067949937
6463 17097 94.59852513352186
6463 17101 95.69426516621753
6464 6465 39.35195943542254
6464 18932 67.86464604594678
6465 6466 113.65143206504514
6468 6469 132.97896069690142
6468 7778 26.68152290637244
6468 11812 33.85607591447074
6469 6470 45.97560802434811
6469 8138 141.6250247863766
6470 6471 70.77698651961556
6470 8138 90.70889720421623
6471 10955 93.05169374725081
6471 18870 770.8924971782478
6472 6473 140.28784134498412
6472 13889 34.5082146053639
6473 8201 175.38544386184148
6473 13833 146.16999541071655
6475 7145 69.08802304312577
6475 14455 103.26498282937413
6476 13328 67.94625567103381
6476 18820 99.15632201165889
6477 6478 129.69944559208253
6477 7099 109.59072622499914
6477 14159 80.04515886525242
6478 6479 80.98834344893581
6478 8057 62.612620807791735
6480 6481 354.2589163137182
6480 7622 109.18573060946854
6480 13231 199.7848522878127
6480 17015 20.082336986370553
6481 6482 381.4013182464173
6481 7102 139.10426894172895
6481 13121 199.6661229002677
6482 6483 201.7891077666973
6482 13758 98.44839905559587
6482 13759 102.97867696723893
6483 6484 402.2085165375347
6483 7245 94.71292034577962
6483 7246 102.54266936289785
6484 6485 231.57627330383153
6484 14514 99.9241447010436
6484 15471 97.52026751033416
6485 6486 32.257878274019234
6485 15781 67.920537144371
6486 6529 101.28973927308343
6486 12096 90.04522580203023
6486 17199 74.14582533798757
6487 7098 142.49310095059263
6487 13351 158.62553247287593
6487 19901 9.60878495780333
6489 6490 30.6517123423885
6489 16073 124.99022286525673
6490 6491 116.18005017252126
6490 14513 86.64006485241885
6491 16835 52.91298595607172
6491 16836 29.66050460051605
6492 6493 158.23697162609346
6492 8437 88.34879107044928
6492 19968 120.2671932073196
6493 7577 60.29858198187678
6493 20007 572.5026415546234
6494 16956 501.50961247432645
6494 16983 278.1218558459853
6495 17440 8.148022039936116
6495 17443 8.998961026974102
6495 20122 98.54763730413777
6496 9203 93.66393197451953
6496 17971 910.3388249963093
6496 17972 758.837874363558
6497 17972 755.2548188318832
6498 6499 186.09740438131126
6498 17440 32.057242668380574
6498 17971 35.81210434638897
6499 17440 164.15613560724012
6499 19348 35.65176104661905
6500 16978 162.45679761797365
6500 17014 512.1757760449456
6501 6502 36.9551779351739
6501 17389 47.26901878101713
6501 20036 105.45958413232528
6502 17244 14.587627066232615
6502 17389 28.92763987047085
6502 17392 28.587890778650117
6503 17246 126.55382650727633
6503 17247 11.064009435746613
6503 19158 715.9963078720939
6504 17248 10.930476730726248
6504 19055 195.68546903678157
6504 19158 202.77435564747663
6505 16823 204.3765834288897
6505 19052 66.82539591669416
6505 19053 59.911236693838745
6506 17250 11.030827120447507
6506 20033 682.2340802895939
6507 14665 78.68298110292365
6507 16839 80.69996520188593
6508 6509 79.67698369312409
6508 11131 78.79003406350921
6508 11132 79.13863386252464
6509 6510 79.26118919951047
6509 14664 77.84979100953687
6509 15112 80.22902711955066
6510 6511 80.30922621725358
6510 14663 78.19592454393646
6510 15111 79.92799198223994
6511 6512 78.4189026614398
6511 13765 79.21131400635724
6511 16995 78.96440468140433
6512 6513 79.31968091287945
6512 13177 79.1998531010201
6512 13178 79.01270640820853
6513 6514 78.85261558900328
6513 14662 79.06275369753523
6513 15110 78.59715365802813
6514 7935 78.41617657099833
6514 7936 79.10985094965359
6515 6516 78.73034079643065
6515 14660 79.21484978043803
6515 14913 79.17645336008384
6516 11721 79.164264077412
6516 11722 79.24244230559177
6517 13549 78.93062126088442
6517 13550 78.57068458993707
6518 7833 76.97237059366455
6519 7512 38.583302720632474
6520 13080 198.4983928362866
6521 6522 234.59980812296732
6521 13388 82.90435749255695
6521 18356 70.4911723413257
6522 12085 90.60375042881498
6522 12086 83.21028709881743
6523 6524 77.67612372145943
6523 10367 194.48190238698513
6523 18726 138.71643657304347
6524 7125 195.08459198525424
6525 15121 158.78800838898513
6525 18727 75.85140878419685
6526 8922 41.38738536940327
6526 8923 180.24851839291466
6527 6528 39.85281170390728
6527 14684 92.95792132969925
6528 6529 94.46202015806075
6528 14687 60.918904266386086
6529 15472 68.3145246900327
6530 13461 336.8594936068761
6530 17514 280.2310883102581
6530 19990 82.83202542198465
6531 13400 42.810617269768
6532 6533 153.84494959311587
6535 6536 77.14991726219523
6536 6537 98.21374476367055
6536 8002 316.4458646384393
6537 6538 75.80780212618662
6537 15388 27.254624625467155
6538 6539 152.6448819223427
6538 7615 91.1560540865234
6539 6540 80.85226671695898
6539 15387 23.797312654137052
6541 6542 74.84508780523882
6541 6549 108.1511840051261
6541 6563 26.514918811188206
6542 6564 22.688277763156414
6543 6544 79.01068869934107
6543 6557 44.254876502181716
6543 8287 79.13094574319778
6543 12127 81.62020256650733
6544 6545 159.96604190720745
6544 6558 44.251422536331475
6544 7003 81.2128061543837
6545 6546 77.8830377494748
6545 6560 44.92586896239732
6545 18452 80.33869277463674
6546 6561 45.093838177411214
6546 18450 79.75533122286065
6547 6548 78.36838501065783
6547 6562 45.22844647913519
6547 15753 79.88495534340655
6548 15754 80.22666367168337
6548 15755 157.1222482025262
6549 6563 123.71147857488737
6549 16841 50.55162427536616
6550 6551 79.61726669267593
6550 8281 75.28693106173422
6550 11274 83.18030413238681
6551 6552 78.88150667217492
6551 8282 44.75054097637559
6551 12045 82.7774558838416
6552 6553 79.32389654259552
6552 8283 44.78723935740963
6552 13189 82.72234074034901
6553 6554 77.60191466654396
6553 8284 44.447620910265115
6553 11581 82.09365671574493
6554 6555 82.28538963583328
6554 8285 45.46848356120128
6554 14691 81.7929075762084
6555 6556 78.26790341253314
6555 8286 46.44459598674575
6555 14692 81.46462676047389
6556 6557 79.08084593248574
6556 8287 45.13232667387749
6556 11176 82.32401581947785
6557 6558 78.94737174894478
6557 12126 82.32576054952148
6558 6559 80.0084410050758
6559 6560 79.97149362232578
6559 9569 82.32168975860243
6560 6561 78.16473641077324
6560 14693 82.32250554701689
6561 8116 82.32732682607795
6562 14694 82.33628380618147
6564 6565 34.333899293805246
6564 10535 82.23117346690604
6566 15382 156.42327089795444
6566 15383 77.99471791803136
6566 16925 136.80933222551923
6567 6568 180.93624802049487
6568 6569 447.91278051960023
6568 12233 377.1606846580499
6569 6967 316.7525026190509
6569 18813 191.71564447824332
6570 6571 297.9743362108248
6570 12438 122.13703942874753
6570 12439 150.9077034608937
6571 6572 197.1317122252541
6571 7648 107.21585256834494
6572 6573 307.59654724529366
6572 10039 107.41530441656937
6572 10040 74.44582998937622
6573 12561 151.04832160591354
6573 20072 39.18516809121637
6574 6575 206.46460215715672
6574 15363 135.44504634070137
6574 15364 63.648073566444694
6576 6577 207.59085613965786
6576 6586 52.35139099608095
6576 14192 77.20295175218334
6577 11843 77.59561967881785
6577 11844 77.53723551290398
6578 6579 203.07783880936205
6578 10772 75.89131846242395
6578 10773 78.24848407808588
6579 14271 77.94981438421433
6579 14272 77.68760214113935
6581 6582 158.89742409737136
6582 12724 74.8427794560055
6583 12348 75.51275909991924
6583 12349 88.71514472530163
6584 6585 78.89218031621978
6584 12987 163.87989621810897
6584 13627 75.66852609145994
6585 6586 77.20879553617118
6585 12386 203.59833270327817
6586 14191 24.420144893762703
6587 6588 124.38704974321557
6587 16010 76.28327467266018
6587 16011 76.1720847061014
6589 6590 121.35209531050924
6590 9081 117.04632051946183
6590 9082 64.57142216679415
6591 15113 76.39148260465763
6591 15114 76.28026149776443
6592 6593 43.52205688884148
6593 14890 62.848748971530206
6594 13364 66.25818013047757
6595 12978 185.46403624705664
6596 9598 291.44394693708887
6596 10280 99.27363029686842
6596 12981 81.61540773564764
6597 6598 100.50226118984052
6597 10565 148.65788808446564
6598 14068 142.33812011969292
6599 6600 197.59588295257075
6599 17541 113.81675065834784
6601 11762 104.24081251141514
6602 6603 115.52604536630905
6602 10566 53.856010571059365
6603 14071 27.3225804029968
6605 6606 194.90482862514935
6605 8071 258.4723593206421
6605 10687 144.97478726602168
6606 7142 255.12909170897967
6606 7575 186.73692435217055
6607 12678 94.03372520501115
6608 6609 116.54602064808525
6608 12968 74.54156731292277
6608 14377 424.00469247639563
6609 17788 45.77997021604753
6610 6611 7.552091450985073
6611 6612 124.42655514376172
6611 8535 100.82795007435905
6613 11534 187.17248209694566
6614 18133 33.72408589544726
6614 18181 9.52291531618646
6615 6616 138.348966081735
6615 13210 94.97414364127465
6616 10948 94.55931100040546
6616 17580 140.6201571571915
6617 6618 66.51752243068418
6617 8650 108.51733660539102
6617 8651 210.7477895188339
6617 10063 78.08364142864193
6618 6619 19.64835780311455
6618 10679 106.27431917695469
6619 6620 57.45537475371886
6619 12522 208.90585754166955
6620 6621 80.76277463258282
6620 15844 62.06708429170057
6621 6622 101.28934988128981
6621 9330 70.12912202327428
6622 8910 32.2746955434494
6623 8127 214.70431823377905
6623 8128 208.77373094929723
6624 12322 79.0923911782412
6624 18944 73.1204842032557
6625 6626 79.20520135187955
6625 11719 77.52727681293631
6626 6627 80.8355985468298
6626 12323 78.84872261298808
6627 12324 79.22840600972762
6627 16994 104.12497647338313
6628 18039 136.38865392198437
6629 9620 59.040254059468545
6629 9818 107.40673364822285
6630 8154 89.32262411807007
6630 9819 92.22745576557642
6631 9822 91.94325944942116
6632 6633 126.97532467036217
6632 16205 39.24260351272439
6633 6634 170.55325584289818
6633 8044 76.33626780850155
6633 19956 55.71272416390521
6634 12540 75.98305870684254
6634 19953 55.45498798526329
6635 6636 226.5115170826887
6635 8466 91.69247402095716
6636 8467 76.79142631139149
6636 14838 110.96599796708203
6637 7835 105.57977342506345
6637 13024 261.51657483289927
6638 7836 112.48911936970752
6638 8459 83.27476999915254
6639 8474 81.46670984987011
6639 8475 263.01978436359764
6639 15120 55.17504817244661
6640 6641 401.19111754448613
6640 7830 148.82672252605022
6640 15539 49.46072708561381
6641 7831 150.0479150136427
6641 13352 155.0268624327123
6642 6643 70.84341652603439
6642 7837 126.07403606416867
6642 9469 36.52950080609277
6643 6644 117.2215840356531
6643 14352 79.96138776930484
6643 20077 71.93380152462183
6644 6645 78.8388167555312
6644 8461 79.47609806231762
6644 11426 78.59844863114574
6645 6646 79.2495182802913
6645 8462 80.12227034865528
6645 15393 78.26638546739596
6646 6647 78.49457381699314
6646 8463 79.99482391561892
6646 10237 79.25178068708645
6647 6648 77.15677458638001
6647 8464 79.78941171021216
6647 15394 79.91009618541985
6648 8465 78.41335444838255
6648 9278 79.71626361540926
6648 19186 24.764025173422738
6649 15395 78.63369659239076
6649 19186 56.69775311689739
6649 19187 123.43547187223659
6649 19314 22.830809438626396
6650 6651 221.9752255991446
6650 7832 125.75073872144459
6650 14833 194.25991749891568
6651 6652 75.33182186183481
6651 10527 35.58244813189563
6652 10781 58.85447051841646
6652 13383 85.28431364212014
6653 6654 79.4247567328616
6653 13045 104.30417886593561
6653 14437 124.909957506507
6655 11487 203.00926454746428
6656 17726 174.4906168381955
6657 19876 59.95803316298739
6658 6659 273.7490144355877
6658 8347 188.28195845248857
6659 8766 114.55963383624281
6659 14966 52.85201000764298
6659 18900 50.91980659237366
6660 18900 28.782669776394062
6661 18900 189.26240359394646
6661 19770 84.84793065091993
6662 9175 74.27146158507323
6662 17242 264.11890127958355
6663 6664 244.3082550526105
6663 8987 173.76072455459328
6663 18289 207.75399567640503
6664 16511 99.3641590258669
6664 17463 156.22258469574666
6665 10457 138.56473979533055
6665 17118 204.894861344772
6665 17465 57.267053207862574
6666 10706 47.436516713073544
6666 13246 114.60921795283942
6667 11813 77.12701000088316
6668 6669 174.3757918830972
6668 9184 58.71670793179129
6668 12797 223.81531577462238
6670 6671 45.22002760018487
6670 10388 34.07282753436867
6670 10640 196.3266936298448
6671 10387 37.08916622579665
6671 14140 112.52942770321629
6672 6673 93.97121589924284
6672 12990 150.67718675193169
6673 12990 173.2711177060324
6674 6675 77.7150541466654
6674 6755 78.22629295950571
6676 8291 196.00975392616263
6676 19778 6.924376533784866
6677 8291 45.01661773927249
6677 8292 109.39141390763204
6678 6679 93.55791031234043
6679 6680 267.143810044586
6679 17129 58.38983996688731
6680 17258 91.08499712831986
6680 17259 59.95659194184244
6681 6682 46.26669649560784
6681 12836 111.38499246453026
6682 12836 58.940281745811454
6683 9233 149.83579492063723
6683 13926 139.82421809227654
6683 17384 345.5370938023485
6684 15505 161.72988433377435
6684 15599 79.34999562121665
6685 6686 26.13628343535975
6685 9528 38.256606427591564
6685 16878 235.96308368594822
6686 6687 211.1584855170847
6686 9533 75.52340752980331
6687 8157 50.94019177512081
6687 10864 98.4161227651924
6688 6689 52.53127166349716
6688 12760 90.19013939131497
6688 17201 53.192539619960776
6689 6690 79.66809590621867
6689 7404 84.1597760626207
6690 6691 79.31438695213224
6690 11272 83.99636812805603
6690 11273 87.65195292207757
6691 6692 79.02869021320801
6691 12043 83.19567511761608
6691 12044 89.04855794008705
6692 6693 79.53442526491787
6692 13187 83.10182359878704
6692 13188 89.39835779249783
6693 6694 78.31873578340937
6693 11579 83.65879107392156
6693 11580 89.03714902561583
6694 6695 81.62556185348595
6694 15258 87.79536407521059
6694 15589 84.38414385787374
6695 6696 77.72367580451022
6695 15259 87.85351295928503
6695 15590 84.62111802437508
6696 6697 79.38541595871656
6696 11174 83.21108507611225
6696 11175 89.65616145367353
6697 6698 79.09405757664241
6697 12124 83.0252264886857
6697 12125 90.46847378344282
6698 6699 79.29229578639706
6698 7000 83.10291891574218
6698 7001 90.29424944591135
6699 6700 79.97161802688024
6699 9567 83.29001721496962
6699 9568 87.65743406644249
6700 6701 78.16484237471944
6700 15260 88.32742902816483
6700 15591 83.63303489213638
6701 8114 83.63381759229398
6701 8115 88.32272505097491
6702 6703 78.93955134878715
6702 15261 88.32849942097292
6702 15592 83.6428495246245
6703 12790 85.01347485229536
6703 15262 88.32937697599985
6703 17626 79.04520600374832
6704 6705 79.12684729664711
6704 9110 83.89196749313582
6704 9111 88.33210952289038
6705 15263 88.3330223117349
6705 15593 84.26674036782092
6705 19278 80.696007083072
6706 14344 157.77717117755736
6706 19200 11.909021977768194
6706 19299 87.73076620195866
6707 6708 132.65012182733363
6707 12426 69.55261058272767
6707 15507 67.7520736315012
6709 6710 51.953453608217345
6710 6715 107.06879461675987
6710 14410 44.48925995654775
6711 6716 83.44251006593844
6711 9528 381.02718883986114
6711 18952 16.80205959341965
6712 14241 89.34583071471495
6712 15123 271.1421819666576
6713 6714 79.67931422922587
6713 11757 88.82992779967515
6713 19034 79.30400457769167
6713 19267 99.83257798938305
6714 14133 88.92422580007859
6714 17296 59.993108383005
6715 13079 302.17878364546874
6715 15595 82.10662525536195
6716 9587 59.39710105102684
6716 17064 49.38484916054513
6717 6718 48.40433847363602
6717 7619 47.810331090187105
6717 13669 90.02514644928178
6718 6719 110.22769571284674
6718 17672 49.30999372751652
6719 13642 125.47065966067449
6719 14455 102.73627735651502
6719 18256 159.5699738405751
6720 9457 79.49597362310737
6720 16086 79.42696980906297
6720 18256 19.58149301000222
6721 6722 72.13260485152485
6721 9141 108.56956610475507
6722 6723 158.83615688714298
6722 6725 5.514682173510551
6723 6724 53.718787826318255
6723 9140 106.58923957252348
6726 6727 218.12795839173896
6726 7462 146.9144330035489
6726 10090 65.20041376363152
6727 6728 96.98850846345904
6727 9135 95.38694356192808
6728 15918 192.5156616481532
6729 6730 79.08197992637497
6730 11153 79.8541749119752
6730 11154 163.84931876474198
6730 14646 217.93733622884668
6731 6732 239.7718856619495
6732 6733 365.05476201797455
6732 9971 91.22764879316665
6733 6734 20.932090443187278
6733 18853 42.56934810981902
6734 16711 419.5665895259168
6734 18853 33.66227056271532
6735 6736 51.040031054799016
6735 14317 115.62418695724533
6737 6738 196.22603260001154
6738 7679 133.4070688338314
6738 13681 61.29807513370559
6740 6741 284.20646151047697
6740 14072 79.17150363243317
6740 17116 53.91466197280863
6741 6742 142.12070815642508
6741 9983 87.04994383852642
6741 17115 77.9399512350124
6742 12116 76.68911825221478
6742 20150 67.94880952946399
6743 6744 97.64188732619304
6744 6745 79.738080437812
6744 7723 99.89170104616046
6746 10449 137.6830097303655
6746 15235 45.4316152007374
6748 9017 418.24210569577986
6749 6750 158.26680563034364
6749 19825 310.22557004697654
6750 13288 79.60500848556305
6750 18940 79.22830955744251
6751 6752 158.81812864624655
6751 13295 79.31711648815327
6751 16244 32.579701140869524
6751 18940 78.80744899878052
6752 6753 156.98205849487445
6752 9773 78.2149400297638
6753 13294 78.87819047382402
6753 19981 76.85381606458651
6754 9740 295.61927313252716
6755 15006 76.52761231985482
6755 18602 194.11232836435727
6756 6757 166.2527446013408
6756 7999 45.35655396824071
6757 11357 159.25343841319955
6759 6760 89.04098362561605
6759 10583 240.19045980709697
6761 6798 79.3405289892379
6761 6799 80.48592678203998
6761 15670 83.78002588544558
6763 6764 34.91026778132778
6763 18278 73.54731304256542
6763 18279 58.66360890837037
6765 6766 228.36900423384083
6765 10882 74.38467964642902
6765 15946 77.29371843934388
6766 6767 106.17263257928902
6766 8142 304.4231230668687
6766 18874 169.78699101011944
6767 6768 72.89318205728691
6767 15853 190.40141470266235
6767 18873 134.17536641161539
6768 6769 69.55483105022459
6768 15286 69.81157040024368
6768 18953 102.25417172006019
6769 9016 159.43661528433722
6769 15853 309.51429804110484
6770 6771 295.7534281118925
6770 19134 101.22843234796841
6771 6772 288.55127078981167
6773 6774 111.30344151155808
6774 6775 74.8706892474798
6774 10880 66.50330211902832
6774 11646 77.85111444263872
6775 6776 82.82009477813637
6775 18366 136.08737100623642
6776 6777 77.29713501164736
6776 11011 75.19226308841951
6778 6779 78.45759978525803
6779 6780 37.923322611375234
6779 18565 126.57826159610488
6781 6782 45.48141259081298
6781 12808 77.71480921328377
6783 6784 26.357889644148848
6783 17088 35.898878316550324
6784 18950 75.77207996141097
6784 19618 416.08192422291677
6785 6786 114.83995031554227
6786 18309 205.77059168367737
6786 18395 302.7102199713104
6787 6788 71.22002110308777
6788 6797 47.644165677230774
6789 6790 56.568612785544715
6790 10529 82.1976119848999
6790 10530 78.45531058799097
6791 6792 79.47441659314464
6791 15674 82.33082637741946
6792 6793 78.46820723279332
6792 14452 82.96699507387727
6792 14453 78.7307583421507
6793 6794 79.11496601874683
6793 14904 78.42581809894547
6793 15675 82.96895909461085
6794 8900 82.34584162092139
6794 8901 78.74927090835433
6795 6796 44.592641546590215
6795 10664 79.9892637386404
6795 18894 14.571561504224936
6797 8772 112.93348120957477
6798 11584 83.39431063534363
6798 11585 73.24441943329913
6798 19431 44.284871226165336
6799 15671 80.10186692799321
6799 19958 78.74161008608154
6800 12129 82.40558216014527
6800 17035 90.8429717656201
6800 19958 79.11649774040832
6801 6802 85.48388111683931
6801 13174 188.07501050187642
6801 14587 161.02827243049242
6802 6803 75.98060669901986
6802 9591 170.84855138107153
6803 14555 170.745999478094
6804 6805 64.66042281824983
6804 12840 169.74366337374892
6805 6806 42.65607686396416
6807 6808 76.35826984394224
6807 19752 166.61402911325786
6809 6810 66.33664968258059
6809 17033 101.92782284700306
6809 17967 35.455087629473965
6810 6811 64.11507952211934
6810 19643 5.375897076234366
6810 19995 94.23938244694443
6811 8118 83.1088694166091
6811 8119 75.9715357083759
6812 14901 78.66198617270786
6814 6815 63.9705792004144
6815 16546 22.970544333095603
6815 17279 53.30255274261405
6816 6817 121.1326116905303
6816 11465 185.63493704857925
6817 6818 86.72274807973247
6817 11465 197.64514055856648
6818 6819 84.24032687124742
6818 11369 76.01298716494034
6819 6820 85.82759661259115
6819 11371 315.6786602057218
6820 13216 173.5727622083271
6820 17520 180.44578899827238
6821 8950 768.6144500025847
6821 17521 315.6403330551182
6822 6823 220.74655384615113
6822 9864 173.98271056046482
6822 16765 118.94713430437073
6824 6825 35.18246979071798
6824 6832 46.063332126328156
6824 13090 127.38726051443953
6825 6826 76.73572886164429
6825 13392 151.71326884094057
6826 6827 280.66291730757524
6826 13392 348.9305960078676
6827 13091 107.19991956633709
6827 13393 63.13102550786205
6828 6829 304.66639638932855
6828 12088 83.42121033375204
6828 12089 66.19080555131914
6830 6831 284.0393548961235
6830 13089 66.96316281313838
6830 20027 62.8730850135189
6831 6832 124.02342525769231
6831 20028 376.1666702581242
6832 10305 200.30640450827636
6833 7515 255.38371721028486
6834 6835 143.16191856871612
6834 6837 41.58251037792712
6834 13125 109.59281248936642
6835 6836 222.9705152557342
6836 13396 136.84015912303084
6837 17025 337.5692620668818
6839 6840 318.048701840161
6840 13885 223.6783837386317
6840 14622 170.31937456122992
6841 6842 80.22614863703907
6841 13270 78.98152356515217
6841 13564 78.32889092964938
6842 6843 78.86128661642098
6842 12399 78.83439117057128
6842 19460 79.24729266877759
6843 6844 78.71648392555947
6843 11898 78.85929944318033
6843 19461 79.46690615619353
6844 8513 79.66996466985925
6844 19462 79.49947801341214
6845 19960 14.126697564266284
6845 19961 17.22751023328402
6846 6847 80.59046336956064
6846 8240 75.4807804572741
6846 19465 78.94575202899387
6846 19467 82.8416449651372
6847 6848 79.26073808158445
6847 14498 76.19418990402764
6847 19468 82.17138986072854
6848 13740 76.19565788951675
6848 19469 82.13300527512749
6848 19878 54.31933543937261
6849 19470 79.62506969159595
6849 19878 25.153793571570105
6849 19879 20.504826097470257
6850 7231 82.06495689564315
6850 7232 76.19758707860935
6850 19879 59.289489492225165
6851 14933 76.12159056735027
6851 15377 82.52462151092078
6852 14934 75.96085354035816
6852 15376 82.70127984400338
6853 6854 79.09348109974626
6853 13637 82.96030232177829
6853 13638 75.72613727019453
6854 6855 79.87187223002577
6854 12066 83.08636373226739
6854 12067 75.74554380336055
6855 6856 79.60734662817161
6855 14935 75.45842751948378
6855 15375 82.37770313143437
6856 6857 17.31825774352982
6856 17403 17.161466021396127
6857 15374 97.53396875512797
6857 17948 95.80538320588909
6858 6859 61.57558820892846
6858 10323 77.39850797426783
6858 20075 79.57270898824888
6859 6860 88.25436466445673
6859 18830 21.245601572512093
6860 6861 118.99280420184112
6860 11476 44.06535727058576
6861 6862 156.2635373793611
6861 13024 79.44290264844389
6862 8470 51.80150193069717
6862 18013 105.0698607138956
6863 7835 67.8808749105699
6863 17102 44.278245118054905
6866 6867 79.0819503968865
6867 6868 79.71601357340933
6867 13002 78.98383132254713
6867 13003 79.44697464138599
6868 8131 79.834436703262
6868 8132 78.80521207025808
6869 6870 78.57218453081877
6869 13949 80.78000653958581
6869 13950 79.28336795974614
6870 6871 80.12845416203282
6870 9026 78.61472043951261
6870 9027 79.9085841398739
6871 6872 80.35000504763927
6871 12294 79.34786631109259
6871 18770 68.07563945654958
6872 6873 23.732364289231924
6872 11227 78.58082629419633
6874 18891 244.3767505552854
6875 6876 40.736496285865684
6875 14048 58.21654848374173
6876 6877 138.3335896418496
6876 11054 74.10382889286744
6877 6878 169.99816836554066
6877 15095 416.0690437717554
6878 15093 303.9414979160529
6879 15091 113.83536611731205
6880 6881 81.33074271551698
6880 12483 89.77211800861458
6881 6882 147.13354267486713
6881 9205 292.44354325734923
6882 9205 168.8743339693849
6882 11453 51.18446511531619
6883 15604 188.66157329127827
6884 16989 469.75492596069716
6884 19662 190.21021711356448
6885 8807 77.4201604832572
6885 9255 98.1355710923402
6885 10270 86.39297892200892
6887 6888 76.09952681932029
6887 7605 298.1153784972591
6888 7606 298.2302161234042
6889 11156 81.63238156873756
6889 11157 79.15948216048609
6889 19062 275.5523548280409
6890 6891 37.32674963854416
6890 15001 86.2990097539762
6890 16625 92.95658196529945
6892 15003 88.9867031319931
6892 17198 49.18550244806818
6893 6894 155.9525078627013
6893 6899 17.6507607148221
6893 17963 76.11235616994713
6894 7585 78.80222953746011
6894 8311 86.10966176106135
6895 6896 170.13864052685983
6895 7586 79.76782252062713
6895 11202 81.76968315955341
6896 6897 139.59985601148597
6896 7587 79.28076494887296
6896 9386 82.00598006710783
6898 7584 73.78887400421985
6898 9825 62.33336355372102
6899 18184 65.48204270701576
6900 6901 117.51155862915164
6900 14377 214.81601590541575
6901 6902 24.683845149548983
6901 6903 43.48477506005886
6902 14377 584.5132379621414
6904 6905 64.25359211031211
6904 7209 91.84375559036505
6904 7210 35.960127108007185
6906 7350 156.37399770596645
6906 7351 159.02987717325567
6906 9729 165.59475554689234
6907 6908 95.9392267961792
6908 6909 102.7270401039716
6908 7787 78.76511485283042
6908 7788 49.100516980694074
6909 11350 48.70796339236682
6909 15410 79.7006726481362
6910 9109 94.73237752380346
6910 11074 73.04705549261486
6911 6922 38.3661770381671
6911 11070 41.1468978861375
6912 6913 26.31534105542367
6913 6914 14.981863885999328
6913 13790 95.37608317680434
6914 6915 500.2240903377768
6914 11077 62.843642465985454
6914 14954 152.9493216414236
6915 6916 296.54729566242145
6915 11325 133.30343341543352
6915 13307 133.26050202602624
6916 6917 401.37545725358814
6916 10666 135.0558374221602
6916 14955 162.3619379178002
6917 6918 52.49453532181083
6917 11326 133.5838104265695
6917 14956 133.7293815507446
6918 6924 294.0621086313639
6918 10523 263.2498886127305
6919 6920 197.4678319182566
6919 10101 93.44872349744062
6919 10102 92.49145624694322
6920 6921 140.82229587493612
6920 8093 104.72588880900126
6920 8094 94.43861168328014
6921 11321 86.78692544743657
6921 12676 98.96845071950548
6922 6923 75.77644175654447
6922 15477 46.596011917072154
6923 7468 319.33604332161224
6924 10523 85.85281321247581
6924 11326 391.98767076786925
6925 6926 79.0559413524621
6925 11348 72.08784424344708
6925 11935 111.01785448797497
6926 6927 78.78724180953219
6926 11329 153.18296810923616
6926 14010 111.06238790969283
6927 6928 79.20826372351807
6927 7328 111.18396448921054
6928 6929 123.06744480606599
6928 9121 111.89563985192089
6928 9122 77.49261140743694
6929 11360 82.81268691579307
6929 15209 112.09191810957404
6929 18865 74.79961913323395
6930 6931 174.45350743230605
6930 14441 115.55661909275818
6931 7208 84.79783480689606
6931 13462 80.92087775558053
6933 6934 75.45543995325835
6934 10958 57.29985365916868
6935 6936 242.2884580710955
6935 12171 35.04377792690461
6936 9864 615.7991852533223
6937 14996 75.9977597610889
6937 14997 262.6750000966093
6939 6940 78.89257892261551
6939 15722 78.60275200982565
6939 19276 37.87921339502586
6939 19295 79.47734237001913
6940 13179 79.05170368180008
6940 13180 80.47012822721965
6940 17311 79.00601477045596
6941 6942 78.96724991167055
6941 15013 80.65526045528429
6941 15723 79.52583899316934
6941 17311 79.6369061877092
6942 6943 80.19762027697617
6942 15014 80.9132390872974
6942 15569 79.27018652442467
6943 11133 79.46146728924964
6943 11134 81.32213515792083
6944 15015 79.78147395496026
6944 15724 84.40572314383945
6945 6946 78.30937263021885
6945 15016 80.71762195981988
6945 15725 79.46343589823947
6946 6947 180.73069511855635
6946 9334 81.4558052294566
6947 17401 46.41006122022256
6948 6949 40.896027435313854
6948 13224 90.27930017843732
6949 18884 325.1194830515439
6950 6951 70.69525344414375
6950 11697 89.61215650923295
6951 6952 75.35114109754505
6952 14896 75.43522474983328
6953 15581 58.014264287422236
6953 15582 88.17197347755221
6954 11781 121.79369754597519
6955 17878 17.528255689638254
6955 18276 29.081342772276646
6956 17878 98.3557367439175
6956 18277 84.00522746844821
6957 6958 134.79761219375678
6957 7308 38.13999348233321
6958 6959 206.39636655542236
6958 10451 79.92717843034515
6960 6961 133.55255980224646
6960 16517 296.77778572434954
6960 17877 111.35169729971264
6962 6963 43.16073272248971
6962 10667 72.27548136689093
6962 13308 229.96359003984324
6964 6965 194.3879759039731
6964 6966 38.85015007232538
6964 11061 143.4721715918227
6965 10624 106.6397818754152
6965 16498 64.33834851439421
6966 11059 38.540287811684955
6966 18454 220.2196633524587
6967 12232 140.23171866565508
6967 12233 393.99956199205565
6968 9526 98.95445417457749
6969 6970 75.42451587822103
6969 15756 97.86109791859154
6970 6971 141.34711927096637
6970 13172 101.13076734402536
6970 13173 45.18941442071351
6971 7548 132.52737513401146
6971 9589 104.80469753188382
6973 18581 6.123670682008628
6973 19113 78.1025130931703
6974 6975 19.11783911491369
6974 15048 78.20058409429683
6974 15758 75.87418951059195
6976 6977 79.30382977328097
6976 12046 84.54690021837477
6976 12047 85.49467170896398
6977 6978 79.79136410157359
6977 13190 85.55681769827983
6977 17263 85.27413650375897
6978 6979 77.05115167815268
6978 11582 85.670383905598
6978 17262 85.36167991182528
6979 6980 83.87077843784478
6979 15037 85.16027330665683
6979 15727 85.2642455907702
6980 6981 76.52790297661457
6980 15038 85.55013738509308
6980 15752 85.23363025503534
6981 6982 79.35809209941735
6981 11177 85.94814065825783
6981 18127 84.96628217763288
6982 6983 79.40028014705531
6982 12127 85.68211204564679
6982 12128 85.20004290088846
6983 6984 159.9689090088939
6983 7003 86.08656248159453
6983 7004 85.20300779035128
6984 6985 77.51809217348104
6984 15039 85.20473191062042
6984 18452 86.29634659753995
6985 17261 79.97444120793408
6985 18450 86.70851136379021
6985 18451 85.21334548399976
6986 15040 91.93477841380857
6986 15753 79.71498707611335
6986 17261 80.28070194790965
6987 15041 172.46012018930614
6988 9821 92.27160537466331
6988 13905 89.50228918641986
6989 6990 131.92421447108748
6989 9825 92.45141980507125
6989 11201 89.0855727897229
6990 6991 120.04798238685538
6990 7583 89.00472334914694
6990 7584 92.84519916533179
6991 6992 119.67538493883296
6991 9826 92.5624406858056
6991 10684 88.76061196301364
6992 6993 120.61917351578917
6992 9828 92.45866572715147
6992 13906 89.19112603948955
6993 9829 92.11558771593857
6993 13721 89.35946654480195
6994 7458 88.19128523992924
6994 8777 145.8673449830265
6995 9570 82.66220657458184
6995 12130 82.1093175162187
6995 17034 11.363268992876968
6996 6997 121.62625845413262
6996 9571 81.00847245372555
6996 12131 82.82581928341929
6997 7005 35.28376082543479
6997 7671 38.38614421623713
6998 6999 84.36937350856809
6998 9565 77.5941789816785
6998 12123 80.67339723760988
6999 7000 85.96355437901748
6999 9566 78.92464792118571
6999 11290 79.46310526538022
7000 9567 79.43332193755128
7000 12124 79.27599151902947
7001 7002 81.00414431692126
7001 9568 79.73757359025497
7001 12125 79.02835474524424
7002 9569 80.00820421061283
7002 12126 78.86727757630048
7003 12127 79.40020973166908
7003 18452 159.8799178102624
7004 12128 79.56806925430958
7004 15039 159.9689645113927
7005 7006 108.98014824490282
7005 12133 53.76464748764003
7006 7007 108.37946535224366
7006 7672 73.578845392276
7006 8628 79.21832893234635
7007 8629 78.9410153411039
7007 18050 72.95594653203081
7008 12134 25.376645993913193
7008 12135 256.01997834992983
7009 7010 143.26547635434503
7009 9714 43.19273985471389
7009 11535 79.28073371834185
7010 7011 108.85072485421956
7010 11536 79.51776947548473
7010 13888 78.73310064327413
7011 10425 130.1134776217717
7011 11553 75.29812435932357
7012 7013 134.3043769800257
7012 9752 78.95732519516929
7012 9753 74.49635866285324
7013 7014 99.30846543289468
7013 9839 30.25950940612186
7013 13829 151.23247169910653
7014 7397 56.869309504810616
7014 7398 206.76450819256596
7015 8155 35.056430089575265
7016 7017 154.78324023765347
7016 9551 46.09610309325327
7017 8310 46.04408298843023
7018 9327 76.17575878359838
7018 17578 83.28815703537539
7019 9328 75.2304225756601
7019 12227 77.96192158301214
7021 9330 68.214605398569
7021 9628 70.58053523116052
7022 7023 331.80275606042613
7022 9331 85.80725466984997
7022 14095 86.39917109216722
7023 9332 79.09172343046752
7023 9810 43.05603527787997
7024 7025 27.72305687347914
7025 7026 77.00475726073488
7025 11862 149.97187803049565
7026 8011 53.09856719450279
7026 9166 149.53719536779306
7027 7028 582.482662689984
7027 18122 276.84346824977723
7028 11543 53.785502195589906
7028 11563 363.35661173704335
7029 7030 48.042110680238224
7029 9085 115.33717547376281
7029 17139 183.70799209322777
7031 7032 86.38972288047779
7031 15871 573.1181627225335
7033 7346 107.45814494349759
7033 14224 79.38430176507734
7034 7035 80.04387621645054
7034 7347 79.04938624117467
7034 14225 79.30545715313707
7035 7036 79.09375412379418
7035 7348 79.65499679243047
7035 14226 79.3379312176698
7036 7349 79.86915277473507
7036 13555 79.34057063191193
7037 12580 48.416536362551746
7038 7039 92.18107582520017
7038 7373 118.42448668566593
7038 12589 80.80557583930718
7039 7374 117.23670346054926
7039 14221 80.83884051851808
7040 7375 117.10004423156458
7040 14222 80.05452851617461
7041 7380 77.9528147795474
7041 16946 113.0603948713275
7041 17031 173.19919660659872
7042 7043 118.1731494494845
7042 7382 217.81414345723257
7042 7384 80.14610226090069
7042 11929 76.66901411208325
7043 7336 96.92235869177335
7043 7384 129.11178649095768
7044 12692 138.96196408912388
7044 12693 162.17869561679524
7045 7046 76.65250930458814
7045 7385 71.89103978552555
7045 10923 80.90991630897774
7046 7047 76.05329694748663
7046 7386 75.83867532475047
7046 9095 76.19641553112159
7047 7387 75.86534969079386
7047 14219 76.31969967616793
7048 7049 138.7526634028432
7048 7353 80.26141127980405
7048 9418 78.08197467173814
7049 7050 142.97428212404256
7049 7354 79.2398282745523
7049 11373 79.19322481840362
7050 7051 143.70629038596007
7050 7355 79.35242144229512
7050 14230 79.10514240263493
7051 7052 138.24629811398606
7051 7356 79.46005315308234
7051 14231 79.52673341659546
7052 7053 161.48807096209728
7052 7357 79.41597039194627
7052 14232 79.77212314864978
7053 7054 76.31193935125152
7053 7358 79.47449949269006
7053 14233 79.90069043950457
7054 7055 66.38835018856102
7054 7358 155.47765255679244
7056 7057 205.78895801398784
7056 7377 77.50665624919341
7056 11764 77.50517507404489
7057 7058 102.02454286367929
7057 7378 77.20859285982021
7057 10573 77.46628126661325
7059 7060 200.94118311772743
7059 14227 83.82961839512676
7059 19635 139.01325695302492
7060 7061 132.37070382078863
7060 14227 280.811901839666
7061 12662 239.25120137923037
7061 13892 166.4337198775666
7062 7063 189.5866006283411
7062 7376 122.43346391704779
7062 15050 129.39307459180537
7064 7336 66.89130068768912
7064 18999 80.80744434856966
7067 15085 196.03525869853837
7068 13654 68.41124539146338
7068 17673 69.0660569271254
7069 7070 143.07578458626034
7069 15070 77.30794179184153
7069 15772 75.95940805106387
7070 7071 151.38287526459044
7070 12926 75.50262159269336
7070 12927 77.50518679211088
7071 7072 46.209273078872585
7071 14825 75.30958496234473
7072 10359 77.3042513614568
7072 19325 528.4118093584171
7073 7074 79.0607445166713
7073 15067 61.66709176543238
7073 15779 65.33751898506343
7074 10973 168.63343191407077
7074 10974 58.12181404824055
7075 7076 78.74856280019945
7075 11517 168.5522866923902
7075 11518 60.08764682261391
7076 7077 79.15093554471086
7076 10292 168.92839604052156
7076 10293 59.74524047414714
7077 7078 79.28366372633965
7077 14307 327.8421375146058
7077 14308 60.7600428642415
7078 7079 157.0305346487723
7078 15068 61.477188648658974
7078 15774 94.81858323078006
7079 13046 79.18596329582672
7079 13047 77.68957320504093
7079 18966 103.30139525440195
7080 15069 87.25566850085444
7080 15522 87.83478386027669
7080 18966 10.38395054138648
7081 8253 47.364529041977384
7081 17944 31.288786987547667
7081 17946 36.529317238422934
7082 7083 79.0124094908376
7082 11674 183.49988194713595
7082 14490 78.45358265601759
7082 17944 75.00141316299052
7083 7084 80.72903044024525
7083 11675 182.80900286065108
7083 13747 79.17933378879873
7084 11615 182.4629739093572
7084 11616 79.30598419324022
7084 19804 50.69401203669368
7085 11971 76.05437499584856
7085 11972 75.80462505071259
7085 19794 14.80052757506586
7086 13006 78.76640543030182
7086 13007 60.189168803240946
7087 7088 317.5749009130613
7087 7093 261.43844093912514
7087 19726 229.7973544875292
7088 7089 63.76554240418524
7088 15431 116.85715219044943
7089 16558 257.852974845454
7090 7091 342.8566026060162
7090 9037 77.49191561276008
7090 14413 83.05320871494382
7091 7569 75.67998502730018
7091 14413 272.1614845612403
7093 7095 116.49965567798647
7093 8233 66.23469215479466
7094 7095 75.37148929484073
7094 15587 212.13463553193588
7094 16071 698.4274026627738
7095 8234 291.84646377390374
7098 15787 69.55465343802632
7099 7100 128.2213647451213
7099 14158 96.36641430574291
7100 7101 112.55481420474489
7100 8057 48.322893207023576
7100 14581 55.98381308638848
7101 13490 76.83418008453432
7101 19991 196.8337410071589
7102 13120 59.898797352079555
7102 13758 396.1676158463693
7103 13549 79.54535900128558
7103 17266 78.32157972248024
7103 17309 78.75498534369807
7104 11720 78.50197230486938
7104 11721 79.24239100260901
7104 17307 79.26068935545169
7104 17308 79.10624005470068
7105 7106 157.92106364430555
7105 15109 79.37689108043897
7105 17267 78.38321891806142
7105 17308 79.28552010872527
7106 15110 79.93767146578195
7106 17270 78.44049060036522
7106 17313 135.55066029590319
7107 7108 80.55379048629376
7107 17271 78.58618783759731
7107 17310 24.5607379785464
7107 17313 22.471167468976823
7108 7109 79.02338042177118
7108 15111 78.70067315151897
7108 15826 80.05561727611216
7109 15112 78.56426011098662
7109 15568 79.37070611164025
7109 18855 79.62000388710612
7110 13919 76.82449257325125
7111 7112 79.22659567595521
7111 10299 76.0881703310741
7112 7113 79.69740391579775
7112 11734 228.50112692978925
7112 14310 184.3821703896759
7113 7114 79.04936303946403
7113 11735 229.22843554555277
7113 15119 183.79158645842904
7114 7115 80.1161039328119
7114 11482 229.9095063170481
7114 11483 183.77869474407052
7115 11738 257.70947656560656
7115 13050 41.51949451057157
7115 13051 184.2632183772508
7116 7117 79.05025757424374
7116 13144 92.34027026828343
7116 19560 195.45589205120444
7116 19566 109.8941291355603
7117 7118 78.98194353579781
7117 13915 93.08325485844765
7118 13426 93.30109993805395
7119 7120 79.50524564000237
7119 8260 105.7543322254308
7119 18939 79.8976955279485
7120 7121 79.00452242211001
7120 13916 105.77873628765826
7120 14494 107.40717860231959
7121 7122 78.69385775553819
7121 13753 106.87878062381284
7122 7123 78.95228075200383
7122 11622 105.89044734472448
7122 11623 106.63865245890912
7123 7259 106.43764616485902
7123 7260 107.54044670613487
7124 7129 33.693177884489394
7125 7131 34.29847789652568
7125 10368 51.159501455862056
7126 7127 201.62844865666284
7126 13923 80.27895893425323
7126 14790 49.71657617673475
7127 7128 225.05890977969958
7127 14477 92.68066811677477
7127 17235 93.49743519155348
7128 13924 85.16724290828942
7128 15113 86.65154182785086
7129 13917 73.05569937822514
7130 13645 71.47972519924527
7131 7132 125.19510390463799
7133 7134 222.98496821610803
7133 11982 85.42290606559467
7133 11983 82.67699199847011
7134 11983 204.18483690882357
7135 7136 232.71489148125227
7135 11186 24.74203088830108
7135 15424 32.1716758329525
7136 7137 22.240541331254896
7137 7138 178.77246922032813
7138 16420 42.4213897378902
7139 10543 282.95076426292565
7139 11156 323.68350709550805
7139 19061 388.87562277323843
7140 7141 54.51968313069733
7140 13705 106.66502420795707
7142 7143 264.4042277800787
7143 7571 138.15539776233405
7144 7145 48.67648864922434
7144 13328 48.90585798357091
7145 13329 48.025394691510385
7146 11427 61.83876391180797
7146 16173 17.324339834391274
7147 14828 158.21319825525478
7147 15099 80.0047529477652
7148 7149 158.47007011358687
7148 16873 79.43533937187334
7149 17768 39.15436975223646
7149 19195 277.13369807354206
7150 15428 78.83238961856414
7151 9173 78.4819536845272
7151 12799 79.43426483400137
7152 9174 80.42864929891115
7152 12424 76.31011215025235
7153 7154 82.67052585311129
7153 9986 152.6138939530992
7154 7155 38.38860009889345
7154 17987 51.62212922566699
7156 7157 142.57335127444634
7156 13365 143.85016057922564
7157 7684 88.85753215149727
7158 7159 173.72759542923032
7158 16545 12.681537317880586
7160 14560 232.65779785251402
7161 15494 155.88120361619622
7161 18897 36.3831150447112
7162 7163 203.77620336939933
7162 15153 83.50805532575254
7162 15807 83.08042636736394
7162 17762 193.95758519420707
7163 7164 12.588669935143782
7163 15154 83.57645508035316
7163 15808 83.4041081953441
7164 7165 204.25482957026935
7164 15155 83.52963875054472
7164 15809 83.33390155811473
7165 7166 101.50033641987295
7165 10189 82.98118793647849
7165 10190 83.3937851546986
7166 7167 152.1371541392991
7166 12151 83.37671339013588
7166 12152 82.6528109403674
7167 15156 83.04760058360065
7167 15810 83.63140006819754
7168 7169 77.97071221130119
7168 15157 77.54819923836632
7168 15812 84.34807999730819
7169 15158 77.4226694852908
7169 18615 61.626524513824464
7169 19503 78.3486161230363
7170 7171 109.36037551156127
7170 15159 77.89586829789187
7170 15813 80.77119774625139
7170 19503 140.98488930603008
7171 7172 171.24085442852532
7171 15160 78.00395288609315
7171 18494 73.47822578641112
7172 7173 170.7307797225857
7172 15161 77.20613019635101
7172 18507 73.21452256219301
7173 7174 173.75536642548445
7173 12024 76.93948520982386
7173 18518 74.05807264501293
7174 7175 173.68719713657353
7174 14944 79.85927128936058
7174 19606 78.20055766432759
7175 7176 171.47394421088026
7175 15162 79.0454855614557
7175 15485 79.71548144978925
7176 11342 79.2749567878852
7176 11343 79.02000427047983
7177 15140 79.06475189355652
7177 19511 143.56421955701708
7178 7179 72.92416406275315
7178 8674 87.84376043735689
7178 17881 37.149481346140874
7179 7180 75.90265502222236
7179 15805 78.97318371801592
7179 19962 103.19405268836734
7180 7181 77.15339234836067
7180 9913 79.55754252099456
7181 9513 157.1031979327025
7181 12641 79.99522185876612
7182 15167 78.81489026322373
7182 15733 78.56698443223051
7183 7184 102.73423730352182
7183 9656 78.85210980819127
7183 9657 79.0452759496436
7184 8832 79.01342960370097
7184 8833 79.22392709040761
7185 7186 138.29806125185254
7185 15168 79.19755927277036
7185 15814 79.80554417464185
7186 7187 137.4268245403887
7186 13873 80.18582139444803
7186 13874 78.70473122441749
7187 7438 78.76427392998109
7187 7439 79.14575118941947
7187 17766 129.15503342110577
7188 14302 144.6488913839687
7189 7205 18.355994336416178
7189 19693 176.8659004753256
7190 7191 349.9620048808273
7190 9975 66.49727780776537
7190 19579 67.49941624275979
7191 7192 74.10193738169266
7191 11773 179.2259406004756
7192 7193 125.67161643980135
7192 19568 178.02514734649947
7193 7194 87.40526014268765
7193 10581 222.51257710350296
7194 7195 91.95226163752801
7194 15688 251.03029025274984
7195 7196 87.74692736671817
7195 9324 277.63693805251205
7196 7197 76.50642981244951
7196 7465 293.1932351331757
7197 12948 302.04111303867484
7198 7199 67.85434010591979
7198 8659 134.13855946431002
7199 7206 29.057251399069603
7200 7609 52.64709113676139
7200 7610 408.95562927172443
7202 7203 56.81628179733639
7202 7204 56.49716796643227
7204 7592 122.46985713688898
7204 9109 64.09610106743922
7209 11592 156.40083574571173
7210 7589 70.27846538202745
7210 18233 110.35764250918857
7211 7212 129.97780829726904
7211 14531 74.37730357549724
7211 18233 31.853421029132733
7212 7213 79.30586044180285
7212 11594 153.90069303232733
7212 16844 70.06523931414137
7213 7214 75.80736252123378
7213 11194 205.1602178406217
7214 7215 63.17729052709825
7214 11631 83.09825199246306
7215 18360 195.28787408543772
7216 10207 302.32639724593395
7216 17124 72.06707802322737
7216 18361 91.59422523731081
7217 11588 90.32435936137561
7218 7219 156.3975239895564
7218 7637 89.75683527355875
7219 7220 140.721661081741
7219 10052 87.21114004110328
7220 7281 18.19154239713004
7220 8028 55.219586325982945
7221 7222 80.41641333786522
7221 11030 93.2779947595784
7223 7224 283.32174870367044
7223 10854 76.10845067741778
7224 10853 373.0437468140339
7224 18574 132.88954271305036
7226 7227 157.50223543868105
7226 7315 79.33771708535834
7226 16939 128.7788568762888
7226 16963 77.17297034857866
7227 7228 79.66501494253382
7227 11604 79.33930849733011
7227 16945 76.8137924735447
7228 7229 76.19768907333423
7228 11605 79.33772396138558
7229 7230 80.77924966282734
7229 11606 79.33832304822984
7230 7231 79.78966385261728
7230 8888 79.33832009954624
7231 19470 79.33840082720145
7232 11607 79.33857435338871
7233 7234 79.66625424492997
7233 11608 79.33770260000617
7234 7235 77.70851355547147
7234 9451 79.47241130397839
7235 7236 80.2097045235234
7235 11609 79.2731047391934
7235 18257 79.68361903528319
7236 18474 74.01161374143751
7236 18477 73.10641082873366
7236 19815 73.65669811925137
7237 7238 78.94812835468903
7237 10222 79.29402470138636
7237 18476 72.66783110545231
7238 7239 79.03384117974602
7238 19811 74.9123675713322
7239 7240 79.28318869553101
7239 9277 79.63891093125265
7240 7241 78.79235513204024
7240 11611 79.56010234100509
7241 7242 79.46240331958602
7241 11245 79.4935340234193
7242 7243 235.77698350895193
7242 11612 79.41565365842906
7243 7244 77.45213751069089
7243 11615 79.18518217782594
7244 19818 98.59364195027007
7246 7247 103.94337630299164
7246 13759 202.04279495856946
7247 7248 193.6978779469206
7247 11635 87.11535523502899
7248 7249 100.46946445696075
7248 9994 85.91432559293506
7249 7250 75.62771248619319
7249 14835 175.2778641387946
7250 7251 225.14119442366814
7250 11603 80.67542922983993
7251 7252 159.54765679409476
7251 9046 199.64059000110888
7251 13387 123.3495333429664
7252 7253 45.32547073263706
7252 18356 403.16357485434366
7253 7254 34.05736408225505
7253 13396 230.95294180499866
7254 7255 126.29525276339591
7254 13394 155.68622582776487
7255 7256 134.20807477206452
7255 16801 53.613555940056116
7256 15098 152.79321757784834
7257 7258 64.85549336187803
7257 11620 88.35571387917781
7258 7259 102.00971536450776
7259 11622 78.68210166487208
7260 11623 79.70473428469973
7261 17700 80.09386469429467
7262 7263 105.71462679462857
7262 11624 80.61716470304016
7263 7264 136.14299277710703
7263 11625 79.71575894915328
7264 7265 112.38890573419556
7265 11626 79.00482189289255
7266 7267 46.2145190477254
7266 13435 77.32508634746839
7268 7269 78.49767739453641
7268 11616 78.45925871943409
7269 7270 79.05716263437662
7269 19808 73.14614572622105
7270 7271 79.52495718073966
7270 11617 78.51614469680099
7271 7272 103.69568020793655
7271 7705 78.57161495230307
7272 7273 77.49115262604518
7272 17703 78.63754377111013
7273 17646 168.86066598561771
7273 17656 253.09297588688676
7275 7276 78.97182950171788
7275 14115 151.9596430368064
7276 7277 78.92553447986785
7276 7746 153.4494719315807
7276 17782 206.5229002211524
7277 13734 206.75617641803615
7277 15366 153.749565932162
7278 13735 206.89255505708462
7278 14923 129.6535517706874
7279 7280 170.0393934134242
7279 10759 91.81984942577964
7281 7282 208.70695667364905
7282 11633 73.3565462376069
7283 7284 112.88984727513561
7283 9053 124.33932241788366
7283 9054 104.5462287397831
7285 7286 100.4542780930944
7285 11209 22.07632829793991
7285 14844 176.82236363672087
7286 7287 84.17520003075136
7286 8939 159.85661639778294
7286 8940 222.0648357099453
7287 13377 193.28008039508586
7287 14845 160.18144086649704
7287 19840 79.17215115105948
7288 12866 35.28342892965723
7288 12867 186.89799712825166
7290 7291 34.03687203354205
7290 15332 140.3316923075757
7290 15333 76.02669665927718
7292 14846 250.15002142191165
7293 12171 426.61939990736596
7293 14887 279.4263757081378
7294 16545 631.9950379312357
7294 20001 88.31044657230001
7295 7296 43.45566877866563
7296 10457 346.3742851287985
7296 10729 251.03820666323566
7297 8635 319.7584632874872
7297 14994 79.50735053960493
7298 7299 233.0496843102537
7298 14071 70.09356671962124
7299 14829 152.3033177923388
7299 14830 68.8055001665081
7300 7301 228.83115691369363
7300 13679 62.85110729798356
7300 13680 48.04580018957439
7303 13372 41.68516135031115
7303 16296 118.46891227411348
7303 18908 70.3105569612083
7304 9988 160.67122916715763
7304 10593 154.13908314207242
7304 10594 10.432836953700768
7305 7677 84.05811218450451
7305 10942 119.53530665733763
7307 7308 41.36464469120944
7307 10450 209.43636103774054
7307 10451 134.64160483156994
7309 7310 36.16208535934356
7309 10448 83.59337574194663
7309 19257 225.68521998026299
7310 7311 341.899864910505
7310 13680 125.59947315629319
7312 13126 209.51288090623112
7312 16761 157.15011419121635
7312 17058 79.456188525234
7313 8235 157.40549774807508
7313 17435 37.468572090564294
7314 7315 79.29368361090236
7314 13738 65.27140739951108
7314 13739 158.16553636309524
7315 11604 157.93472261207384
7315 16938 128.11374925250138
7316 17295 344.1576516871122
7317 7318 74.30095737068629
7317 11117 176.8530614701707
7317 11118 185.48288541632513
7318 7319 71.88801904205862
7318 11930 176.81173541042483
7318 15195 186.29777474053816
7319 11931 176.94210779017976
7319 15195 253.2914626000894
7320 7321 232.73328135335694
7320 7339 47.34489277870982
7320 14001 79.27780312326327
7321 7322 49.14021835184968
7321 9117 78.87886814429379
7321 14002 78.78518981116233
7323 9123 79.17445093650703
7323 14005 82.89029785675206
7323 17601 13.032063812510865
7324 7325 194.3486544513395
7324 9124 78.99542545195212
7324 17601 202.94220160467373
7324 18664 73.88879239889128
7325 9125 78.4284873970235
7325 14007 79.50275894664442
7326 7327 117.3330616498842
7327 7328 169.9737043515609
7327 9120 78.85287231389685
7327 19345 78.97819038649507
7328 9121 79.27986568777308
7328 14010 78.3912529390594
7329 7330 168.80592505648016
7329 9127 79.14636122781576
7329 9665 79.30174612646016
7330 8841 78.91806193704892
7330 8842 78.97254159001385
7331 7332 167.48207319732848
7331 9128 78.60239679202135
7331 14011 77.43527052706996
7332 7333 155.77977933668646
7332 7447 77.09865509246916
7332 7448 79.26206176084021
7333 7334 128.864016815524
7333 9129 78.99586482382867
7333 14012 79.25900073960337
7334 9130 78.95637290312199
7334 10905 79.02478127312085
7335 18498 31.00122598331333
7336 7337 42.74850823520917
7336 19940 198.63352577088446
7337 8875 82.61217835575279
7337 8876 153.13087714341043
7338 7339 82.475352578101
7338 9126 79.38617222241756
7338 11937 206.412754094272
7338 17628 76.66468932030577
7339 9116 32.51846012777679
7340 7341 200.05857712539614
7340 13904 121.43126407993019
7341 9818 21.710313694464073
7342 11725 68.75597654005875
7342 18592 22.251731168363573
7342 18904 17.901212893187555
7343 9893 105.20158829600516
7343 17085 79.93211795930101
7343 18594 15.190620799493901
7344 7345 136.66535064331853
7344 7603 137.4166911283766
7345 10596 137.1092026169933
7345 10598 150.9247938472282
7347 7348 80.81113367410427
7347 15621 79.31627446725462
7348 7349 78.52889583310731
7349 19002 43.693403966817016
7349 19648 45.137446792710705
7350 12611 237.41552864114217
7350 19296 78.04286282661941
7350 19346 80.4206887576229
7351 7352 238.39237694876655
7351 18848 155.90009594581585
7352 7353 78.86072396755273
7352 10432 268.2366611379811
7352 12262 305.6107198575084
7353 7354 138.54020386534165
7354 7355 141.54329673795002
7355 7356 145.65035384834383
7355 18254 194.8504956633361
7356 7357 138.06869681204424
7357 18241 100.56137237697008
7358 18241 60.46150698151563
7359 15626 102.35820933280738
7359 17869 20.682595824459188
7359 18998 237.79821476617875
7360 18997 5.371924889716576
7360 18999 10.684849392489017
7361 15628 96.13680112296052
7361 17640 56.298208837614965
7362 7363 58.36484477521703
7363 7364 79.23476335947
7363 14214 139.2058584456201
7363 15623 135.7810685892005
7364 8105 136.11433349506194
7364 8106 137.57298923351712
7365 12682 134.39154844748398
7365 12683 137.19300376956429
7366 7367 76.1494751328251
7366 8752 136.14829088367424
7366 8753 136.83681990037334
7367 14215 137.37043315382695
7367 15624 137.3391167870661
7367 19077 75.46397576895855
7368 7369 61.42778618857487
7368 7805 137.75959275054032
7368 19077 10.539102464351004
7369 14216 137.9820165494166
7369 15416 117.8455076607751
7369 19316 75.88781409438785
7370 7371 75.68669525152083
7370 12657 156.00695449341654
7370 14217 137.80658765651748
7370 19316 75.00565446907552
7371 8170 156.9855285452169
7371 8171 136.87769639152955
7372 7380 12.553949183056965
7372 12707 71.5001828835881
7373 7374 91.87669540607224
7373 18157 109.20610553435186
7374 14335 82.47376079110676
7375 15637 83.65655527608789
7376 7377 302.6409509412945
7376 19682 97.563368415409
7377 7378 205.77212110546535
7377 11763 86.40389227296755
7378 7379 100.68930089673644
7378 10572 77.30480054664153
7381 9924 205.04363477311546
7381 16999 88.06955012517601
7381 18159 93.01975593701873
7382 7383 118.32063112099036
7382 8678 98.59203146445981
7383 7384 51.164994815046164
7383 19078 32.99417111602085
7384 11928 48.78352631736497
7384 17869 25.145995079619734
7384 19078 37.95907125485332
7385 7386 74.76262618925256
7385 10922 70.71748314975972
7386 7387 76.44410075611015
7386 9094 71.56546491872027
7387 7388 64.00596402274903
7387 14387 70.85591640212157
7389 7390 93.64875087017413
7389 12507 187.8581255550394
7389 12508 213.22556672484663
7390 7391 53.513140887740406
7390 14213 167.47829993061976
7391 12645 186.14907690071902
7391 14213 113.92328530464243
7393 7394 76.58755266245903
7393 8625 79.97315995993077
7393 8626 68.6230715838714
7394 7395 83.7839375749352
7394 14206 320.1658734563318
7394 15558 81.82205163312724
7395 14819 80.54216845620012
7395 14820 80.88047029485631
7396 8215 159.81806899371364
7397 8984 132.3576408167518
7397 8985 80.98870414141463
7398 7399 144.74547685918944
7398 13829 78.65066399452904
7398 17570 83.71251452378522
7399 8306 80.30086705116757
7399 8307 79.21613312738883
7400 7401 152.72812036852648
7400 15556 79.74005869797614
7400 16617 79.44740514438313
7401 11217 79.44857512552497
7401 11218 78.69506022735673
7402 7403 163.03589683141772
7402 10613 110.8309847921569
7403 12831 258.618605346801
7404 11272 79.74129382481308
7404 12760 78.9085209208746
7404 19455 85.46640519171547
7405 7406 32.79609912078839
7405 11273 76.48668264059819
7406 12761 22.484442534113537
7407 13866 246.82475195555628
7407 13867 87.07808175234189
7407 15030 94.22999530519415
7410 7411 85.36687584434483
7411 7412 78.84178864622999
7411 16303 101.74388813569456
7412 7413 79.19990814674057
7412 9709 102.10290894337537
7413 7414 35.789033987518984
7413 16134 102.48378205876332
7414 7415 42.219419470451115
7415 7416 38.5063370580365
7415 11544 102.20132560689675
7417 7425 153.0698295705129
7417 10912 158.68402728637494
7417 10913 120.63577701062061
7418 7419 75.7212261881617
7418 7453 20.115190645597067
7418 16093 145.9337073830793
7419 7420 242.73382473595703
7419 8543 99.18627164323152
7420 7421 81.49239918281253
7420 15886 71.96770225016793
7421 16054 92.68581078071988
7421 16055 159.69738241242732
7422 10504 119.89335021872553
7422 11080 82.68843583005594
7423 7424 84.03428230696437
7423 13879 125.66295728520868
7423 15618 122.59308126062558
7424 13880 125.9004904797516
7424 16200 123.05968811208868
7425 18446 285.2994257909681
7426 7427 516.9737063100993
7426 16311 179.24698425756435
7426 18446 16.94690098565805
7427 12672 150.44153556916788
7428 7429 77.04364428058616
7428 9576 137.16293143664947
7428 17761 109.50598223642774
7429 7430 74.60882775892645
7429 10446 137.41780109191893
7429 10447 127.45756770746848
7430 7431 76.13197185326946
7430 13868 137.1497274488843
7430 16306 127.33309114515008
7431 7432 76.09472740188382
7431 9399 137.43883106734006
7431 9400 126.90891693398922
7432 7433 76.03171020884535
7432 13869 137.60976749505113
7432 16053 126.84355901059895
7433 7434 75.82157608856375
7433 11396 137.41760172760414
7433 11397 126.59745704913576
7434 7435 75.76740783125777
7434 13870 137.18493790949327
7434 15242 126.54051336739785
7435 7436 76.38532518300504
7435 13871 137.25071525136573
7436 7437 75.66003424129316
7436 13872 136.97450352104633
7436 16308 127.24596596438035
7437 7438 76.28765384988809
7437 11807 136.8260825330409
7438 13873 137.07211617174212
7439 7440 79.00470799477584
7439 13874 137.59586341558915
7439 15169 129.7989577371002
7440 7441 79.61222397783885
7440 9496 137.60793023850005
7440 9497 130.13362875476815
7441 7442 77.14732588639542
7441 13875 136.53259584265587
7441 16104 131.84456309044066
7442 7443 76.196082625792
7442 7968 135.5941897682067
7442 18796 132.88955676102518
7443 7444 82.18194420280558
7443 13876 134.50238498851562
7443 17760 134.87266253422877
7444 7445 81.99471716695969
7444 13877 134.67948566388418
7444 17757 134.76867146484196
7445 13878 134.41264498738414
7445 17756 134.65166250412938
7446 11941 134.14576974831064
7446 11942 134.20171299266963
7446 17166 79.0696074317261
7447 14011 167.4377094036992
7447 17166 20.47242841992137
7448 7449 80.03305351037245
7448 9128 167.1382463769126
7448 9129 157.11181710229485
7449 15205 167.40590341132878
7449 15206 158.2862092439553
7450 14771 160.84385886260876
7451 7452 78.89667845195144
7451 13712 163.4349443366779
7452 7453 79.08307744930366
7452 12503 164.7912482099302
7454 11366 16.61295595810273
7454 14331 163.1373597414384
7455 12159 162.60879060310737
7455 13884 152.18081975948166
7456 7457 175.11230522201052
7457 7458 99.11592215689507
7457 8068 119.43759404768637
7458 8776 113.63220368856668
7461 7462 61.76045374125712
7461 9132 445.8068677319258
7461 14211 47.26831498780129
7462 15917 45.0273142548203
7463 7464 258.3101142760795
7463 9131 52.77470772859311
7463 15913 57.505777153606374
7464 7763 86.13079914615442
7464 9136 37.94404256780725
7465 9324 91.526169005501
7465 15548 49.06982158813493
7466 7467 84.35694059763964
7467 7468 63.43828517249377
7467 12947 84.21767064638
7469 9323 58.709098481545645
7469 12026 91.12211030106374
7472 7473 78.49304672898576
7472 7854 138.9831490941824
7472 15070 159.08045461986495
7473 7474 76.20682326398388
7473 7855 139.19484468044476
7473 9358 158.63162006756025
7474 7475 75.24863093753687
7474 7856 138.75395643274072
7474 16023 158.87629451574804
7475 7476 80.31451600714895
7475 7857 139.06246373498493
7475 17706 153.4916696734084
7476 7477 75.20913417028575
7476 7718 158.77557025389868
7477 7478 76.08455088124478
7477 18737 154.73148636413714
7477 20097 49.08726709254802
7478 7479 75.16290401478756
7478 14130 107.96648919000904
7478 14131 158.83312623094997
7479 7480 20.54638228542447
7479 16394 158.62931881473614
7480 7481 56.35416289336292
7480 20057 223.96175859378076
7481 7482 21.47400279373896
7481 11731 158.67609684421092
7482 7483 55.170771400894566
7482 20056 219.80824955889005
7483 7484 23.578342865730356
7483 13682 158.55315437574095
7484 7485 52.456938462203254
7484 20055 217.5113201264627
7485 7486 38.699649862935225
7485 18729 154.2303238418523
7486 20054 223.91440355082216
7488 7489 71.71721297103089
7488 20071 294.6040017138144
7489 7490 73.40338072490503
7489 12283 155.55725663115456
7490 7495 14.412535867437338
7492 7493 128.69133085926404
7492 14077 89.58193774603183
7493 7494 95.13995343837037
7495 7496 70.21309936084721
7495 7869 167.78034220270237
7496 7497 45.48089770114605
7496 8367 31.8354285513379
7498 12350 151.8017461321053
7499 7500 95.41888679681388
7499 11196 121.25471530663216
7500 7501 72.82366104398486
7500 7877 145.53733621487964
7501 7502 62.011023411619504
7501 9435 136.94171145929923
7502 7503 165.09876808485615
7502 15252 77.90690973208189
7503 10215 45.569035919625534
7503 10216 193.80752711054578
7504 7505 170.0647139881539
7507 7508 140.35506611696363
7507 11833 140.7904434158857
7507 18558 76.74689514102751
7508 7509 19.803858215888134
7509 17719 140.18239354663027
7510 17717 183.26500511679944
7511 12812 103.78191359295506
7511 19066 78.25912476828547
7513 13082 78.41579685879964
7515 13081 92.15032280866927
7516 7517 143.41912147471567
7517 11833 18.50508564586362
7519 7520 321.18477256940577
7519 10453 88.17083353168108
7520 10942 57.752900242631526
7521 7522 25.038154727486905
7521 16297 135.31196681830465
7521 17459 78.6956429095939
7521 18101 25.006447794836518
7522 7523 27.2999953111993
7522 10586 27.64644345842531
7522 18101 7.4621499685197445
7523 10585 53.11088928588248
7523 18101 28.63007407247049
7523 18907 149.1779200659186
7523 19269 68.88469159731102
7524 7525 74.2822609385544
7524 14831 119.45308937034076
7525 7526 75.60725198179702
7525 13937 135.23576172206992
7526 7527 76.28633083601981
7526 14813 84.18058706754637
7527 10338 169.1212923058053
7528 14814 88.57663934020792
7529 13185 89.0679008078651
7530 13853 90.59609598448938
7531 7532 132.0790426884621
7531 11200 89.22594636805437
7532 7581 90.00753426977806
7533 7534 119.82548331841069
7533 10683 89.28895791040941
7534 7535 123.96221382278237
7534 13854 88.61003980636454
7535 13720 89.51453459916303
7536 7537 245.20143857116622
7536 19097 84.74196712475643
7537 9042 55.98307385662226
7538 7539 106.07105828838358
7538 11457 98.2906563647638
7539 7540 140.02723930957384
7539 9264 104.35534309301354
7540 14652 40.48796095427222
7541 7542 108.4926553124617
7541 9815 174.2415408327774
7541 14812 96.6075161976867
7543 15405 114.15075529336883
7543 17876 301.5974366478192
7544 7545 85.40712468487224
7544 11219 58.41396481531139
7545 18800 183.67051303934642
7546 7547 62.059202506750125
7548 7549 109.63798893568419
7549 9590 133.52962202371592
7549 14555 137.05987309715087
7550 7551 197.89006150585357
7550 20113 55.61847194479931
7552 18301 71.44551974398134
7553 17338 9.81519821604137
7553 17453 79.6634580220268
7553 17456 190.78538815065798
7553 17460 6.670791896370448
7554 17338 106.3643440233484
7554 17460 99.31103216884647
7554 19199 533.8496146751836
7555 7556 53.26440240452471
7555 8731 151.76769913693076
7556 9142 121.57946935804014
7557 16745 197.4850075950854
7557 16746 280.269610416167
7557 17247 259.7189158137313
7558 7559 64.39222906494652
7559 7763 86.2464585744239
7559 9963 67.77661055743707
7560 7561 190.9013517246461
7560 15690 225.28705791852354
7561 15913 78.54890953074676
7561 16541 77.23986865754472
7562 7563 43.61913262578463
7562 9964 69.19079525790853
7562 15915 103.29633707244425
7564 7565 543.1716024050355
7564 7809 93.76860600850455
7564 17066 199.51636383177456
7566 7567 92.22048121069153
7566 9038 72.39653814189279
7566 9039 91.68576078530843
7567 7568 91.41398551781785
7567 14590 216.01342410570822
7568 7569 160.9160490048901
7568 10741 94.39720128738699
7569 10960 343.69403023461723
7571 7572 60.114959777880784
7571 12784 161.08417289452453
7572 7573 129.32698233995183
7572 14297 350.9557965162544
7573 7574 64.20153307468428
7573 16189 69.25278684977908
7574 7575 73.4846905604766
7574 14405 64.1649245527141
7577 7578 88.58343906313013
7577 8437 130.275996568245
7577 17251 204.36712303663762
7578 7579 90.28307188431859
7578 17251 120.73312115952223
7578 17252 130.349032000649
7579 7580 90.46051256007107
7579 10681 119.65834406731098
7579 17253 132.17815015927104
7580 7581 89.10076210041134
7580 10682 120.13420811656982
7580 11199 132.07160605071266
7581 10683 120.33190021808078
7581 11200 131.82007526759827
7582 8227 132.34113532940742
7582 8228 119.57842377212216
7583 10684 119.9272115527612
7583 11201 132.0268831691345
7584 8608 77.69561483944938
7585 8312 78.99676668382811
7585 17963 157.13803577027727
7586 7587 169.80291647454663
7586 8610 78.51388671977347
7587 7588 166.32718784860975
7587 8611 79.27486927325029
7588 8612 79.80034487753848
7588 11203 161.61675313182738
7590 7591 135.36890112333248
7590 10554 61.87181369413998
7591 13553 61.870720224685435
7592 7593 195.04912213742531
7593 7594 57.867761787804895
7593 11359 81.13613379205205
7594 7595 229.48437530971822
7594 14710 63.28653582330867
7595 7596 150.5374193317391
7596 8735 297.81036519936885
7597 7598 153.35981034106828
7598 13929 595.003613586042
7599 17024 19.159381161238578
7599 17289 115.69042836206083
7599 17518 103.81601568474842
7600 14881 100.21119373317993
7600 17518 35.90598787028397
7600 18324 194.35778221732795
7601 7602 262.96718397453907
7601 8568 107.28697531736118
7601 18324 119.92124006599998
7601 19785 97.87582843005754
7602 18617 261.89355479123554
7603 7604 122.49595660985052
7603 10596 160.87879586770657
7604 7613 117.24114197216565
7604 10597 196.32966190060074
7605 7606 75.90404252837922
7607 7608 118.57143845781687
7607 11157 219.25303067702953
7608 8446 125.18771300792481
7608 19056 97.45035559714088
7609 19056 338.10105879722886
7610 7611 407.33187019727313
7610 15324 77.81563581624799
7610 17445 16.484988920554677
7611 8732 72.90837551985811
7611 18177 143.64053667192746
7611 18786 242.90296284807744
7612 15743 160.31000512121653
7612 18786 9.985318519577406
7613 7614 139.55099519460933
7615 7616 107.12622267279701
7615 16385 62.05639442832017
7617 7618 184.21497643751846
7617 17924 48.28486683319877
7619 17672 48.5583392651276
7620 7621 124.19577324380217
7620 9119 38.7962776895351
7620 9120 79.10479595491414
7621 14950 79.31555110238031
7621 17484 79.96049432994636
7622 7623 71.29221683453346
7622 13230 92.27811991694199
7624 12332 96.82073999178067
7624 12333 210.30991278386935
7625 7626 79.46890016055926
7625 16374 62.55057071204871
7626 10353 62.35285566927333
7627 7628 13.84547569102456
7627 11976 65.06456032383653
7628 11975 62.716646648114164
7629 14143 69.68763736445683
7629 14144 116.79874444639682
7630 7631 86.97517809723246
7630 7659 39.06887725966275
7630 13108 46.86505541520538
7631 7632 71.41035341731214
7631 10048 155.26737032263605
7631 16760 68.51935935321768
7632 7633 16.735079558648177
7632 8570 180.17586988085256
7633 10049 155.11834520757162
7634 7635 30.867779826504187
7634 8599 116.99089376814048
7635 7636 77.26952061697531
7635 10050 155.12194509466661
7636 18975 9.618387365679375
7637 10052 155.3253789636664
7637 18265 111.92106202527327
7637 18975 87.1770508382154
7638 8571 136.19670494826602
7638 18153 299.37327361536
7639 7640 31.45784783458201
7639 13657 77.94088198406803
7640 7641 86.89904737582177
7640 13667 119.46004637735248
7641 7642 278.78504124681496
7641 12063 78.81651110942126
7641 12087 120.02414720932393
7642 7660 63.37326912032987
7642 15963 40.414670510178965
7643 7644 107.64804216625225
7643 14788 76.27254647630994
7643 14789 115.25729137141384
7644 7645 60.48344736652639
7644 14063 115.85450762890443
7645 7646 15.211729273519154
7645 8588 148.55082511358248
7646 7647 54.37529050096614
7646 8934 116.57424755363905
7647 8589 149.1697062515474
7647 14466 116.6808513082854
7648 10039 196.26235553333345
7648 12438 299.9451018270138
7649 7650 151.09340118292627
7649 10318 75.50090486116324
7649 10319 76.43310589609888
7650 7651 152.64870723607234
7650 15347 76.11527557328066
7650 15964 77.31411366628646
7651 13039 77.54209123591244
7651 13040 76.13931677874086
7651 17835 135.30261327557824
7652 15343 96.85765768401316
7652 15530 75.1755065345456
7652 17835 10.741852277305002
7654 10393 23.985637293894694
7654 15965 84.68615584626863
7655 7656 152.11519398163958
7655 7799 201.5126647276778
7655 10055 94.99419202842579
7655 13244 84.79860039275711
7656 7657 34.45942778221559
7656 11919 85.40410331743112
7657 7658 93.27063959568109
7657 10056 95.08388347880788
7658 7659 125.7174571728678
7658 8496 85.41408052610859
7658 8497 95.19025374655865
7659 10057 95.31369800819627
7660 7661 111.26541740697706
7660 15346 57.55172694122649
7662 8453 89.94127644007942
7662 10528 39.674275570283065
7662 15463 55.99846767635902
7663 7668 26.16897837909402
7663 9780 51.94492435175123
7664 12740 51.04185715113371
7664 13830 110.8452359701205
7665 7666 49.03031034000127
7666 7667 79.12269029476003
7666 12985 77.26893794149561
7666 14821 79.23449440637896
7667 8219 78.2647107784755
7667 8220 79.52976439508258
7668 9781 81.93344814078534
7669 7670 140.831752617333
7669 7734 79.16654327930141
7670 11218 79.22373745555626
7670 15556 76.14336239051823
7671 7672 110.01797948665876
7672 18050 108.36643026981714
7673 7674 35.299468087117795
7673 12869 163.74828802104597
7676 7677 54.878968478739736
7677 14072 77.01038133538815
7677 17922 148.08976229413088
7678 7679 206.3730965851302
7679 10448 50.665760746533614
7680 7681 204.57591787413966
7680 15404 87.80836986127807
7681 7919 54.997925743639755
7681 7920 109.12003204067021
7682 7683 73.68992593672371
7683 9193 108.94143442006907
7684 7685 92.50179646657189
7684 11279 67.1518623220399
7686 7687 60.9351057169909
7688 7689 192.09349988503755
7688 14149 79.2244272837861
7688 17723 27.239081028041593
7689 12775 75.18291667430097
7690 7691 153.48034601569276
7690 7720 23.627820365909503
7690 10363 52.78286484003633
7691 7722 80.08343382102633
7691 12953 75.56626491251566
7691 15234 76.51279805769795
7692 7693 188.96628679856028
7692 15225 82.71620560847542
7692 16019 88.10294744261384
7693 7694 240.12873209172994
7693 15226 85.98972877681724
7693 17949 89.1287362412019
7694 7695 159.31159947468134
7694 13498 94.829993592921
7694 14474 95.61135784100065
7694 14475 72.46408300047162
7695 15227 79.96254263159067
7695 16020 82.28655132052208
7696 7697 44.54187619178491
7697 7698 155.5432400959648
7697 8527 109.05080735725181
7697 8528 77.69979146951655
7698 7699 11.242596415843568
7698 13141 80.93405027128647
7699 7700 82.20731216333601
7699 13140 79.46558760949692
7700 7701 79.11181163037524
7700 16026 79.1400930768044
7700 19987 62.54964525824071
7701 13432 100.64799490804796
7702 7703 76.54718207870073
7702 8255 79.39967915826772
7702 8256 100.63670868580334
7703 7704 79.2493803235867
7703 14491 79.5366354477405
7703 14492 101.59462799664018
7704 7705 81.48558355638009
7704 13748 79.64683947940472
7704 13749 102.46097051199028
7705 11617 79.53125951501728
7705 17703 103.02364560134367
7706 7707 31.637939620541566
7706 12949 45.477589610549266
7707 7708 187.19813190610927
7707 12074 76.79506943791834
7708 12951 77.6321781845473
7708 15231 78.63744092322969
7709 12952 82.51346132266302
7709 15232 74.7827996047028
7710 7711 56.70180108221937
7710 11509 78.41745191896763
7711 7712 79.27194394637463
7711 10294 158.09902848292847
7711 10295 159.56423723451533
7712 7713 78.94399219837844
7712 14126 157.75795271707776
7712 14309 158.42047211661304
7713 7714 79.28017938844198
7713 14127 159.1886805523973
7713 16022 156.51423823525272
7714 7715 79.69527873728889
7714 11480 157.9203279123788
7714 11481 159.27011118110977
7715 7716 100.11046329433987
7715 12954 79.10027957625513
7715 13049 157.694510009309
7716 12955 79.75450239486807
7716 14128 161.3635556203751
7716 20050 92.45126938059448
7717 20058 72.85668864863779
7718 7719 142.35241760369502
7718 17705 45.04565386241126
7718 18736 71.76678927363768
7719 7720 196.960719451057
7719 12929 77.75175335735686
7719 12930 76.4941804423819
7720 10362 52.01676923619149
7723 10454 155.98499180662583
7723 12332 168.23181587661972
7724 7725 52.96955199788488
7725 7726 78.50410341905976
7725 16125 141.0749903283604
7725 16450 78.9967960087406
7726 7727 79.03816536648719
7726 14821 79.76285797897347
7726 14822 141.62207979470483
7727 8220 79.51078271485066
7727 8221 141.24402121411651
7727 18072 79.50509439098668
7728 7729 77.67168497746039
7728 9781 81.4926971626622
7728 9782 135.70566129801978
7728 18072 79.07878815389891
7729 10159 225.35151613647898
7730 13830 77.15390299786117
7730 19659 7.6108310976670035
7730 19660 24.243359561923935
7730 19661 23.452914405565785
7731 8308 147.39160211799512
7731 19661 68.64634284509772
7732 16122 148.40462160719073
7732 19104 79.29397453583758
7733 7734 97.97543556427684
7733 16123 148.6700827245373
7733 19104 12.769837763410857
7735 8617 286.88927483792804
7735 12983 377.1340955614412
7735 18112 89.70339575087162
7736 14108 77.06760389897296
7736 18929 4.576505024258846
7737 7738 112.1974050250348
7737 14109 80.89347238979445
7737 14147 129.81274946405512
7737 18929 71.09348467129631
7738 7739 139.76308869602008
7738 14110 80.35828113498746
7739 9169 39.40322192628152
7740 7741 184.77399015076983
7740 7985 248.11410652213772
7740 13240 85.06296072414123
7740 13241 79.11744244494972
7741 7742 215.94424543179414
7741 11890 78.82374160815134
7741 11891 83.77903770991418
7742 18543 18.595030934377863
7742 18544 18.80343075198686
7743 7744 81.63714093913885
7743 18542 79.944209129143
7745 17782 74.24307965935228
7746 14115 78.89413537779942
7746 15366 78.45465422777552
7747 7748 99.29926823995646
7747 13484 78.24460464852298
7747 13485 78.94550003905255
7748 7749 200.94070251709744
7748 14111 79.49016273804887
7748 14787 77.7099690631207
7749 14465 76.75195247597308
7749 18564 2.2713128150668953
7750 7751 200.15126991722164
7750 14113 79.04525984016952
7750 15363 74.7028221359611
7750 18564 199.35449920033102
7751 14114 79.04536907584193
7751 15364 76.40348386182846
7752 7753 99.56681123522395
7752 14107 73.4132146312071
7752 17830 10.17437702896965
7753 7754 31.313265609245843
7754 7755 95.14978881999103
7754 14118 86.07437240078916
7755 7834 261.7563473084722
7756 12303 257.99743007867085
7756 12304 54.67019625838108
7757 7758 125.74302589139936
7757 14116 73.0617799558648
7758 7759 95.34793809998683
7758 14117 72.53169053312992
7759 14117 167.67049854252485
7759 19386 64.93995485454033
7760 14120 75.30174205517041
7760 15362 74.97393121821204
7762 7763 165.00381526759745
7762 7764 13.257323050354433
7765 7766 82.29394192302293
7765 11218 62.1800870083955
7766 15557 96.81389505976172
7767 7768 81.60861215292235
7767 11068 169.56472758837393
7768 7769 132.78913228328588
7768 11540 19.70023046461057
7768 11541 50.09630949693741
7770 7771 76.69282116126607
7770 19116 79.16559190870754
7771 18086 21.39819576435432
7771 19116 150.9516122267088
7772 7773 81.79147991062666
7772 14341 110.29679421656382
7772 14610 79.55178797587878
7773 11759 102.77204273455699
7774 8052 158.82334178031394
7774 10879 63.25507789230308
7774 18438 79.38525765370754
7775 10879 28.830335328833463
7775 11003 57.84832388514509
7775 11811 88.94088912448741
7776 8442 41.735836910593356
7776 8443 79.66692998824739
7776 19481 78.72324302526347
7777 11809 41.44204079571272
7779 7780 125.22601956882383
7779 10337 342.0836258763989
7780 7781 132.15288035448503
7781 7782 79.98299678842592
7781 19623 59.36966959085516
7782 7783 111.48342361262176
7782 10886 38.15144201743412
7783 7784 346.44433090544584
7783 16324 52.23203038292768
7784 7785 101.16265123341492
7784 11692 60.784921349450165
7785 15825 71.71726161631325
7786 7787 79.05432207067682
7786 8756 129.84562274813737
7786 15409 102.6305271565034
7787 15410 102.6071795709139
7787 15473 97.3821642379735
7788 7789 28.503309199567543
7788 11349 50.2467585803023
7789 11350 76.452634303024
7790 7791 159.4716703295865
7790 15411 78.72439070543619
7790 15704 79.05001093565306
7791 7792 35.1951621097236
7791 15412 78.79782803384838
7791 17997 45.086839555843
7792 7793 122.90796861142414
7792 8709 91.86615083223224
7792 17997 45.10385075640809
7793 7794 155.74658725530523
7793 10497 78.94279422505583
7793 10498 79.86752789542288
7794 15413 79.11666434111415
7794 15741 79.33743655249286
7795 7796 142.28739611462873
7795 9684 78.77201936422959
7795 9685 79.22426115346956
7796 8858 74.35991671375534
7796 15414 352.68981265790956
7797 15268 78.6748264699909
7797 15269 79.17966938298403
7798 7807 27.560294122515387
7798 16041 48.28604113213982
7799 7800 200.49809246671924
7799 10153 93.85839275131636
7799 16037 85.72392917264374
7800 7801 79.28704279904593
7800 10154 91.26172059268656
7800 14744 87.5842192020233
7801 7802 76.43576943918931
7801 16038 90.65243509074469
7802 7803 75.89266000164892
7802 8418 90.32702899375407
7802 8419 88.5560611383915
7803 7804 73.97990607339933
7803 16040 90.68541163965601
7804 7805 129.19676033133146
7804 9902 88.11950079487028
7804 9903 60.48343149744721
7805 15624 86.76033700881813
7806 7807 87.16587638057521
7806 14215 76.24888431160772
7806 14216 71.20021405503947
7806 19077 137.31758018158507
7807 15415 50.32574262408837
7808 8947 45.63375724416534
7808 8948 128.37957486534822
7809 16056 73.06395838696815
7810 7811 88.81284132829839
7811 10741 147.80252590624056
7812 7813 200.30786628985584
7812 15386 79.30441344426725
7813 7814 39.17560671569046
7813 9793 42.82829860942912
7814 7815 111.1283695442676
7814 9792 40.28528821103496
7815 7816 79.74911979058757
7815 10074 81.75994761163744
7815 16910 198.54318547155205
7816 7817 78.8150796168248
7816 9378 166.973590807574
7816 16915 200.94534098834703
7817 7818 79.79664438026388
7817 16891 201.3877854291508
7817 19665 163.15101462669466
7818 7819 79.09367568563202
7818 9380 166.5730608735584
7818 16896 201.95992310872654
7819 7820 79.82733941916891
7819 16903 200.99227250815468
7819 19668 162.7023592235076
7820 7821 78.74866029002742
7820 9381 167.28083261960705
7820 16914 202.17273631736361
7821 9382 167.57033549492468
7821 16897 171.3733106553937
7821 17583 79.58396298762834
7822 16887 15.889957390142364
7822 16912 88.15025702173061
7822 16931 107.9906809596141
7823 9384 175.09988950203774
7823 12226 154.36247405607557
7824 15831 276.6247387739189
7824 16512 136.39386162869474
7825 12331 72.7915774800804
7825 12332 39.01723287145996
7826 7827 53.22987545376003
7826 15018 75.66106317516127
7828 7829 401.64710471801465
7828 15508 178.62288941065185
7829 8234 588.5298936661956
7830 7831 402.25528387397986
7831 10005 494.3607297685663
7831 13353 40.45938939195639
7832 7833 297.86810887685226
7833 10781 74.71223085682826
7836 7837 88.21070326357382
7837 7838 96.29038382933679
7838 7871 33.87271467161774
7838 14352 47.94349378352954
7839 7840 170.5336008202869
7839 8044 76.13175328494981
7840 12540 76.27222989984651
7841 7868 25.85286754005888
7841 17714 184.12644444264265
7842 7843 80.27167488279362
7842 19626 172.9978795404843
7843 7844 79.66011355276972
7843 19584 215.7571841968559
7844 7845 80.15870441569477
7844 10639 168.89466234808398
7845 7846 78.8562807270317
7845 16552 172.90092948485102
7845 17718 198.79384044095426
7846 7847 81.12154729561566
7846 9949 191.63608305828737
7847 7848 78.59116437118196
7847 19933 192.90332884890483
7848 7892 73.5484856757518
7849 12459 73.42486638582979
7850 7851 106.19928715600363
7850 14508 118.74607183247721
7850 15538 168.73204080482708
7851 7852 41.05514903227573
7852 7853 185.34696134483187
7852 15537 166.1150159883568
7854 7855 78.3106153420174
7854 15069 207.202643578314
7855 7856 75.54471094509363
7855 9357 85.97649661044179
7856 7857 81.86698539989781
7856 15523 187.99183854855573
7857 20059 167.92179226050467
7858 7859 25.26180712626922
7858 13624 76.7731296364252
7859 7860 65.37865858013393
7860 7861 40.88892308354985
7861 14137 60.805267875017286
7861 14138 110.7883361029689
7862 7863 178.6277769820789
7863 12748 186.190549552152
7864 7865 145.9725154261654
7864 14138 44.10053424182085
7864 14172 76.22490101078039
7865 7866 142.09410526134292
7865 11832 76.24650161713784
7865 17824 73.94476412066744
7867 7868 136.35474753250085
7868 10748 50.349148992863014
7869 8392 102.95401422601294
7869 20070 124.42085725570733
7871 7872 83.13091169142902
7872 7873 79.02961520232441
7872 11426 79.30863986409094
7873 7874 78.90672532125139
7873 15393 79.7470318192107
7874 7875 80.01071017547004
7874 10237 78.61607167847893
7875 7876 73.59083735000353
7875 15394 78.44837549714941
7876 9278 82.56973745022054
7877 14838 99.853283746366
7878 7879 145.99481349421552
7878 13165 33.15885855977073
7879 15150 172.66011337129433
7880 11777 63.28774169269545
7880 13345 68.95745086545729
7880 17438 110.5867562257165
7881 7906 21.246392074792425
7881 8538 54.187169802704595
7882 7883 32.069352384496504
7882 8277 116.10669780516324
7883 14481 97.99093704754887
7884 7885 96.7246492121016
7884 16151 46.61696439988656
7885 15930 47.2659719833729
7886 7887 264.8926057660421
7886 14059 76.30816178437031
7887 7888 273.35134454429436
7887 14549 75.89620425854099
7888 16192 75.61826271884443
7889 7890 98.84132961327488
7889 12442 161.53760656702434
7889 13942 80.46756854950752
7890 7903 41.31305177915897
7890 12301 161.60693724259275
7891 7892 117.38518595727514
7891 17840 10.41900558127557
7891 19933 87.46667016698014
7893 7894 81.47398725746312
7893 12458 160.8554664843551
7893 16399 240.6393294145193
7894 7895 76.63123238473182
7894 12457 160.2380955707762
7894 15459 241.37210195636104
7895 7896 81.08694644487687
7895 12456 160.63791594165698
7895 12935 240.47544770083425
7896 7897 82.13079021565409
7896 12455 161.6089408742791
7896 16553 240.6967348096733
7897 10390 107.79895961734105
7898 7899 121.2391440019487
7898 14142 127.03387804752019
7899 9954 142.45834779930652
7900 10333 74.57518483539549
7900 10334 159.22282764617057
7901 7902 99.98924914081427
7901 16196 45.92973572091074
7902 14598 43.683297142442555
7903 7904 100.82267099438363
7903 12300 38.20578646524164
7904 11232 201.52551929676912
7904 17142 101.2881070040023
7905 7906 115.87640958250337
7905 8537 76.9746993712115
7905 8538 162.6221419995837
7906 13106 76.87023733011087
7907 7908 108.33467117240897
7907 7912 63.162522571754
7907 9959 165.28307659209366
7908 18239 53.22291871252817
7909 7910 115.23821195554957
7909 11508 83.96668842718017
7910 10317 84.16287089642904
7911 7912 200.39616919373236
7913 7914 153.40109563733628
7913 8104 117.62268200439749
7913 13245 80.80706875915311
7914 10536 58.59902126271045
7915 13221 90.14597475258017
7916 11492 72.57983124393675
7916 17965 150.45130857951892
7918 14426 80.15101875344642
7918 16171 59.85873147357742
7920 12191 58.34035009442699
7920 16594 184.11505874540856
7921 7922 81.8077617410305
7922 14430 79.43620244492465
7922 16469 78.9868715322404
7923 10276 136.52579348400909
7923 14431 91.21607641516053
7923 14890 77.17972575670956
7924 7925 88.80305238132001
7924 11820 78.69582053227751
7924 11821 79.46551571211631
7926 7927 70.52086817799929
7927 11294 77.9103626671819
7927 15595 239.16760179047225
7928 7929 71.0380403566129
7928 14763 80.98373072779312
7928 19580 118.70468688288084
7929 7930 86.18187484688379
7929 10250 68.70606022135837
7929 14764 82.60176083429633
7931 11244 207.33635062834182
7931 14782 79.93834913885482
7932 15721 79.28609817719921
7932 15722 79.44378970998402
7932 19295 78.60462901939621
7933 19440 74.29570005545824
7934 12324 78.8200792657407
7934 12325 79.16466468437436
7934 17269 79.26587165366816
7935 15109 79.35457505399692
7935 15110 78.64809213406792
7936 14661 79.80778499338986
7936 14662 79.55211597284222
7938 9468 78.63829170975082
7938 18008 78.53266331555267
7939 7940 155.9570062425399
7939 11240 78.90812072192743
7939 18008 76.57445181344139
7940 10246 78.88209602763415
7941 11241 79.71581056499988
7941 16440 76.87101354140643
7942 9299 79.11537445158858
7942 9300 74.96380020982357
7942 11242 233.79313978116815
7943 7944 175.11075354765052
7943 14946 60.54428130350115
7943 14947 70.5982358390642
7944 7945 178.5506443351826
7944 15308 91.70829071020681
7944 15486 88.19600399672092
7945 11344 90.01709011884377
7945 11345 92.60770677737595
7946 7947 82.29601734616968
7946 15694 88.34494472082443
7946 18379 82.02980038751794
7947 18379 124.12892992577754
7948 7949 82.58483996151057
7948 13260 73.53695476184109
7948 13261 105.48578437736894
7949 7950 78.94867895194368
7949 14872 104.94017975186787
7949 14873 108.97352910132233
7950 7951 79.18519256718945
7950 10785 103.38714837918626
7950 10786 109.56448530360724
7951 7952 79.36117352916784
7951 15309 109.00976157167996
7951 16109 103.69158401461661
7952 7953 79.227205942198
7952 15310 109.23470957115609
7952 16110 103.42473985291545
7953 7954 79.9940622478936
7953 14735 101.66925702554647
7953 19862 81.56324923132799
7954 7955 79.67129232913854
7954 10868 101.1700534396882
7954 15311 108.83759007786247
7955 7956 78.55148403776772
7955 8407 100.17536013168419
7956 7957 115.56565744220595
7956 15312 107.16752162723563
7956 16112 100.89738092147078
7957 7960 51.87146031641538
7957 8676 110.98707083583426
7958 7959 59.78338595028976
7958 9507 196.97054611702058
7958 12239 76.4311695336118
7960 8677 50.7921526478483
7960 19747 144.94839716296184
7961 7962 89.74571584960917
7961 15141 35.43676868175995
7961 15767 31.919921104913932
7962 7963 88.96743533259513
7962 9757 126.96516844020653
7962 9758 115.5763262106668
7963 7964 130.07718387258328
7963 16103 89.15187654694051
7963 16448 40.81138140319315
7964 15302 78.99349935418331
7964 15734 78.82387411204218
7965 7966 102.66713114953755
7965 9658 78.90610626938344
7965 9659 78.92952862942857
7966 8835 78.62367287943928
7966 8836 79.12954525234944
7967 7968 138.8770266973635
7967 15303 78.31723663838504
7967 15990 78.19978117124056
7968 13875 77.64398319920284
7968 13876 76.41409820492284
7969 7970 203.754539980245
7969 15304 83.14310969791848
7969 16106 83.46228994626776
7969 17759 194.25786196236243
7970 7971 12.727156681400059
7970 15305 82.7987988400245
7970 16107 83.67739943254453
7971 7972 204.39958485059722
7971 15306 83.24976534403757
7971 16108 83.00700298220995
7972 10191 83.12164173473676
7972 10192 83.40941208633096
7973 7974 73.87762616623684
7973 18005 214.96783766523035
7974 9523 175.16978342735842
7974 18005 209.44101035273818
7975 19487 64.8523687953104
7976 14422 78.59269233285235
7976 15858 33.9427739214131
7976 18087 31.98615322650091
7976 18097 89.76109208396731
7977 10619 165.71482087102066
7978 18742 127.22556676910988
7979 19030 108.724345210026
7980 7981 66.42629368869218
7980 14256 60.563241949740544
7982 7983 71.79867611417698
7982 10722 330.57719211126323
7983 7984 71.26852322621856
7983 12714 330.4245641297974
7983 15434 71.76079838015532
7984 13882 271.9195942680731
7985 10098 101.60956684012271
7985 13241 270.74799130788165
7986 14255 79.21413469888071
7986 17783 86.03298093353634
7987 7988 75.42594814569173
7988 7989 93.25872969186068
7988 16580 53.551312450558704
7990 7991 75.93911667665212
7990 12709 352.41675600696243
7991 7992 76.20118937615267
7992 7993 91.67003486968744
7993 8000 27.383363804778902
7994 7995 150.9928753454628
7994 8714 86.75406217243648
7995 7996 138.92406264245176
7995 9690 75.48690060140221
7995 9691 76.42212990484222
7996 7997 70.3071037387133
7996 8850 75.69497059049615
7996 8851 77.97651928782327
7997 14254 76.26385977863859
7997 15433 98.35232999196826
7998 7999 126.63142666403047
7998 11354 76.14035657360876
7998 11355 94.68801004000991
7999 11355 145.86768310895172
8001 18455 90.52268110332245
8003 8004 107.70106326644692
8003 9717 108.28458890618748
8003 11450 65.69042224003815
8004 8005 137.33955960249196
8004 9717 28.493131476755934
8004 9718 76.05824228585927
8005 11558 76.16867211495625
8005 17408 292.3165866456897
8006 12241 245.04577859579751
8006 17408 77.20912447775835
8006 17409 58.08929564379642
8007 8008 75.9375581938067
8007 12546 202.71889200432355
8007 15338 198.73507611554166
8008 8009 74.74956543693379
8008 12547 202.2349699225808
8008 15339 199.0534734598699
8009 8010 77.25899907551668
8009 12548 202.22454892407492
8009 14595 199.6142298712016
8010 8011 78.21742953158555
8010 11861 198.8106218051727
8011 8012 73.67382314507712
8011 9165 199.42950511674886
8012 8013 77.12076238647089
8012 12550 202.20772862608507
8012 12774 199.00048144503276
8013 8014 64.99682619503903
8013 12551 202.36079136589208
8013 15340 198.70089802706025
8014 12552 201.9573911962403
8014 18341 10.097022363776139
8015 15342 199.07215208449216
8015 18340 11.642712702526586
8015 18341 77.41794360519123
8016 11368 199.37453819898963
8016 18340 64.2406596196847
8017 10037 103.59208989565421
8017 12557 203.08173181825973
8018 8019 185.25175019862326
8018 8172 83.52986647472312
8018 13243 75.19144702337763
8019 8020 94.21571211258848
8019 11887 77.17978133117697
8020 8021 124.97279676431236
8020 8498 77.04584552419068
8021 8022 83.93337608981226
8021 13109 77.04261386121547
8022 8023 84.81986587667181
8022 10048 141.48687497435105
8023 10049 141.57353655832577
8024 8025 66.16119349954062
8024 10050 143.95553072436343
8024 12530 199.8981621544494
8025 8026 28.29920243401731
8025 12531 201.16956607218543
8026 10051 140.93193722869248
8026 19168 46.40306187229181
8027 8028 32.5023836768124
8027 10052 140.92966652536455
8027 19168 40.79755062348004
8028 11633 206.26540198683813
8029 12533 193.6487726943313
8029 18153 20.446595663634216
8030 17676 194.19841377881323
8031 8032 86.66202826133016
8031 13667 198.92878200376393
8032 8033 76.31185096738582
8032 12087 197.02999859662572
8033 12907 271.77250075574966
8033 15345 198.73212722472525
8034 8035 73.58984330866468
8034 11977 149.54533766210955
8034 17387 102.38804594333406
8035 14619 115.11964449690878
8035 14620 50.5943448411749
8036 14145 106.74419180361855
8036 17543 106.08531152707651
8037 8038 75.30610792291138
8037 10041 106.61569781873077
8037 12561 201.2035892167517
8038 8039 76.79367484017234
8038 11047 170.90478508560523
8038 11048 200.36929279908554
8039 12562 196.64477877536615
8040 8041 153.8385429350797
8040 10320 82.37872922710939
8041 8042 86.98847320898601
8041 16206 82.29478489047642
8043 17832 83.27242449253956
8043 19952 168.1273945979899
8043 19956 10.242392192885033
8044 12540 170.1884547119384
8045 8046 75.4483120595952
8045 12541 170.21867271609116
8046 8047 73.6511225449304
8047 8048 130.36003703397085
8047 12542 170.17018064914234
8048 10395 82.50378687684704
8048 10396 171.28946974057476
8049 16180 83.79284508281003
8049 19892 172.69297232060865
8050 11532 50.793452489575046
8051 16709 29.59566217031162
8051 19031 38.32224028504512
8052 8053 80.01149666591223
8052 11810 77.94095136479685
8052 18438 79.49532530947539
8053 15289 79.32218044368277
8053 15290 81.49688474979482
8054 8055 166.68181635409263
8054 11882 178.38353136943763
8054 11883 108.5054952498256
8056 8057 49.827922578075345
8057 8058 39.286282354445994
8059 8060 63.85982374603328
8059 12920 64.71578733456442
8059 14511 161.17728103011143
8060 8061 39.31937284044318
8060 15025 74.57421643364002
8061 13343 402.40865759032386
8061 15788 209.18886812645542
8062 8063 47.74822658074665
8062 8778 93.57898940435919
8062 19619 178.5614531723288
8064 8780 87.95544963832404
8064 10346 78.94854799356241
8065 8066 153.85415611818794
8065 8783 80.8987308126479
8065 15493 79.17093805290823
8066 8784 81.52940607956262
8066 15494 79.24877457420962
8067 8068 49.28819769863416
8067 12189 72.45031126620322
8067 14640 191.72863426817244
8068 12482 30.93601663149629
8070 8071 176.3367635595635
8070 8348 36.204865808327824
8070 8349 179.16708774331363
8072 8073 65.51409947074661
8072 10212 67.76261125438165
8072 10213 84.39727450462044
8074 8075 78.81569136475746
8074 8104 42.512747590654705
8074 10811 38.241801828184
8075 8076 55.008640396064905
8076 8077 24.429738755520077
8076 16247 78.98122140609888
8077 8078 96.37353519219499
8078 8079 81.86209116406562
8078 14743 78.94592397209819
8079 8080 78.63742403975208
8080 8081 33.83677247634135
8081 8082 42.87696342151991
8081 16248 78.408493374422
8082 8083 77.53657644488416
8083 8084 120.82801630784468
8083 9895 77.39546987763455
8084 8105 42.09669796198557
8084 15623 37.25127585959374
8085 8086 45.9171238904641
8086 8087 99.36388586621263
8086 10107 160.50890426141035
8086 17612 178.52036945191526
8087 10108 157.86946455560042
8087 12671 177.05130590564357
8088 8089 127.61408300299621
8088 16579 236.14491292902846
8089 15267 231.58243892076865
8090 8091 80.71417738599217
8090 11150 90.12105135766731
8091 8092 49.48201055067295
8091 15876 172.46987768851307
8092 8093 61.810944911299345
8092 16587 109.0915548136435
8093 10101 245.82140623486487
8093 12676 88.66626376001987
8094 11320 98.24843379074682
8095 8704 84.49972896742175
8096 8097 158.83552437222227
8096 15703 78.84429035887064
8097 8098 158.54288737027963
8097 16246 79.06036191474277
8098 8099 155.3993450800982
8098 10495 78.50598211373467
8099 15740 79.01740944878507
8100 8101 151.22849611319916
8100 9681 79.1537165547031
8101 8102 47.755751817277115
8101 8856 158.05425068957942
8101 8857 174.37337445189564
8106 8107 88.27237649487343
8106 14214 79.64317593638381
8107 10115 118.32376016050493
8107 10116 81.71876819032512
8108 8109 61.9823376352054
8108 14621 243.74605650160754
8110 8111 78.81293469754488
8110 17345 10.597165506486045
8110 18608 83.06112720313904
8111 8112 77.94115418649669
8111 14420 78.17659970318645
8112 8113 84.86587838724884
8112 16669 78.17537561471734
8113 8114 82.36174945611364
8113 11291 78.17534145138876
8114 15591 78.16488676040362
8115 8116 82.84976287769005
8115 15260 78.17553174190863
8116 14693 78.17514242940575
8117 8118 162.45827893220422
8117 14584 77.00186685483055
8118 15673 76.65783679999953
8119 14905 24.48084277851907
8119 14906 22.049755906368823
8120 8121 38.35637595135597
8120 10846 226.94072110616096
8122 8123 18.316266824729055
8122 18183 32.04865344640362
8123 8124 184.72983857158397
8123 18183 26.664673065891023
8124 8125 186.62837809829057
8125 8126 22.53924481453867
8126 8127 209.84190600616975
8127 17581 70.92125074071761
8129 8130 201.22827857938267
8130 8131 80.9106687609176
8130 8879 79.29504006262214
8130 18019 53.16180035146574
8131 13002 79.55278016371457
8132 13003 78.73845011118698
8133 9463 79.02733993345703
8133 19918 122.5602434581666
8134 8135 154.85188806691758
8134 10241 79.17090005176448
8134 17935 154.802018115657
8135 8136 155.66804732941898
8135 13004 79.93895090564716
8136 8137 154.38902996840937
8136 9294 70.49561922962505
8137 11259 79.56022087692283
8137 13005 230.912989407814
8138 10955 46.97592399191633
8141 8142 78.4148642323532
8141 15105 77.31180213763966
8141 15856 203.86331794827254
8142 17934 82.99884688483665
8143 8144 305.9942096677615
8143 18817 105.33537513650147
8143 19031 57.67694204169293
8144 17731 58.751020697753326
8144 17875 77.96439143908374
8145 17730 37.122880364962214
8145 17731 128.02621633277582
8145 17875 31.501959179505
8146 8147 78.65441709996719
8146 11813 79.09668399608861
8146 14423 155.5791409806915
8147 11814 79.01996732824618
8147 15421 48.84056554655357
8149 11819 331.2262820887724
8150 8151 148.28405380862438
8150 16121 78.40964827072574
8151 8152 134.46090595614106
8151 11461 77.59758259527258
8152 8153 103.13568456320246
8152 13375 77.51465735652064
8153 15179 75.9460452865261
8156 8157 223.66826127111702
8156 8158 370.3029663450058
8156 9584 281.24530629236244
8157 9585 213.0091131621648
8157 9586 139.5555152052215
8158 17319 116.51411131249063
8158 19039 67.48958865796502
8160 8161 1791.7586993872578
8160 15444 799.1755636152865
8160 16058 93.41836711856989
8161 12235 725.2975782214936
8161 16203 241.15297415831503
8162 15917 115.64971199258213
8163 16620 37.38896205248014
8164 8165 78.85388141891208
8164 15912 155.79354373406528
8165 8166 80.88406557487642
8165 11154 129.2394738651658
8165 11155 83.7525510955713
8166 14646 96.83058251371881
8167 16223 291.2410187950087
8168 12714 115.45625208791918
8168 15979 87.49485897072132
8169 8170 200.40697978439397
8169 8176 35.6930554804324
8169 18295 59.05478362951408
8170 12657 76.2757095169544
8171 14217 76.2954410915281
8171 18162 86.1887077008223
8172 8173 119.46806083093288
8172 12703 188.36522356811244
8173 8174 107.98155290099797
8173 16282 74.28922521987266
8174 8175 93.67339881458484
8175 8176 218.02118331166895
8175 14745 74.83961468023206
8175 18158 94.77539260241677
8176 16280 40.039780579441256
8177 11351 79.08623184113252
8178 8179 158.9312892949741
8178 15705 79.14420099632778
8179 8180 158.0191735745164
8179 16284 79.11574639216185
8180 8181 64.26412053278955
8180 10499 78.28368042721183
8181 8182 91.58886713951506
8181 8712 91.32451903103905
8182 8183 335.41427762924894
8182 15742 79.01172957151444
8183 9687 76.86428282264923
8185 11100 84.50935204828937
8185 17620 175.895511882727
8186 15898 91.78577188933549
8186 17620 205.8095514937506
8187 8188 337.33958092705166
8187 12235 631.0750662868019
8187 19088 114.80595022089491
8188 10198 134.70672296013385
8188 19714 749.1003664898248
8189 11556 68.41834608299621
8189 16031 178.57307692780304
8189 18755 11.51981067382393
8190 8191 133.2297522267595
8190 10429 79.87145938518395
8190 10430 78.77207588842442
8190 18755 132.21725081416176
8191 8192 136.47545986163092
8191 9396 79.23785625684536
8192 8193 57.20271867025188
8192 15933 79.30351319571926
8192 16052 48.859968498845696
8194 8195 120.06255995915507
8195 15544 25.703065945015965
8195 15934 81.4082430317735
8197 10943 76.09140262666595
8197 13211 76.75895387615176
8197 14634 139.88261588934117
8198 15611 76.52574277111638
8198 15612 76.34695075056787
8199 15940 76.2353603360657
8199 16032 76.19091951717412
8199 18190 151.1302558947761
8200 8201 76.29275289943168
8200 16030 107.98504177366989
8201 9715 109.98179216317716
8202 8203 218.975130529038
8203 12238 455.5941643390938
8203 16088 56.13262153515406
8204 12330 475.7265692406809
8204 17348 34.897575294205
8205 9698 248.42325036454304
8207 8208 133.41538936336312
8208 8209 140.03204291888824
8209 8210 151.8819794759225
8210 8211 160.28907747643663
8211 18114 54.98269008203174
8212 8213 108.66737204387005
8212 13907 158.89240589684363
8214 8972 77.52866369716472
8216 8217 66.48579287413506
8216 8224 29.942508682878703
8217 8218 85.53857281371761
8217 14015 1159.0810512828004
8218 8219 79.65645839820434
8218 10738 78.99531185459637
8219 12985 78.4271637604066
8220 14821 78.78762440889085
8221 8222 133.76017910669486
8221 14822 78.98258936748847
8222 8223 200.7437374303128
8222 10162 79.41536285272116
8223 14823 78.60848748003713
8225 8226 105.373552424765
8225 8981 143.74554344812276
8228 8229 119.74321631436341
8229 8230 121.0204261675619
8232 13008 89.29362371696291
8235 8236 80.12508448069624
8235 14483 80.78895135907445
8236 12248 80.08591395435423
8236 19998 76.29232850835209
8236 19999 77.43922478959587
8237 8238 88.30991014337911
8237 16937 516.6378218208537
8238 8239 144.40063483395784
8239 8886 79.66005278201625
8239 19467 77.47276081441522
8239 19998 87.54104831408111
8240 14498 81.03984224273682
8241 8242 80.19186746899109
8241 14499 80.57284797194751
8242 8243 78.25153059363365
8242 9450 159.95794894442778
8243 8244 79.56119277758219
8243 14484 80.44166284796808
8244 8245 78.74104544072752
8244 11428 79.50487641680256
8245 8246 78.92804218686102
8245 14485 79.82786357740474
8246 8247 78.99814505450222
8246 10221 159.777789838031
8247 8248 79.13948397011154
8247 13743 159.7449524147473
8248 8249 83.1211917627779
8248 9276 159.46681136196793
8249 8250 75.46964146553587
8249 15974 64.77150427978883
8250 8251 77.92557208000919
8251 8252 237.92273261974643
8251 14487 79.80584803703117
8252 11674 79.240256030426
8252 17945 132.0867775727854
8253 8254 80.00718358139105
8253 14490 78.10555949275056
8254 8255 78.83483580537668
8254 9351 77.41434823382794
8255 14491 77.2483290840294
8256 8257 85.63355924338417
8256 14492 77.53420579687418
8257 8258 105.8671212228604
8257 14121 80.16075517643176
8258 8259 108.20246849790539
8258 14493 79.9726113383225
8259 8260 108.1859877690789
8259 11742 79.82696994616033
8260 13916 79.54974575295574
8261 14495 79.12111550651586
8262 8263 54.55591010836643
8262 17641 130.62559256362218
8263 13990 94.2156235913547
8264 13421 134.7647017382894
8265 12337 66.92916100932595
8266 8267 65.80730989312079
8266 13612 127.15193390004825
8267 8268 38.568033797941965
8268 16318 54.22985670663252
8269 8270 82.22009937031613
8269 11848 127.10748284949341
8270 14479 70.35305595521154
8270 18148 25.00694039091685
8271 18148 183.7568498855673
8271 19733 88.91665973697164
8272 8273 61.56998554099022
8272 10756 71.55410446597428
8272 18937 277.62074038756833
8272 19733 82.66788474604127
8273 8274 75.54686119663998
8273 9004 277.1316550958501
8274 8275 252.44132883716242
8275 8276 297.06047528094945
8276 8277 76.79388621760036
8276 9951 84.90916998559409
8277 14481 84.6977108263945
8278 8280 13.891993181367878
8278 13171 59.308409241490686
8279 12837 80.93470819456893
8280 13172 71.16816352545972
8281 8282 84.9835226839105
8281 17265 85.34924170205903
8281 18941 50.60022678897028
8282 12046 84.78483101851644
8283 8284 79.6057172300062
8283 17263 79.9873893294795
8284 8285 77.41833456547484
8284 17262 80.58790837202578
8285 8286 82.40237860987263
8285 15727 80.75654152261144
8286 8287 78.25053765223522
8286 15752 79.44553025389058
8287 18127 80.70149659641382
8288 8289 68.73634802380629
8288 11243 281.8849653042197
8288 15758 77.58598460424092
8290 17121 385.4588451782738
8290 17122 409.797648397611
8290 18318 725.6448248951449
8291 15005 79.22197537576196
8292 8293 124.40588931662961
8292 13015 82.25216378425453
8293 8458 429.14633171007307
8294 8295 356.32794491182494
8294 14097 274.1680830755411
8294 19604 73.81630896623558
8296 14402 91.8492119444374
8296 17126 90.34022978177704
8297 15141 150.97068925403678
8298 14296 78.8993219153601
8298 18379 8.363396559224014
8299 8300 80.09060102790895
8299 17481 146.9328895608892
8300 8301 78.89681888195068
8300 13827 147.00481517193487
8301 8302 78.93122789412162
8301 17569 145.82080751389833
8302 8303 81.70466972118882
8302 13828 143.39256490893325
8303 8304 76.99882414864558
8303 17572 144.72524210881087
8304 17572 227.6723549918911
8305 8306 78.97290321687723
8305 9747 143.14614185403062
8306 13829 143.45364027356706
8307 8322 70.98817532711158
8308 13831 91.88207345846182
8309 13824 87.83115847700563
8310 8311 81.72008471736861
8310 9551 155.6499606429756
8310 13958 76.78524100877144
8311 19108 123.2451212644024
8312 8313 89.02798681409053
8312 8609 156.14728473335057
8312 18787 188.20231071471218
8313 8314 83.32371079726742
8313 9553 156.09053058224882
8313 12702 160.73371882735054
8314 8315 72.34309476310995
8314 16705 162.72339496109112
8314 17962 156.05120793733275
8315 8316 70.30420997495733
8315 9554 164.68009318013048
8315 12255 163.54876213631943
8316 8317 80.48116881558514
8316 9556 165.35426975179143
8317 8318 79.46173068103262
8317 9557 164.88298547186264
8317 14246 245.4578906296168
8318 13331 129.65405140602127
8318 17959 165.1162203722906
8319 8320 165.1574752953035
8320 11460 71.49636106763347
8321 13823 87.93737454137388
8322 17570 80.3415324426251
8323 14611 85.30052824230688
8323 18329 105.5577351265452
8323 18818 182.81096804655647
8324 8791 83.74299397737984
8324 18835 195.4032338420568
8324 19145 107.78145801915744
8325 8326 140.10004241971183
8325 8793 83.0463357016502
8325 17955 124.8748959888658
8326 8327 140.70881905366917
8326 8794 83.73768986253347
8327 8795 83.81344563815566
8328 8329 102.55543104484084
8329 8330 78.85031843974748
8329 8796 150.1456202164132
8330 8331 81.60789223831104
8330 8796 75.91431014454072
8331 8332 76.70414487750153
8331 8797 76.03106667198313
8332 8333 78.57188238090642
8332 8798 75.58616997300943
8333 8334 79.16879615582809
8333 8799 75.88180361412658
8333 10839 158.320641956048
8334 8335 79.27202488640849
8334 8800 74.18983935620804
8334 12965 157.6272417976826
8335 8336 79.8938500073888
8335 9610 157.72011104924948
8336 8337 79.68324232289709
8336 8801 74.81273799157711
8337 8338 90.22845510190974
8338 8339 80.02260988193969
8339 8802 92.99414739185663
8340 8341 78.78348609968951
8340 8803 92.40463478615864
8341 8342 97.39897359772476
8341 8804 92.25077424637365
8342 8343 226.0593626311607
8342 8805 91.72778691584011
8343 8805 305.5498541976219
8343 19261 160.75220797281486
8344 8345 21.561015551305704
8344 16828 76.23949003004643
8345 8346 199.09266347978786
8345 16829 33.44759189609475
8346 8347 133.61438152706765
8346 13931 137.0504565095712
8348 10251 246.23861182654997
8349 10686 101.21678931816403
8350 18347 136.28957397033923
8351 9981 77.64980797656446
8351 12848 159.95492823005475
8351 18347 187.3086588722707
8352 8951 394.1380229213032
8352 19360 461.7948885438733
8352 19689 172.55476893721175
8353 11696 316.20565525707127
8353 16164 395.726735288066
8355 8356 102.45862702470643
8355 8738 102.5419605778236
8356 8357 72.3438274385114
8356 8739 89.5786953402527
8356 12055 101.66651553042163
8357 8358 69.83055606138576
8357 10857 199.95536780194627
8360 8362 30.69205159587223
8360 10854 224.34520135639815
8360 11421 314.92769980742275
8361 8362 90.69592129026651
8362 11601 76.36194462569057
8363 8364 79.73423571749964
8364 8365 163.9737814267846
8364 11405 73.18428311983908
8364 12863 74.66148518381074
8365 11406 44.81069193734613
8365 12864 106.38640811815307
8368 8369 185.41103648624872
8368 12912 91.8002903458949
8368 12913 75.37647837654026
8369 8370 83.14302154873191
8369 10373 95.50568834109171
8369 10374 75.91657933572831
8370 8371 80.88376405997734
8370 12266 155.97441704273083
8371 8372 38.16244015087285
8371 12267 170.14831181983217
8372 13978 76.21629499116227
8373 8374 81.65058719213485
8373 12268 215.5614344812251
8374 8391 57.53162506524927
8374 11988 22.178515935737117
8375 8376 79.34899733319834
8375 12269 163.95695226801817
8375 13983 79.26552838122943
8376 8377 79.48336089007758
8376 12270 164.27741138972772
8376 13984 78.7203420791102
8377 8378 78.25979469363078
8377 12271 164.1014961841024
8377 13985 79.02590966874118
8378 8379 82.97448104086358
8378 11885 79.91902550380621
8379 8380 82.30705419724391
8379 9149 80.28238706565931
8379 9150 79.30791351315506
8380 8381 78.78178202175172
8380 12763 80.21344017210762
8380 12764 79.30972631359603
8381 8382 79.51634454079128
8381 13986 78.93849986808408
8381 16008 80.32356731431274
8382 8383 79.67162086030137
8382 13987 79.4388924070497
8382 15921 80.451476121249
8383 8384 181.12718651369144
8383 13988 79.18680352946299
8383 16009 80.69537557106254
8384 13989 79.46675485805129
8384 14792 80.46086052986806
8385 8386 74.15773161259791
8385 8403 42.03067115133131
8385 10302 147.04012667784093
8386 8387 77.53788649342778
8387 8388 30.090423219253537
8388 8389 151.99524078994244
8388 16270 141.79291143030463
8389 20060 148.08998534131115
8390 20060 10.35227403053357
8390 20069 38.791395953990154
8390 20070 26.328571665628054
8391 11987 78.63434487055876
8393 8932 97.89044489624793
8393 8933 60.48525996618548
8393 14062 173.78153404936222
8394 8395 75.25685359770284
8394 13145 133.2672545864699
8394 13146 39.36841646794333
8395 8396 73.75989679460417
8395 16017 133.15150456160612
8396 13420 133.6131057677719
8397 20069 25.37725188325186
8398 8399 152.18256079464012
8398 12883 74.8655663823794
8398 12884 75.15118913116582
8398 18694 147.2557887643923
8399 8400 64.02413324850369
8399 13992 71.6685383452513
8399 16016 66.84013274373031
8400 8401 70.17739868093639
8401 10963 189.99048649293977
8402 8403 79.87345482012735
8402 11528 189.9954824874086
8404 8405 79.85762918440624
8404 16213 74.97963873541535
8404 16214 76.5146709251396
8405 8406 80.73485846822327
8405 16735 74.83456578283723
8406 12260 39.50943080347688
8406 13554 74.94203749188233
8407 13897 45.193872197397326
8407 16111 48.32005112226432
8408 8409 237.7226087080134
8408 9733 210.27160781686922
8408 14725 152.4638438474029
8408 16934 145.02284361339156
8409 14728 227.69199139563705
8410 8411 79.47413715342543
8410 14729 151.38217770701618
8411 8412 79.16695169803371
8411 11380 151.2378833755427
8411 11381 75.73571226659263
8412 8413 79.05486609975253
8412 15245 76.49205127513905
8412 15246 76.39543910170967
8413 8414 78.93675560885254
8413 16068 75.70296163592974
8413 16069 76.88091232701437
8414 8415 78.78979405386448
8414 16391 76.6813279245468
8414 16767 76.15782554030108
8415 8416 79.09367138386749
8415 8672 88.95631572131775
8415 11790 75.4802279474931
8416 8673 41.89971050967929
8416 15805 75.73775854361914
8416 17881 57.588228020869245
8417 8420 20.76045096564525
8417 16750 31.54372593727096
8418 16038 75.94633207503112
8418 16039 40.31946453431032
8419 10154 156.07369095658274
8419 10155 61.7467263017403
8420 15641 202.80184505778803
8421 14034 63.20349729629178
8422 8423 118.20995916804404
8422 15311 79.38272219894591
8422 15312 78.85955378157875
8423 8424 154.8054459858618
8423 14290 80.01180956893788
8423 14291 79.27201456326286
8424 8425 87.09196903178264
8424 11926 82.57897732353337
8424 16388 90.51618880065163
8425 14103 81.94082292841904
8426 13318 203.44472349034103
8426 14614 80.51627520680461
8426 19000 14.238234144193822
8427 8429 24.552528222540595
8427 9237 80.03892228054775
8428 8436 24.76433310553104
8428 9924 197.44304005633865
8428 13997 260.0916744538521
8429 8430 75.14293783519794
8429 9238 54.82188831720436
8430 14747 134.5996391922635
8430 16378 134.4685071968433
8432 8433 39.66717349674724
8432 16029 49.75204069707135
8432 16690 155.65018394076492
8433 8434 61.33253398556847
8433 10569 122.34177568397722
8433 10570 77.20565327223252
8435 8436 122.65157032631193
8436 12874 134.9531323152073
8437 17252 87.79239434129826
8438 8439 211.75469802408412
8438 19563 235.21235557013063
8438 19920 44.52297149271222
8439 13146 48.170770211667616
8440 8441 74.99609936169733
8440 20085 42.44767561519394
8441 19483 66.29817948734592
8443 19275 8.809197878383916
8443 19480 78.64644428111978
8444 17417 88.99338956186936
8444 19275 70.0377118937935
8444 19858 73.18756927835133
8445 18581 38.51594324093327
8446 8447 429.0871746634447
8447 10987 324.2045170364923
8447 12039 114.50201331864827
8448 8449 134.58815560832429
8448 8450 230.07341446589118
8449 8450 132.8958098324022
8449 16156 56.40424170484228
8450 8451 41.73781339153226
8451 8452 181.58531829581312
8451 13071 331.15738460477786
8452 18956 23.406131182615155
8453 8454 122.21570996268052
8453 8604 80.29965603968897
8453 15463 111.99815314477846
8454 10054 88.06510324456058
8454 10528 95.26747967699087
8454 15337 117.48430964849969
8455 8456 110.44388875909469
8455 11119 92.86480012694207
8458 16087 297.21003260976545
8459 13025 170.91834960791766
8459 20077 138.25688083612172
8460 8461 134.54563646864034
8460 20077 9.795278774452681
8461 8462 78.9397408844464
8462 8463 78.66570891445468
8463 8464 79.13314630853286
8463 20080 74.89032415154556
8464 8465 77.41679963588842
8464 20079 74.25214886377643
8466 8467 200.29125381029183
8466 13056 83.46780804912396
8467 9434 79.5059535822088
8468 8469 97.76111516059011
8468 13033 76.1575407730915
8468 13621 73.78244305851968
8469 12372 75.92477764818373
8469 17854 76.72512093398056
8470 17102 176.16542607612595
8471 8472 37.53948049316511
8471 10605 140.18579633478106
8471 11488 103.06678103895901
8472 8473 149.08417241400747
8472 10783 83.87503106677588
8473 13043 108.06155898981037
8474 8475 185.8952300061539
8474 13051 85.37647466571158
8475 14674 39.25186764942283
8476 8477 87.7607125659526
8477 15187 119.31343431826346
8478 8479 369.07953493397497
8478 13998 53.88774159484705
8478 16357 29.295793960916345
8479 8480 125.2598829227624
8479 13998 370.41175916067266
8480 16252 61.26001025196715
8480 19642 66.89949638636968
8481 8482 207.90254847048027
8481 10739 204.80179314988456
8482 17103 151.01666612557202
8483 8484 252.01698401412983
8483 8488 15.107101629269199
8483 9144 79.5916025837542
8484 8485 224.4042172753804
8484 8489 16.591418652500074
8484 15920 82.49111591340437
8485 8486 176.47008966535577
8485 8490 16.612213712068314
8485 13500 75.52583011451043
8486 8487 255.1596611718271
8486 8491 15.149575404066113
8486 14476 75.5286805638984
8487 8492 15.618020272491254
8487 16277 97.71680005637262
8488 8489 244.1325332957804
8488 9145 79.34248301605864
8489 8490 233.42044375221496
8489 13921 77.24673916335158
8490 8491 177.21812772181474
8490 13501 76.97599489280539
8491 8492 252.2807223839669
8491 17235 78.56796338474564
8492 13924 76.91724654677813
8493 11891 82.14096703022867
8493 13112 137.10481770944494
8494 12392 133.6790928978958
8494 13113 138.25155366823927
8495 8496 75.92496412149957
8495 8601 94.57317600016695
8495 8602 99.836521726213
8496 11922 94.0722412858704
8496 13108 125.35259128734414
8497 8498 85.21189058367999
8497 10056 93.59294866530182
8497 10057 125.45042307508947
8498 11887 93.37051180330914
8498 19677 93.52694710339556
8499 11886 76.6052233345633
8499 16352 20.171584117817613
8500 8501 199.08652621402638
8500 10848 76.13605653573939
8501 11894 76.03897050326516
8502 11888 72.78990226213014
8503 8504 107.64060493712762
8503 11908 73.018081359443
8504 8505 304.83626425368874
8504 11909 73.54345679076361
8505 8506 103.64041028709107
8505 8967 146.76386219955262
8505 8968 84.3409804693214
8505 10954 92.82437702192367
8506 8507 114.17448699357054
8506 12395 146.80098798501805
8507 12396 146.6345779616858
8507 13115 149.90181234811791
8508 8509 215.63508730368568
8508 11892 78.86016912017104
8508 18468 235.23409694632815
8509 11893 79.02634638678221
8510 8511 76.33663975181777
8510 11897 77.87014164000198
8511 8512 80.93964787868354
8511 19458 77.96462944567148
8512 8882 78.42705855282331
8512 19462 79.20325633997979
8513 11898 78.5600107154612
8514 8515 79.07054907433222
8515 8516 78.44010301021815
8515 9446 79.3491123368832
8516 8517 78.49435800540873
8516 11899 78.39366368085349
8517 11443 78.44845959457894
8517 19411 72.8535417031308
8518 8519 79.32019356518991
8518 10218 78.57122833180595
8518 19408 72.9892949670908
8518 19412 71.85669757324673
8519 8520 78.69699718052533
8519 18671 72.04426531160584
8520 8521 79.4059030259073
8520 9272 79.0738652547279
8521 8522 157.89263066854375
8521 11901 79.29322798223001
8522 8523 158.13410879754443
8522 11902 79.6168337493795
8523 8524 157.0348546229537
8523 11903 79.15313405305831
8524 8525 168.55178119811117
8524 11904 79.6945478476224
8525 8526 77.58290907893746
8525 11905 83.61957484853569
8525 13137 155.91881673030937
8526 8527 77.91012724682832
8526 9355 83.31851265978615
8526 9356 155.5854771247824
8527 11906 80.57832305886225
8528 12410 157.6441768973677
8528 13141 155.51712127383914
8529 8530 75.07424972188699
8529 12411 157.87137718475725
8529 13142 155.0324665606902
8530 12412 157.47183925234535
8530 13143 154.9134932406071
8530 18328 85.9349152059476
8531 8532 79.94756801449971
8531 10536 574.9428446568917
8532 8533 40.22296064744299
8532 16733 106.89883377906563
8533 8534 105.06849917988865
8533 13103 122.91374651200768
8534 11911 81.09287347921455
8534 13105 154.67209959727825
8535 13062 79.68454416104116
8535 13063 186.52472711626226
8536 8537 38.17881157685777
8537 9950 248.58008410282565
8537 13106 115.17588063329896
8539 8540 76.02258113502448
8539 12256 121.14328888361348
8539 12258 28.23580272490924
8540 8541 75.04277092503075
8540 14617 134.90161422712654
8542 11923 76.68106785203298
8544 8545 203.0899156150678
8544 8561 46.25572770014817
8544 15699 34.481484988409015
8545 14028 77.55068124656583
8545 16091 77.53986633037987
8546 8547 140.28377337780185
8546 14024 78.57169295891711
8546 17621 132.93399200576118
8546 19382 78.89049962568235
8547 8548 170.99581748792002
8547 14025 78.26524643677064
8547 15892 78.94300818741083
8548 8549 171.073637018986
8548 12030 78.87089275554969
8548 12031 78.41108287412922
8549 14951 78.83499574149569
8549 19571 46.1827224540404
8550 12729 128.6820193059967
8550 15488 77.8178986891955
8550 19571 32.51586834934669
8551 8558 98.61619651284296
8551 14034 47.96480320686274
8552 12489 164.85418647593715
8552 14036 79.13810803399245
8553 8554 144.9554958221377
8553 13255 52.70100039829067
8553 13256 85.1289184354881
8554 8555 95.89918301764035
8554 14031 80.13694844540315
8554 14875 86.32293065248398
8555 8556 79.02303457604766
8555 10798 144.27031966515952
8555 10799 120.92103308330556
8556 8557 82.0178586071319
8556 12485 198.19958419546327
8556 14032 120.83226021245261
8557 8558 38.073618292154855
8557 12486 179.59470233851758
8557 14033 119.11245714363714
8558 15608 70.24192138284027
8559 8560 151.44754086952167
8559 14029 86.26754703629256
8559 18456 78.33466410379353
8560 11307 78.95724209916152
8560 17634 80.2665605719126
8561 14027 32.76055946376642
8563 8564 21.575359254887843
8565 8566 199.83412004183526
8565 13186 75.76723279229648
8566 9819 74.74983851108388
8567 8568 142.31870381123827
8568 18617 16.97493011168786
8569 8570 78.82740297767981
8569 17061 43.919372506606905
8569 17479 24.344232464544135
8570 16760 53.75331704542006
8571 19827 71.93231003497331
8572 11062 151.91113365681673
8572 17679 137.46967239994447
8573 12445 148.76851741439933
8573 13657 58.42893705540196
8574 8575 61.97258343561037
8574 8606 44.544106578163316
8574 14143 33.766039651691905
8576 8577 75.28369359687449
8576 15338 200.50290159979636
8577 8578 76.7860965455148
8577 15339 200.42121344717958
8578 8579 76.96280934278512
8578 14595 200.02511502701392
8579 8580 77.04307213445844
8579 11861 200.32432770015825
8580 8581 74.626319722445
8580 9165 200.7232512771615
8581 8582 76.92529983658683
8581 12774 200.85327696558426
8582 8583 75.99512993622481
8582 15340 200.39302992166213
8583 8584 76.41957649325862
8583 15341 200.24747696987862
8584 8585 76.27335644416587
8584 15342 200.29649247246488
8585 11368 200.08164317978992
8586 8587 73.69852345662133
8586 12435 148.97366708904232
8587 14788 71.97854820764935
8587 19151 110.24044596730675
8588 8589 68.44808049435268
8588 8930 64.16656866898253
8589 12437 148.0315586920403
8590 12451 162.92226338670153
8590 15962 34.30559738552443
8591 8593 21.05824525830729
8591 10318 78.1927439597375
8592 12301 149.82679716837015
8592 17151 46.2489950994593
8593 8594 78.04830610365752
8594 8595 75.66910376852496
8595 8596 153.16054637168543
8595 15964 97.97534977887649
8596 13039 98.29076453658068
8596 17837 134.35800536966966
8597 15530 83.81084465199488
8597 17430 15.825317763404074
8597 19935 10.365679384796037
8598 8599 95.94056652631511
8600 8601 185.84060500497753
8600 8748 202.0243136717456
8600 13244 76.84982120822882
8601 11921 37.35793244862178
8601 11922 75.82793481130936
8602 17479 13.01886454570941
8603 8604 162.49168772194184
8603 10392 73.53993723272465
8605 8606 91.64955591124755
8605 11975 76.33836269327446
8608 9826 39.01342113387581
8609 9553 85.22439476410656
8609 17963 82.52826822969327
8610 8611 169.87454811726144
8610 11205 88.06165293450125
8611 8612 170.11889243756784
8611 11205 257.3555786484399
8612 19094 88.99909450428106
8613 8614 92.5869353119198
8613 10157 88.9733842220364
8614 8615 128.9039282014292
8614 11775 77.57370588418131
8615 8616 51.17047627706369
8615 16384 94.43613597616931
8616 11662 72.80145496888139
8616 11663 79.576000939215
8617 10161 78.26574630364324
8617 19044 9.959378359520647
8618 18108 71.72185165940878
8619 8620 105.81000506814601
8619 19765 13.045707133384047
8620 8621 109.5055841569677
8620 12841 80.53594399009229
8621 8622 79.16292510961941
8621 14206 79.32622402490003
8622 8623 78.77122268496309
8622 18645 67.97326375756703
8623 8624 11.013069230381413
8624 8625 82.25430608971497
8624 19141 26.452857669404434
8627 8628 109.04122056894448
8627 11172 70.96614642065732
8627 12133 26.312246714240487
8628 8629 109.53169048126308
8628 9339 137.1501643031282
8629 8630 42.35881994423905
8629 10587 214.53446349130596
8630 8631 34.20963674795821
8630 19405 42.60608583187653
8631 19402 161.91182725357663
8631 19403 73.7637276068413
8632 10745 293.47148704350485
8632 17519 306.6184986912752
8632 19403 44.71960919166946
8633 8634 589.4994242987455
8633 12136 37.85932992481597
8633 17153 99.09573677857585
8634 8635 242.91447919019657
8635 13507 345.1811304418496
8636 12787 149.73870471147885
8638 8639 300.7185187027078
8638 11182 87.42509227195956
8639 8640 70.1453701389282
8639 10251 258.3272270548664
8640 12512 214.79751283011572
8641 13546 80.70825576462717
8642 8643 79.75658005536208
8642 11716 77.03215022308326
8643 17773 86.56122207312546
8645 8646 190.49422394946342
8645 10069 76.30301980124888
8645 17958 75.77784080214442
8646 8647 186.1369489338282
8646 10070 76.68223574330423
8646 10349 75.99112926090548
8647 10072 49.07039843622881
8647 12519 75.70190471767913
8648 9614 202.0871866093842
8648 9812 204.84119536275696
8649 8650 108.52473241355686
8649 10061 75.91419506120049
8649 12521 73.1228413437906
8650 10062 76.0691944376868
8650 10679 73.34434721122146
8651 10064 77.9377257800817
8652 10029 76.52420834439384
8652 10030 75.71161117812838
8653 8654 117.45153447054938
8653 10065 76.3814775381607
8653 11423 76.7500431797768
8654 8655 188.19825578903905
8654 10066 76.41153319119103
8654 12524 75.18849551645609
8655 9890 76.24647526485701
8656 10067 76.45805013062318
8656 12523 75.9247407323621
8657 18752 21.639210200053228
8657 18753 23.790334398651446
8657 18754 16.702202387249105
8658 11661 20.94815799878471
8658 17909 14.015922028047644
8658 18062 30.61731890479874
8659 8660 104.0739932265084
8659 16223 96.0004667910901
8662 17320 46.63127209492043
8662 17321 16.155904306086466
8662 17327 69.0613358800521
8663 8664 52.88076696768594
8663 8665 91.03948289408811
8663 14866 89.26288591667894
8663 16466 149.0270172496702
8664 10795 117.84195743477986
8664 17321 36.3148758020607
8665 9416 52.851230712417305
8665 18588 47.353161422237214
8665 18589 29.655852646712994
8666 8667 89.96948905315554
8666 14729 156.0193770570989
8666 16049 15.10034276272636
8666 18588 42.37798700030817
8667 8668 40.331292757312205
8667 11378 58.17780218111139
8667 11379 24.240739852610957
8668 8669 49.42600949571282
8668 11379 36.98267753901392
8668 15244 43.6235011237482
8669 14730 70.5311268113485
8669 15244 22.362269651427276
8669 18587 78.69930129787684
8670 8671 86.83343788834995
8670 14731 22.741259279887892
8670 18587 16.040426342461824
8671 8672 89.77210762944576
8671 14732 24.622071286040086
8671 16391 55.19914900922416
8672 8673 92.1106241812254
8672 16391 83.27719688291047
8673 15804 35.30200203053646
8673 17881 59.67900700503825
8674 13730 77.99718942082862
8674 19962 8.407571000350957
8675 10870 78.1010642150014
8675 17882 18.19262220030664
8675 19962 66.14820442872517
8676 9512 95.2926551017252
8676 12642 91.15751626958787
8676 16112 60.19027107176472
8676 17882 99.88311811853835
8677 8678 172.26456990129466
8677 12638 23.905815153874432
8678 14292 38.14851641657532
8678 19078 155.56299435702883
8679 9333 81.92423230149069
8679 18614 56.32235162597921
8680 8681 40.67362321067599
8680 12490 91.84704679361104
8681 8682 46.095225818157296
8682 16096 45.423565718159935
8682 17621 94.70025506157798
8683 14023 56.726073484221764
8683 14024 83.68724954830634
8683 17621 92.9213263883667
8684 8685 40.2425450443442
8685 13534 153.43708055898668
8685 13535 126.20742484640135
8685 19572 81.20827705240441
8686 12570 110.52899791445734
8686 12571 30.271935431645886
8686 17916 56.29159638684564
8687 8688 88.00468770804962
8687 12034 124.83934732253854
8687 13782 46.169979423466344
8688 8689 82.01027596385069
8688 12594 83.75136202792116
8688 12595 135.84984384326697
8689 17917 11.148920475061567
8689 17918 26.418460405468434
8689 19270 50.98450187164274
8690 8691 54.436444405480316
8690 10084 217.95474848254764
8690 17918 133.06994753310718
8691 8692 172.37611311794902
8691 12160 28.548049661341523
8692 10084 132.1294257324651
8692 17635 95.67963962385497
8693 12689 39.60847530793942
8693 12690 119.53622285621374
8693 18759 59.38032055482988
8694 10931 128.9002345376428
8694 10932 29.422450674236096
8694 19073 45.30245839394981
8695 8696 17.969060300164827
8695 17994 18.453349914880903
8695 19073 29.869682057315003
8696 8697 94.0521945372359
8696 9090 170.06306480271226
8696 17994 15.634098764124499
8697 11317 123.57701472653278
8697 14400 62.43234693777838
8698 8699 51.424707150916234
8698 11318 35.41591204566407
8698 12181 151.5602254172588
8699 8700 40.09042226541633
8699 11318 50.18468975677223
8700 8701 90.3570979732658
8700 10700 81.59323087640873
8700 15475 196.3334481322206
8701 8702 90.7542312806336
8701 10700 54.83136667028792
8702 8703 90.68291221412235
8702 11319 99.39975585653696
8703 8704 97.74633283560618
8703 10102 144.19854270334673
8704 11320 193.4163881471903
8705 8706 30.413734497160092
8705 12677 27.223674581009092
8705 17995 22.592808955109298
8706 12677 14.474534528343144
8706 17996 19.60496683872948
8707 8708 91.07732218320719
8707 8741 104.29328707415957
8707 8742 54.689663653553865
8708 8742 81.61632176416428
8708 10497 167.72259115693615
8708 15704 149.6371780884549
8708 17997 46.73305481574385
8709 8710 91.53308788254549
8709 10498 76.3873428664342
8709 15412 81.92196446737611
8710 8711 58.77970114436537
8710 10149 128.87791480075197
8710 10150 30.205766264744433
8711 8712 34.09509732106033
8711 10150 50.43217225139859
8711 10499 29.102149755420676
8712 10499 17.605825766907106
8712 15742 137.44515926929967
8714 9691 111.38080309640267
8715 9692 55.3464962417271
8716 19793 35.26859087565873
8717 8718 115.57972886486027
8718 8719 72.14802800371727
8719 8720 79.83857507791359
8720 8721 79.07567645946908
8720 18199 41.65538349582754
8721 8722 78.77452492808519
8722 8723 79.278661936865
8726 12994 233.7125463462249
8726 19059 94.32022275385461
8727 8728 146.5180702508119
8727 11687 190.4905989320513
8728 9698 250.65616877756247
8729 8730 376.43136023133616
8729 17512 183.95518379301035
8731 8732 652.506164856706
8731 9964 179.16891051961957
8733 18176 36.805680791047045
8733 18177 41.18929473718853
8733 18791 39.54000195001391
8734 18791 111.81400444455484
8735 12870 54.265184025665
8736 8737 134.25591108617
8736 11408 80.8287199738262
8736 11409 82.29820611431445
8738 8739 96.98547905336311
8738 13666 26.027378893565576
8739 10856 110.26796204785254
8740 11349 78.99384000667791
8741 15704 79.19087476663616
8742 8743 158.54385767874535
8743 8744 155.41611715665593
8743 10497 79.2276261913954
8744 15741 78.63142840084795
8745 9684 81.75401161574482
8746 8754 33.898378314928614
8747 15268 79.37412351263923
8748 8749 198.80657877426606
8748 16037 75.90209850116719
8749 8750 195.57254775186942
8749 14744 76.39228081337971
8749 18991 75.99379968030127
8750 8751 121.31417881120822
8750 16039 75.72531055554357
8751 8752 117.77915831418677
8751 9901 75.7553684461366
8752 15624 75.96206246754329
8753 8754 87.67755818282399
8753 14215 76.03448047499953
8754 16036 45.03689231901459
8755 8756 79.29645222720985
8755 11150 161.76532309554435
8755 15409 291.8753773555584
8756 12675 160.72599884268502
8757 16042 56.88577532647872
8758 13719 54.12119533199657
8758 18285 11.526272690508694
8758 18792 154.59325289970275
8759 14817 89.35270089894179
8759 18285 247.3402738810209
8760 14887 509.09818210160955
8760 19971 205.42259966504093
8761 8762 74.27029342794968
8762 8763 230.3022106782129
8762 16685 71.89437762445365
8763 8764 105.65350490889217
8763 14622 169.10401562245957
8764 8765 53.93146607359578
8766 14967 106.25139518322877
8766 15941 164.49603230868075
8767 8768 104.633489804714
8768 8769 95.71368345998022
8768 9178 144.03591549183056
8769 8770 272.12482185910625
8769 11008 23.00635192803614
8769 19237 76.85375240581062
8771 18419 311.72102790335725
8772 14570 445.8673210199584
8773 8774 147.9406880760335
8774 8775 52.44129419691807
8774 9867 54.022121562312854
8775 17526 163.21716851470848
8776 8894 64.91363009448412
8777 12969 147.08957881403313
8777 17113 97.5181789973066
8778 8779 68.4015595191555
8778 18774 21.00353130421682
8784 17077 98.65800404179343
8785 8786 42.37248445911992
8785 11304 63.98194503974556
8785 11305 237.54233933646333
8788 8789 136.28251282263935
8788 9043 111.84059568942982
8788 16332 409.7789279295983
8789 16782 40.152620460330475
8789 16783 37.177956946287615
8790 8791 62.88095919731815
8791 8792 210.618432979651
8791 10275 25.65863708174171
8792 8793 125.31916979233361
8792 17955 82.92251620045278
8793 8794 140.14037760522396
8794 8795 140.66389323436107
8795 15944 28.42836748626436
8795 18836 96.16148977892219
8796 8797 79.86206407471485
8797 8798 78.35282221750636
8798 8799 78.49281582184446
8799 8800 79.60838530205206
8801 17424 128.97772410800823
8802 17423 79.75409303507585
8803 8804 79.28454069664181
8804 8805 97.41748141446706
8805 15889 79.80860323989441
8807 8808 98.16298445811412
8807 13842 79.94830917738324
8807 19332 13.8966986062714
8808 9255 78.58368775063018
8808 17195 99.51890717679831
8808 17953 13.883053333013173
8808 17954 43.400388776057845
8809 8810 101.95761873586261
8809 9217 126.78768163579802
8810 18839 83.09622143290275
8811 8848 73.9617521711777
8811 16298 77.43395254409218
8812 9228 102.42607634455675
8812 9663 96.65991700067606
8812 10634 77.28438253396253
8813 8814 78.44531918973026
8815 8816 76.3113238327129
8815 9637 99.52572638298889
8815 17969 74.81554661415412
8816 8817 74.94856939777584
8816 9638 99.48682738553286
8817 9639 99.44125646907979
8818 8819 74.21635439898297
8818 9640 99.40104359081164
8819 8820 75.70313738387459
8819 9641 99.47086024642752
8820 8821 76.55940495276606
8820 9642 99.71353632117939
8821 8822 75.92990332571749
8821 9643 99.91234771729417
8822 8823 76.0542988080762
8822 9644 99.95463858620055
8823 8824 79.4801372052287
8823 9645 100.07832726881296
8824 9577 100.75555841732596
8824 18424 74.24709849730029
8825 8826 76.84818857384252
8825 9648 100.67648673871741
8825 18423 72.27811745315874
8826 8827 75.04896052523493
8826 9397 101.11661560597413
8827 8828 76.45307710154478
8827 9650 101.9107014126593
8828 8829 75.72132533446096
8828 9651 101.59099388291482
8829 8830 76.39763522967506
8829 9652 102.9116732252449
8830 9653 102.85998359316078
8830 19574 75.67272630490567
8831 8832 75.58745276646819
8831 9655 102.79204881530612
8831 19574 76.0465708313457
8832 9656 102.71137106207198
8833 8834 78.84202489688734
8833 9657 102.57955002019764
8834 8835 79.41014337584055
8834 9494 102.66795206114618
8835 9658 102.52400386611427
8836 8837 80.17290617738551
8836 9659 102.85711085872299
8837 8838 81.3330108262751
8837 9660 103.00007269052958
8838 9661 102.91328254791866
8839 8840 50.53816555159303
8839 9662 101.14325333375982
8840 18004 18.818623118023808
8841 9665 168.76295297797992
8841 18004 61.34533181184498
8842 8843 78.98840098928827
8842 9127 169.00568161483588
8843 9666 168.8054895417891
8844 9667 128.5193038587818
8845 8846 78.60694408758182
8845 9668 126.43993880210176
8846 8847 79.09781929570177
8846 9669 125.51701278611289
8846 17608 176.0092140071119
8847 9670 125.51741310722448
8848 8849 77.17148525957153
8848 9688 139.7722760161951
8849 9689 139.13442929765492
8849 16298 69.88698836646611
8850 9690 138.78853012800576
8850 14254 70.60023843784472
8851 9691 133.7894855928355
8851 15433 74.5891932245116
8852 9692 91.51391487213027
8853 8854 149.6232462393916
8853 9676 151.41651168706812
8854 8855 161.237295262353
8854 9677 151.78651553729418
8855 8856 158.05411656853244
8855 9679 151.33546416638433
8856 9680 151.2313132041368
8857 9683 151.34176779542696
8858 9685 142.9180943360025
8859 8860 176.20603641110773
8859 16294 83.73474177705093
8860 8861 89.55431302129276
8860 9764 120.69739523888482
8861 9671 161.18999724629222
8862 9673 134.08306488857588
8863 8864 79.30139108834148
8863 9675 134.46940686291657
8864 9675 152.7296381047106
8865 8949 573.987121840901
8865 17054 97.08549656376067
8866 9340 276.23164345765986
8866 19014 117.56927468584873
8866 19364 78.10377777755289
8866 19948 9.509019288634354
8867 8868 67.52878558823438
8867 9990 174.93171182199646
8867 19014 63.981665205326166
8868 8869 59.322585860131625
8868 10889 173.83439972944583
8869 8870 88.01092567893902
8869 10285 171.8350888462856
8871 8872 59.406995428894064
8871 16328 79.22197278607432
8871 16447 181.57740943225747
8873 16565 159.52776474833723
8873 18263 130.93633737031428
8874 10711 1027.1818961581346
8874 17399 392.94946512864027
8875 8876 71.55415889730502
8875 11929 109.1978186771396
8876 16641 81.212425401145
8877 13665 53.88620230636824
8877 17049 716.7571230199875
8877 18402 77.79179969245722
8878 8879 47.96992424651266
8879 13002 81.01873499115013
8880 12733 54.321066468008304
8881 13270 80.50849875445823
8881 14862 78.91590364032659
8881 19459 79.4158294582956
8882 19458 80.87734681012601
8882 19459 79.49386045527379
8882 19461 79.28062510308212
8883 8884 79.69570236798589
8883 13097 81.20752469316119
8883 13127 79.44945624425948
8884 8885 79.17169117461313
8884 13098 81.30648838840557
8884 19463 79.6660189268428
8885 13406 79.66668330281937
8885 19473 80.99836944329516
8886 8887 78.80753996935763
8886 18260 45.80439117656728
8886 19468 78.50039502999354
8887 8888 79.42785851001742
8887 13100 81.13719497134633
8887 19469 79.77667309850538
8888 11606 80.80989498813662
8888 19173 54.13007707231466
8889 15377 79.2316015505531
8889 16944 167.9544466107331
8890 13101 80.6839669413022
8890 15376 79.12109467617566
8890 18402 81.48166188129022
8891 8892 59.74700092814457
8891 12066 71.62327841290772
8891 18402 156.9737312226308
8892 15374 88.70947601341481
8893 10981 60.826241733334996
8895 8896 124.05103812016945
8895 9828 87.40022785671388
8895 11091 83.95526831820118
8896 8897 124.73581495176896
8896 9829 86.92190405985174
8896 11092 83.35207343727491
8897 9558 81.24379941883592
8897 9830 86.52100938191217
8898 8899 69.24398033370636
8898 9020 95.40018974909466
8898 9021 85.38942646169416
8899 8900 139.7469643006922
8899 12720 48.22385032956093
8900 10664 77.76342326842997
8900 15675 78.96983889383803
8901 14904 78.34748975364438
8902 8903 263.15156915681257
8902 9622 79.215408724775
8902 10937 79.23764124964622
8902 19553 163.73000971952968
8903 8904 32.76939910855758
8903 9624 46.390800439612136
8904 8905 187.26703453668915
8904 12208 46.72446001061129
8905 8906 186.4314535099029
8905 9625 79.52892346128614
8905 10351 79.46192800280474
8906 8907 209.77755766073025
8906 9626 79.53965663774306
8906 15785 77.54905174606539
8907 9627 78.21559591228709
8907 15786 76.0579254116471
8908 10032 76.57618059605473
8908 17747 76.82544656241768
8909 9611 75.75592598329501
8909 16235 66.56681807220568
8913 8914 119.62517048945485
8913 14157 132.0849601560883
8913 14158 66.6281042975896
8914 8915 114.10416636171695
8914 14579 51.63347904599816
8915 13489 120.33525995224356
8915 13490 88.09466850166928
8916 8917 311.9966857034978
8916 13063 100.84928955776827
8916 17358 77.81076253238982
8917 8918 154.80641849859572
8917 14497 87.3939282666978
8918 11634 195.18236263906408
8919 8920 105.00697293325936
8919 15078 260.8119584958432
8919 15471 198.80631253974738
8920 8921 90.2588921935816
8920 15335 196.80881866148727
8921 8922 261.5325935074211
8921 15472 198.6839140430295
8923 15075 291.22436613123915
8923 15787 82.8606243252623
8923 19899 18.8956672739103
8925 10076 78.13497492875781
8925 10415 177.69562786705154
8925 17290 128.6876917469702
8926 14237 154.50798033562128
8926 14841 64.82086629944749
8928 9436 539.007040784865
8928 13805 322.47344201179504
8931 8932 166.13336503021938
8931 13590 55.66829801034192
8932 14062 75.8680642456022
8932 14467 76.35136246032441
8933 13979 77.13035631859913
8934 14063 75.96854882900286
8934 14466 52.69577074978837
8935 14166 152.55406144139673
8936 10915 71.5256916818372
8936 18197 369.0922844518092
8937 8938 55.12440904175656
8937 13956 33.897840869224275
8937 15794 99.48107223310245
8939 14844 27.05106516080718
8939 14845 85.17543982710151
8940 11210 33.65429939476632
8940 13377 87.89312495390888
8941 14706 76.18604225333215
8941 17548 84.19901519838884
8941 17790 149.90466947331774
8942 11087 324.91522538359567
8942 17548 470.37634203886677
8943 8944 315.8347685671741
8943 17051 646.8550329878714
8944 13963 226.4830693281767
8945 14524 55.47231990845718
8946 12213 248.97330178513744
8946 17120 42.89091235040944
8946 18432 50.531576370535134
8948 13724 242.87089588945378
8950 19120 209.42839727703856
8952 12002 660.9790115277837
8952 19689 720.7903471148006
8952 19691 419.83154660218946
8953 8954 187.77478252908048
8953 10950 109.97040457413132
8954 8955 172.08555674268578
8955 8956 47.066144689791585
8955 10952 87.72525455194406
8957 8958 76.79843788982039
8957 14653 98.87036309451193
8958 8959 76.74566096030877
8958 14654 94.94806889354733
8959 8960 74.86449527233913
8959 14600 94.35785685657137
8960 8961 77.22158405032847
8960 11876 94.81217556485448
8961 8962 84.97433757964357
8961 14655 94.79238920552577
8962 12775 94.18550420348959
8962 17487 145.63296531864563
8963 17487 98.09777779396589
8964 12811 278.9047927342944
8964 20151 230.89405554791506
8965 8966 201.54597380219693
8965 14657 92.25316630300988
8965 20151 231.1971396592706
8966 10403 92.52050049179546
8966 17724 97.26239623705655
8967 12394 306.50283995617974
8967 12395 100.8103032385331
8967 17016 93.24263964358256
8968 8969 66.66331519668526
8968 10954 42.07915103851276
8969 8970 77.90671908074019
8972 8973 79.38843312910384
8973 10638 199.29940095449538
8974 8975 169.90213013619012
8975 9246 272.9667662273517
8975 15908 42.29449975272215
8976 8977 137.34030349258865
8976 11458 78.59951389124711
8977 8978 139.97028997910934
8977 9265 79.37052119272289
8978 13017 79.02176365113823
8978 19100 149.2446350807202
8979 8980 147.0849093908939
8979 19099 63.80793721258935
8979 19100 15.393047778552756
8980 8981 109.66382539638116
8980 12843 79.51497694302296
8981 8982 109.07153391111139
8981 13018 79.4947232544054
8982 8983 13.994977025523319
8983 8984 78.61670697004114
8983 9751 65.4610993718499
8984 9839 113.9005395032618
8986 15834 92.05897614703451
8986 16169 93.18449321527228
8987 15832 303.01659422015524
8988 8989 250.7464169271739
8989 8990 348.8466661537294
8989 9851 158.52200911156808
8989 13678 111.37973264583508
8990 8991 149.57837774957727
8991 12838 155.49982869950873
8992 9847 130.34095214472512
8992 10730 71.82331894441273
8993 10732 189.92451396405156
8993 16292 79.18000644017522
8994 13511 117.0275081185525
8995 8996 108.15259730917649
8995 10750 69.86461257754381
8995 14258 66.03989047387583
8996 10751 69.74380276161122
8996 10961 66.22633909277616
8997 10310 69.78034835806191
8997 10311 65.92598472018585
8998 10766 99.80060002401532
8998 14265 101.0947827544069
8999 10770 101.31289345233544
8999 14268 98.54499204468695
9000 14260 79.4534385420802
9000 17434 18.02104177777512
9000 17847 11.980560965487951
9001 10748 101.04517859891509
9001 14261 83.50010308629739
9001 17434 79.97377269355103
9002 9003 98.43051865086254
9002 10779 98.88203808272397
9002 18152 14.163314834389055
9003 12416 114.63632400314073
9003 18149 303.4642016189759
9004 18149 9.063512502122046
9004 18937 70.58741486718961
9005 9006 129.30024288338615
9005 12937 42.67230195109163
9005 14139 99.22141026452667
9006 9007 68.73117160853184
9006 10384 36.30980403836501
9007 9008 99.30626356082524
9007 10385 75.84661000946987
9008 9009 77.54814252451548
9008 10752 103.81269094553814
9009 9010 227.62402682893344
9009 10753 104.53635910050713
9010 10754 105.96599329167744
9010 11964 34.52118419460199
9011 9012 68.92170670795309
9011 11702 191.50472041673416
9012 9013 109.49553292906845
9012 11701 78.16673206514635
9013 9014 154.9045584435624
9014 14897 74.14802835160609
9015 9016 521.7896054349521
9015 15946 50.88422967389338
9016 15293 141.47398363279137
9017 11065 155.5581190283503
9017 15125 101.03587980266865
9018 9019 216.0591907915876
9018 16730 304.4746648552523
9019 9020 360.0980861110602
9019 16564 88.41375965296899
9020 16005 88.50206966109762
9021 9022 166.39248923966397
9021 10664 14.883752179749614
9022 9488 97.34228343650109
9022 12795 59.92735298383374
9024 9025 89.62897176385627
9024 12301 42.89912082543473
9024 12442 57.009720016381216
9026 13949 79.3201301945813
9027 12294 80.0827737300201
9027 13950 78.63722856697676
9028 9029 154.49661687922767
9028 9464 78.98286944812783
9028 9465 79.09590689181658
9029 9030 154.5587331486466
9029 11438 79.42680167217975
9029 11439 78.40379463707897
9030 9031 155.16476606196818
9030 10242 79.43798834528914
9030 10243 79.47149511693058
9031 9032 155.23893845719732
9031 12291 79.17148388350465
9031 13951 78.60985061971651
9032 9033 154.52743201419585
9032 9295 79.09338121477717
9032 9296 79.28212135998905
9033 9034 154.13138391163585
9033 11260 79.4506573521096
9033 11261 79.3289653524852
9034 9035 122.73417682136679
9034 12292 79.10420222471652
9034 13952 79.87325424686446
9035 9036 77.04369394162572
9035 11672 80.08306661580797
9035 11673 78.22582936303624
9036 12295 77.33622831193799
9036 17100 141.41022308408384
9037 9038 59.88967209341696
9037 15046 159.00192282741082
9038 14428 139.9080545651081
9039 14428 137.3851102568701
9040 14589 310.1636482796279
9040 14590 79.82998017757288
9042 11457 132.96970980098914
9042 14817 297.01703975797733
9043 18258 85.71146407915036
9045 9046 161.25243683441192
9045 15173 81.9463094875491
9046 13388 202.74276665692537
9048 9049 84.07636504435882
9049 9050 81.02803255879381
9051 9052 68.98590932169753
9051 18335 525.5492555663703
9052 18335 19.881680969843217
9053 18335 87.34405106169224
9054 9055 23.807797082638963
9054 14923 234.01070059213328
9056 9057 514.1764790543149
9056 14925 236.192248588493
9057 9058 27.565261254867885
9058 9059 72.10002488222096
9058 13658 244.1574048017497
9059 16348 403.4336857652513
9059 19993 14.42837244153676
9060 19992 20.022852807989754
9060 19993 36.366992270749485
9061 18337 146.13906731288486
9061 19885 11.417645271134118
9062 17291 49.99513743207084
9062 18266 39.6840280965418
9062 19936 523.9038465990985
9063 17825 193.09619190477886
9064 9065 83.82141149393874
9065 9066 93.67251526195301
9066 17482 104.6088044415962
9067 17482 119.61557894981075
9068 9069 60.056594243571475
9068 16758 105.2272120400581
9070 9071 99.26386751678004
9071 9072 65.03250233815743
9072 9073 103.5688260814536
9072 19869 108.36762597983538
9073 9074 75.14568460780204
9073 19578 123.99645889832038
9074 9075 191.0943270533515
9074 9170 92.32244832325809
9075 9076 83.54200742105705
9076 16346 78.22114001913351
9077 9078 92.74782064544074
9078 9079 60.757530281538585
9078 14797 76.78421851165214
9079 9080 39.363675920933545
9080 14060 169.62659433000056
9081 18553 74.19085126493447
9082 16337 253.14341691829236
9082 18559 134.47383709646164
9083 9084 133.92511731341028
9083 15959 438.4495894068874
9084 9085 151.74848012429914
9084 14856 280.68257520449464
9087 9088 117.91652631924666
9087 11147 95.65027055174639
9087 17636 33.87707624735281
9087 17637 27.977620927731795
9088 9089 143.3096128314691
9088 10930 78.90390100767763
9088 12040 82.13182298835959
9089 10931 78.58886584566301
9089 14399 82.43538130492335
9089 17994 158.79694732491276
9090 10933 79.14193590001335
9090 11317 82.14332553802203
9091 9102 40.20621732942729
9091 14401 82.07103164364106
9092 9093 30.823942638836616
9093 9094 75.80348519880924
9093 10921 75.64735312366882
9093 14387 142.77738178257147
9094 10922 75.65493556825858
9094 14387 76.0648616603369
9095 9096 77.84843258123617
9095 10923 75.63593881964981
9095 14219 76.12876286600206
9096 9105 46.22095038540859
9096 10925 33.018144072178806
9097 9098 121.77526026413089
9097 10689 77.40421201827151
9097 10919 76.82805643638103
9098 10132 19.054633722178096
9098 10920 78.7878367801829
9099 9100 183.0449250524065
9099 10808 99.25394345974962
9099 17625 111.18882790386931
9099 18152 144.46880181300435
9100 9101 73.25748536527428
9100 10917 110.88661878581382
9101 10918 110.58171398287007
9101 18988 89.41483127169928
9102 10934 39.12405289462262
9103 9104 79.47048852727528
9105 14388 29.926911680754653
9106 9107 121.96537540999168
9106 10926 78.69192832635959
9106 14394 82.1787396649385
9107 9108 121.80413760422235
9107 10927 78.81237213549204
9107 14396 81.80072614209061
9108 10928 79.27079931527246
9108 14397 81.46708415651885
9108 17636 163.2114045556741
9109 14091 123.13429731371326
9110 15593 79.21171248890059
9110 20116 58.05197324571108
9111 9112 82.8548431997904
9111 15263 79.126573873016
9112 14695 79.12694573049107
9114 9115 189.03623172853074
9114 15491 53.15762003921309
9114 15492 56.25256111760101
9116 9117 232.6423554231218
9116 15202 78.39943146704121
9117 9118 49.53029144615056
9117 15203 79.2976337234301
9120 14950 124.63061766262837
9121 15209 124.54914759661243
9122 11360 94.88277236470799
9123 15199 78.78255148045649
9123 17599 13.209975946890106
9124 9125 194.96967310708888
9124 10196 78.99549330374401
9124 17599 202.01922957182882
9125 14977 54.732509033005456
9126 15201 30.90886040611483
9126 17627 77.27236365718201
9127 9666 79.01358553729011
9128 15205 79.83411145479815
9129 9130 127.18495380687679
9129 15206 78.922588697567
9130 10906 79.4858141014101
9131 15913 303.6909698141342
9131 16221 45.206706152329346
9132 9133 274.41777203714724
9133 14211 26.13262397262572
9134 9135 121.01440255568637
9135 11101 95.50419865467323
9136 9137 78.8626470616513
9136 16219 43.903195331968575
9137 9138 51.33143413864635
9137 15915 87.34052020187292
9137 16222 71.00054093524449
9139 17015 200.21320771744584
9139 18167 164.96026925498006
9139 19776 93.20501966729842
9140 18167 43.12147880269385
9140 18170 47.194344228921864
9141 14754 201.14928475021992
9141 18170 184.9851141456358
9143 16018 18.220233065105813
9143 17939 33.686763852743276
9144 12781 115.15550333597832
9145 9146 131.52181635964936
9145 12770 93.00362325741419
9146 12771 83.6526141258351
9147 9148 82.50411213807544
9147 11879 80.42751414605243
9147 12778 83.04096347412089
9148 9149 84.17240809073037
9148 11880 79.03986138846415
9148 12272 83.4987780502126
9149 11885 84.58578154186137
9149 12763 82.25125394979978
9150 12764 82.48496489503246
9150 13985 161.91257047174952
9151 11857 81.94327455353735
9151 12765 81.84104346711338
9152 11858 81.85091516777777
9152 12342 82.38716633895562
9153 9154 104.74027750399787
9153 11868 82.8075961302086
9153 12766 81.76281082715786
9153 18962 42.7964050456706
9154 11869 83.38340613075127
9154 12379 81.98502543624909
9154 18961 38.55926932196731
9155 12767 82.39407935674154
9155 17817 82.45177231178673
9155 18961 65.60924650771997
9156 9157 45.79858277191545
9156 11839 101.02663092779653
9157 9158 75.68232649905171
9157 16707 106.35818097459155
9158 13483 105.47402525567969
9159 9160 201.4347933136417
9159 10768 100.99414820909766
9159 10769 100.63582843360672
9160 9161 200.22672653944682
9160 11870 101.11161414364204
9160 14267 100.43713741701694
9161 9162 201.4967809090594
9161 11871 101.37135110426476
9161 16149 100.44088118376565
9162 9163 195.8269159659976
9162 11872 100.79165025585898
9162 16150 100.45965510520438
9163 12773 34.06500706972995
9163 18462 24.461949949011572
9164 11860 78.24931629318479
9164 12430 66.4207980468742
9164 18462 195.8627109485166
9165 11861 77.55799196776172
9165 12774 75.90395710229647
9166 9167 80.41828325361607
9166 11862 77.6115158192423
9166 12550 58.61789157872919
9167 14602 132.46932852164792
9167 15926 200.2801759001683
9168 9169 40.67223565052503
9168 14110 137.0577237846522
9169 14120 202.82814441716278
9170 16350 191.09824447460304
9171 9172 35.26976583756206
9171 13818 47.03280095161615
9172 13818 30.498617426731368
9172 16644 105.25032814132813
9173 9186 44.49025833375087
9174 12423 82.14049237060163
9175 9176 65.38324647594322
9175 12809 231.82145982627938
9176 9177 83.28553948282435
9176 12809 225.44393029143458
9176 15420 126.94351035994505
9177 9178 85.28957972082497
9177 11052 193.3483665713104
9177 17906 203.57436937702766
9178 9179 80.0987495298301
9178 16702 176.43404301854406
9179 11281 150.70743892472987
9179 19237 12.62375903409394
9180 9181 75.40162330387002
9180 9968 52.83908445354345
9181 9182 19.781872648388337
9181 13450 82.39865811540818
9182 12805 183.52099059284305
9182 13451 82.1636350851702
9183 12793 58.67199633638042
9183 15398 279.527743460255
9184 9185 150.5478217688377
9184 13677 78.21847210661724
9185 9186 54.265716697562624
9185 13848 153.95190359913667
9187 19237 160.08856828924516
9188 9189 14.898759375532187
9188 9190 90.50616499535957
9188 9193 48.145722835444694
9190 9191 16.224593939929033
9190 9192 74.87566672309174
9192 12802 92.70139602057851
9192 16804 65.88712125674132
9193 12803 147.9226257661209
9194 9195 102.2134346580005
9194 9849 429.2639467950332
9194 14529 367.4783985303949
9196 16160 12.088754978875322
9197 9198 105.43045575964638
9197 14702 14.373813517744914
9197 16162 202.12854543498239
9197 17104 96.8701788392425
9198 9199 9.536682903643165
9198 17104 18.682816685908946
9200 9201 42.79615901345703
9200 9202 95.12396981607075
9201 10156 489.89038763476293
9201 14097 189.62624574490204
9203 18326 812.1279089915913
9204 17009 45.1511956970477
9204 17010 50.414830649639654
9204 17439 42.297422143806266
9205 9206 78.55301578424819
9205 16549 108.56035250338044
9206 9207 104.98571489041886
9206 16316 111.71122890303967
9208 9209 114.09735210715864
9208 16129 80.06073075766606
9209 12229 79.27569064298491
9210 9211 156.05353271517222
9210 14346 78.4528322230499
9211 9213 36.61255035233007
9211 12517 63.20829251339288
9212 13214 79.62476555749431
9213 9214 103.02252900594016
9213 12516 42.53091326966407
9214 15237 99.17194533430012
9215 9216 97.54419416548035
9215 15513 79.0232372879891
9215 18812 70.83367530585244
9216 15888 78.79971406269377
9217 9218 147.409499475056
9217 10274 97.33443262806558
9218 9219 140.10008888122286
9218 16230 82.94064505044801
9219 9220 140.99769254816002
9219 16231 83.1039647734909
9220 9221 139.75251339412512
9220 12602 83.24297716135727
9221 15943 83.6247225292228
9222 19211 44.30341132262107
9223 9224 81.17242587006223
9223 16232 79.27010669007835
9224 9225 89.57275891116777
9224 13691 78.67966380872349
9225 10506 78.91848577337714
9226 9227 155.1369597117743
9226 10630 78.1239531249541
9226 19211 154.22762102775047
9227 11654 83.33092967507018
9228 9229 40.66485302449683
9228 10627 49.86981397795168
9229 9230 74.8414964276632
9230 10628 89.54559418093115
9231 9873 89.69090464494987
9231 18831 34.009334972456095
9232 13688 75.85923084509173
9232 19986 90.59266817366381
9233 13926 246.21390622109882
9234 9235 166.65762034054273
9234 9239 52.92832225965984
9236 9237 29.83694497999914
9236 12664 159.8767685193343
9236 16378 73.90253734668413
9237 16791 49.38801578406752
9238 9239 79.27374076383146
9240 17236 117.99584158270439
9241 17236 20.289963606276874
9241 17237 615.2569903437624
9241 19057 616.694196842824
9241 19071 95.22351722166616
9242 9243 34.15069715711979
9243 9244 83.91030345257798
9243 19154 217.17480989242344
9244 9245 73.45000601573989
9244 13696 269.9044290210776
9246 9247 76.1839755142565
9247 9248 42.447623104040574
9248 9249 33.96188009345116
9248 11166 72.13843845819582
9249 9250 64.80328119732395
9250 14381 2080.770438217819
9250 17975 35.58585850052697
9251 9252 174.55689693880177
9251 15034 78.15545843690985
9251 17975 544.0022644939326
9252 9319 144.59264933500597
9253 9254 88.9497933099637
9255 9256 73.85516781926025
9255 10271 83.86779486817174
9256 18138 83.67491065616652
9256 19045 59.646946417797395
9257 9885 85.74436278589667
9257 19045 84.84920537692787
9258 14841 66.46264464287927
9258 16126 95.35502948165168
9259 9260 34.62651212649483
9259 14702 7.589865273621732
9259 16161 272.71948020492124
9264 11457 72.87566467749035
9264 14652 163.22716453640874
9265 9266 79.07563510041672
9265 11458 137.57267743579374
9265 13017 139.78490940290465
9266 9834 140.9074296216107
9266 9835 139.94732617553453
9267 11459 144.16251645821995
9267 17481 119.30287203547631
9268 9269 156.5571156501239
9268 13376 79.51555302558414
9268 15179 79.59112745659498
9269 11210 78.36260887027674
9269 11211 79.66508957919231
9270 9271 78.90445095814442
9270 9415 79.77193213845987
9270 13266 78.98198288239922
9270 13267 78.78698238949733
9271 9272 79.09444435450168
9271 12403 79.38014320255584
9271 12404 78.88145377491654
9272 11901 78.6639029814612
9272 18672 72.69677214581704
9273 9274 79.03846490315932
9273 13131 79.10488660868273
9273 13132 79.83874497455409
9274 9275 79.52781221991262
9274 15972 79.10103655631083
9274 16437 79.09311209795916
9275 13411 79.10632545015791
9275 13412 79.628338649389
9276 9277 78.64928687311885
9276 13743 79.1715169451032
9276 13744 236.66524760685735
9277 11611 78.83064570055177
9277 19810 75.11330314666729
9278 15394 79.71483523753453
9279 9280 155.89383976493176
9279 15458 63.847614283981606
9279 19184 15.909697862303357
9280 9281 108.43562584568969
9280 16439 56.020143678856684
9281 9282 80.77787525104138
9281 19182 19.690439871330227
9281 19326 54.07590806288265
9282 14357 182.32304927984742
9283 17095 14.651060551809428
9283 19183 136.13120073283557
9283 20029 7.519430878256269
9284 9285 76.35382600076149
9284 14359 97.27544123729083
9284 15969 71.91295534470562
9285 14360 96.47963089548963
9285 15970 75.38273110054111
9285 18960 90.88027780413265
9286 9287 107.36143023619486
9286 11863 82.81463571701175
9286 11864 78.44280307295298
9286 18960 92.57053965853682
9287 9288 185.2832314520246
9287 14363 78.93502765532556
9287 15127 77.70192392316653
9288 9289 201.97744163973
9288 14365 79.26388328881724
9288 15923 77.33946017006706
9289 9290 200.22017918995988
9289 13491 79.30633638194968
9289 13492 77.43049486344391
9290 14369 78.53393027133166
9290 14469 77.53348672843428
9290 19649 201.9025837771722
9291 11257 154.2574350689471
9292 11258 154.53409021598716
9292 14374 62.41127415761873
9292 17936 63.08137648301006
9293 9294 12.993543303142543
9293 13004 140.43606598364337
9293 14374 95.9917308481472
9293 17936 24.35411992817516
9294 17973 13.673356358293226
9295 11260 154.85353757842347
9295 13951 154.46315553116892
9296 9297 79.12691980275974
9296 11261 153.8508662800057
9296 12291 155.60741869135325
9297 9298 79.14881457787993
9297 11229 155.8353046098784
9297 11230 154.30518409238556
9298 9299 79.74911605277563
9298 11262 153.91005210545018
9298 12734 154.22173109624185
9299 11241 154.39094149170182
9299 11242 154.59100449732972
9300 18426 360.3804215630987
9301 15967 79.03153193505632
9301 16175 60.109281956687674
9301 19881 134.52742384623627
9302 9303 79.52711491300569
9302 11512 78.01179921192501
9302 11513 79.1191742950475
9302 19882 63.42664531517999
9303 9304 80.0498055189692
9303 10286 79.10401411980232
9303 10287 79.36154071984008
9304 9305 78.79383886485235
9304 10286 158.29092240430984
9304 14305 79.2451551276293
9305 15520 124.94006184628947
9305 15968 78.65389228475425
9306 14274 380.404484108679
9306 17294 221.0341343606738
9307 9308 144.7109321876692
9307 11243 211.53897313040903
9307 17294 382.86545322862173
9308 17814 55.04627362811294
9308 18740 52.356630867482615
9309 17292 251.14910483802333
9309 17814 121.79955649395757
9309 18741 17.922741947833416
9310 11005 111.06824277028495
9310 15408 222.49650679125452
9310 17292 289.98202302840986
9311 9312 161.27699948987473
9311 12742 73.19042170636875
9311 13851 73.12212686877581
9312 9313 200.61265870243773
9312 12743 73.11082743073607
9312 13084 73.4045285903402
9313 9314 78.76046896046729
9313 12744 73.17234853146682
9313 13852 72.83382339985877
9314 9315 72.44562603269412
9314 13460 148.71840953099743
9315 9316 73.300557691658
9315 13460 113.43969885503219
9316 13460 188.81548380932315
9316 13852 289.30768380954225
9317 9318 68.08080056638549
9317 14441 82.54060220648603
9318 10559 76.1688375477151
9319 15034 278.24155697011736
9319 19213 67.84165414735993
9320 20006 270.2620171253408
9322 10578 140.65327272902604
9322 12946 165.63213666582388
9323 16535 309.83038997168103
9324 15688 76.54320055273342
9325 12945 153.07745500007434
9325 14575 118.52847373504795
9327 13973 76.0511736833263
9329 10910 55.9527804646203
9331 9332 370.8262426376791
9332 17580 82.06003529301188
9334 15016 78.6996475353838
9335 13858 79.97671620483167
9336 9337 84.52087611794254
9336 13296 78.76010819884381
9337 16242 92.06682021005105
9338 15815 83.88618031922041
9339 15849 110.28281616339136
9339 15850 67.69020954830694
9340 15863 96.11708727077492
9340 19155 365.46789340380053
9341 15537 56.062208385656895
9341 15538 91.53872804083865
9341 18391 323.4155148601676
9343 9344 368.7885619728501
9343 10896 133.35303791945773
9343 13229 229.67250535256042
9344 13119 64.5275804571344
9346 9347 99.03410937652835
9346 12147 74.5252325749487
9346 12633 76.13690369772844
9347 11535 64.8071651695812
9347 12148 73.86761844297472
9348 9349 81.66231190632618
9348 9356 16.17431344769719
9348 13139 60.046176400683
9349 9350 80.22743644912237
9349 15065 79.57184431275135
9349 16026 79.98556814277416
9350 13431 79.29988899937933
9351 9352 79.1419334589013
9351 14490 79.37299057210747
9351 14491 78.64837523221743
9352 13747 78.96116931461681
9352 13748 79.05464536614288
9352 19806 75.32426093848638
9353 9354 281.5206847213589
9353 11678 397.6908910627478
9353 14473 60.884501619836485
9354 16020 89.65929413149928
9355 11905 77.2802624503345
9355 11906 79.32777644413254
9355 12408 152.45966607031082
9356 13138 62.59367829751064
9358 9359 142.36780314576865
9358 15070 77.08206828530324
9358 16023 76.22516506452298
9359 9360 198.80609545214304
9359 12927 77.49656061471958
9359 12928 77.08368370213586
9360 9361 152.90615272895758
9360 10359 77.49414981600565
9360 10360 75.95157824894376
9361 15071 76.76811455936898
9361 16025 77.68698863345647
9362 15067 75.57009607339786
9362 16021 78.96757602495163
9363 10293 78.80004146270286
9363 10294 78.75548696099042
9364 13655 69.40111150191404
9364 17673 80.48229187021985
9365 17566 159.09862703261592
9365 18258 10.33688468248639
9366 9367 72.95250770119506
9366 16370 135.3828883909461
9366 18258 62.69589313830179
9367 9368 126.86790536658381
9367 14045 52.34272873941666
9369 9370 41.865785936261275
9369 10631 192.85860695794258
9370 10258 200.3163105710348
9370 17740 80.21798493952397
9371 10263 202.1460518830104
9371 14808 201.14571648633537
9371 17733 79.11638125699483
9371 17736 83.46862180365324
9372 9373 207.38558707245656
9374 12583 199.79613176540744
9375 17587 152.87367667972586
9376 17585 31.280632893715797
9376 17587 58.0114142959761
9376 19672 81.59590009413508
9377 19671 6.996877907066449
9377 19672 29.019226629578537
9377 19673 28.19354463379134
9378 12525 84.01616567185349
9378 19667 51.894829614386055
9378 19673 51.76133372892904
9379 10936 163.86114201695196
9379 19665 7.370397031043408
9379 19666 26.985959998155003
9379 19667 28.65260656563813
9380 9622 167.31248689569108
9380 19666 52.428492212707994
9380 19669 52.15082897576075
9381 9382 79.58254657293182
9381 10937 167.15354268892244
9381 19670 57.96621715613216
9382 9383 79.69429579224654
9382 10938 167.1456966258459
9383 10939 167.1706341727677
9383 17583 167.31898213729662
9384 10034 61.66213380068056
9384 10940 159.77037434087592
9384 19342 701.6787750318256
9385 9386 82.26783140960661
9385 11204 171.5403903383983
9385 19917 88.93595222143377
9386 11202 170.3229505567275
9386 11203 158.14673878898057
9387 9388 165.22476205515125
9387 11207 57.1929721048746
9387 14844 90.33733088256002
9388 11361 27.009479683543976
9388 11362 79.36771785590285
9389 9390 75.83506725829152
9389 9414 27.182788289764492
9389 10182 50.53571592935071
9390 9391 76.30240037835351
9390 10422 132.04341630646286
9390 12149 133.2346862311757
9391 9392 76.51360477417404
9391 10423 132.14286110065993
9391 14980 132.71897242548175
9392 9393 76.2131298625377
9392 10424 132.12630083394532
9392 16050 133.36346016259154
9393 10425 132.1319346692298
9393 15442 132.7389724106044
9394 9395 75.81316769785728
9394 10426 133.1716277722134
9394 16051 132.99262212047492
9395 9396 97.74078178169546
9395 10427 133.59076566803276
9395 10547 132.68154166551807
9396 10429 133.35474086365932
9396 15933 134.04824045978773
9397 9409 37.745058129246964
9397 9649 44.722274018927884
9398 9399 138.9635846648986
9398 15986 76.09755089894142
9398 15987 75.71585006695369
9399 13868 76.1347005353634
9399 13869 75.51384895566933
9400 9410 24.009849293577233
9400 16044 54.769678221915015
9401 9402 170.4122966270408
9401 15902 81.80152717940908
9401 15903 81.45881443821396
9402 12020 82.88262628356239
9402 12021 81.77618651315105
9402 19381 173.74293062489352
9403 9404 170.42158883595454
9403 15481 81.66278095654756
9403 15482 82.72455167981997
9403 19381 174.13151314524163
9404 11335 81.76215433141336
9404 11336 82.32972352505448
9405 9406 144.50083449398068
9405 16048 82.67376270356064
9405 16472 81.23358157187332
9405 19518 136.56511476437865
9406 9407 120.92541192095345
9406 10489 81.628597225169
9406 10490 82.2047629661829
9407 9408 138.882252533423
9407 16473 81.2989519812569
9408 15729 82.02315288188933
9408 15730 81.20454301804044
9409 9648 38.229740736770324
9410 9411 201.64671384811967
9410 16306 51.83444683830662
9411 9412 194.3519897400978
9411 16045 79.08900177617978
9411 16474 79.16478403179
9412 9413 12.577083566450382
9412 16046 78.83966822890727
9412 16475 78.9540079725017
9413 9414 228.25871298942226
9413 16047 77.7611210881802
9413 16476 77.4121075583995
9414 10183 77.10354799724873
9415 9416 78.91515091859364
9415 14866 78.87105152028737
9415 14867 79.04435057132102
9416 10800 18.363456977722752
9416 10801 79.52492688286544
9417 14728 84.24396304080375
9417 14729 78.59063663462257
9417 18589 169.88008507767617
9418 9419 80.56166996269711
9418 11373 138.62943348204968
9418 16471 156.08678017350283
9419 9420 78.13757786790582
9419 11374 138.84934997002946
9419 16471 78.89893727214447
9420 11375 138.73095865358172
9420 16361 79.38381781120565
9420 19497 79.80551804900333
9421 9422 78.34880668520563
9421 11110 80.22540447095992
9421 11111 138.898991482626
9421 19497 81.03980701138933
9422 11376 138.70472885291238
9422 17616 110.36224976643399
9422 19361 80.66930518802533
9423 17616 142.01371620191964
9424 9425 234.57075569525242
9424 9579 177.3783260853386
9424 17409 45.29078956359222
9425 9580 281.216516948207
9425 16063 332.2995660293032
9426 14146 41.646079933583145
9427 18221 77.13330701035801
9428 9431 46.33900503497314
9428 17447 66.66311758829548
9428 18221 145.4351740484052
9429 9432 132.88172702014793
9429 16671 149.93377944258705
9429 18221 277.8324314155675
9430 9431 411.9699051731691
9430 13643 47.614069044746664
9432 9433 74.06707848315226
9432 11470 94.85890332688723
9433 9434 79.34065685881458
9433 11469 74.05411191272796
9434 13056 219.07291879968108
9435 10216 256.504437040307
9435 11196 173.82053139750147
9436 9437 19.849217900355235
9436 17207 110.86847950157073
9437 9438 26.34962987803124
9437 17205 20.434256078842015
9438 9439 45.56415401916765
9438 17205 23.254994605304443
9439 9440 48.72238522394689
9439 17428 71.85559925337203
9440 14637 149.2839992164877
9440 17428 53.93540211990076
9440 18100 774.7726018107115
9441 18100 377.3331713900332
9441 19342 509.419895136641
9442 9443 115.85566687350175
9443 9444 147.66152835566993
9443 15711 128.93538735755905
9445 9730 78.81535654348484
9445 13269 79.31677275942585
9445 17489 78.43724412546133
9445 19644 79.7782624050428
9446 11899 79.06959936869781
9446 19644 79.30615908814963
9447 9448 78.78186794649399
9447 13128 79.61404529084525
9447 13129 78.8931731565065
9448 9449 79.41728487763984
9448 16084 78.6138327243593
9448 16494 79.82929064714116
9449 13408 79.66684353842595
9449 13409 79.08245686939689
9450 9451 79.10435247380764
9450 13741 79.88130962216657
9450 13742 78.40064867725535
9451 11608 80.07711008579423
9451 11609 78.70551603193366
9452 15562 80.2959254490987
9452 17983 47.958230294279694
9453 16085 79.35067469381991
9453 16118 79.19471882657427
9454 9455 79.08228996524927
9454 13639 80.41154523709746
9454 13640 78.87668285662136
9455 9456 79.35170840956428
9455 12068 80.10950768629442
9455 12069 78.90167523068425
9456 9457 79.78388880396932
9456 16086 79.24814267022111
9456 16495 79.58800066327542
9457 12898 79.37969859197008
9458 9563 80.06629020470073
9458 14456 79.14847735071763
9458 19829 167.7669924695205
9459 11433 182.99723392498038
9459 11434 155.90237127077887
9460 11035 156.7828572945903
9461 11435 155.75802083917992
9462 9463 79.54945851975921
9462 11436 156.3203612394763
9463 11437 155.7829546790981
9464 11438 154.73607871435073
9465 9466 80.06129966491653
9465 11439 155.31744984329248
9466 9467 78.51509252129154
9466 11228 155.42625126758287
9467 9468 79.19317714318936
9467 11440 155.25080752532924
9468 11240 155.48676333039484
9470 9471 100.29823863961057
9470 15461 78.57088320786363
9470 15462 79.22946793616853
9471 9472 79.10943971249607
9471 12932 79.33694915824147
9471 12933 78.86086517597838
9472 16083 79.23975374363117
9473 9474 171.00975891001764
9473 14351 45.48016528919233
9473 15519 81.05493792935992
9474 9475 79.52675481415214
9474 13025 77.83757978578845
9474 20078 45.17550866269593
9476 17471 28.54380693424131
9476 17472 65.13010796417691
9476 18591 13.743747704062688
9477 9478 68.85995757554781
9478 13125 281.1591375767453
9478 13396 80.65060622537692
9479 9480 71.17412472779634
9479 11188 83.3976807918702
9479 11195 39.96116060496382
9480 9481 79.10787659893887
9480 13414 267.0103454880378
9481 9482 37.36172740491571
9481 10135 250.10448238414634
9483 9484 32.9577331143625
9483 15646 72.96776334944181
9483 19583 79.91756506543766
9485 9486 25.30802527290752
9485 14696 38.79338213165598
9486 9487 324.1191754866233
9486 14340 59.152351459097424
9487 9488 1011.1498947807951
9487 18871 286.272796202316
9488 10949 108.59570267241645
9489 9490 38.77725320052226
9489 15445 462.32394327567016
9491 17797 13.712466835459638
9492 9493 50.07636359922226
9492 15166 85.19337596611135
9492 16103 95.15262955314341
9493 15167 79.08010281423934
9493 15734 79.47666428874639
9494 9657 78.93749356906591
9494 9658 79.30969242549259
9495 9496 138.50576308086346
9495 15168 78.9625709855807
9495 15990 78.77777361321475
9496 13874 78.87410329193713
9496 13875 79.1643104222425
9497 9514 22.444492053963298
9497 16105 60.80155440161208
9498 9499 77.61420778864856
9498 15157 76.11503189506249
9498 16640 67.33671936513811
9499 15158 75.98253085609032
9499 19339 96.68541200151957
9499 19504 78.19244920959589
9500 9501 108.87115404598569
9500 15159 75.78481590527423
9500 19504 140.7508083548741
9500 19506 112.2668629075245
9501 9502 172.36358448877675
9501 15160 75.73166767238133
9501 19489 120.9032632447868
9502 9503 170.71789038681734
9502 15161 76.31046758493403
9502 15905 111.80207776455073
9503 12024 75.94252386024824
9503 12025 111.51879409333723
9503 18242 172.76469622748544
9504 9505 171.87441046085894
9504 15162 79.03778940900327
9504 15486 79.06119932088754
9504 18243 174.47129671707532
9505 11343 79.30851585961233
9505 11344 78.76403176768362
9505 19508 171.0404827184523
9506 9507 78.56771604508134
9507 12240 263.85494270818174
9508 9509 53.819830090621565
9509 9510 78.83012161686591
9509 15163 79.3209410050797
9509 16109 78.89020092799053
9510 9511 85.45196613825199
9510 15164 80.15603440254039
9510 16110 79.05498102820623
9511 13729 73.02896813762204
9511 14734 93.61367400245133
9511 14735 67.37773753193466
9512 9513 81.2743685046341
9512 17882 60.47691983516715
9513 12642 93.39937087262625
9514 9515 193.6017629735085
9514 15169 56.83141824540068
9515 9516 204.13193732833074
9515 15153 83.12659836326142
9515 16106 83.11971195089481
9516 9517 12.59840539116543
9516 15154 82.89037231626232
9516 16107 83.3906567154356
9517 9518 204.2659401029053
9517 15155 82.75786754725053
9517 16108 83.64622714347708
9518 9519 101.1875293171674
9518 10190 83.49522029716279
9518 10191 83.44858638781464
9519 9520 152.11500953838367
9519 12152 83.66450134738999
9520 15156 83.55355697876291
9521 9522 77.65042488177477
9521 16809 89.75401239080045
9522 9523 74.48989533939691
9522 10556 89.90866217450464
9523 15544 461.026816074189
9525 9526 118.02885135660384
9525 10956 120.52667003157566
9529 9530 98.58841632083175
9529 11493 48.33651017901868
9529 16959 99.58855280171004
9530 9531 201.27968033287016
9530 16654 76.72708098111963
9531 11783 78.89902817658513
9531 11784 94.97001888898244
9532 9533 130.50667252153357
9532 10863 46.66616208417742
9532 10864 135.92914798776994
9533 10864 113.95915947366107
9533 16878 311.96272949482307
9534 11012 240.64071688284062
9534 11278 126.81846563109485
9535 9536 43.26426614709821
9537 15497 53.73783118076774
9537 16542 234.08726545346667
9538 14556 81.70980762629348
9538 14557 22.917941736434173
9538 16197 102.26699761725973
9539 9540 49.326694042127464
9540 13205 150.76682498205875
9540 15222 36.109906555669404
9541 9542 81.02291549974414
9541 12231 107.737736092529
9542 13969 167.76245224637685
9543 9544 75.95572410648064
9543 13970 168.15146501222873
9544 9545 75.92606920478681
9544 13971 166.92946392696393
9545 13972 167.1760468045058
9546 9547 84.26203778086132
9547 16990 82.76578276881807
9547 17219 58.38877013894648
9548 9549 64.33189324617025
9548 17220 59.69050357013492
9549 9550 77.67771204213169
9550 16987 61.1163974551285
9551 9552 31.916304884609687
9552 13957 54.35729083622186
9552 19107 48.50838216683919
9553 17962 85.51702846548496
9554 9555 30.405955068149286
9554 17961 63.42895257294074
9555 9556 45.55050356375648
9555 16704 86.8112593021754
9556 9557 77.07724008828806
9556 11092 67.24375269549343
9557 17960 37.884950067784985
9558 17959 9.408985939515969
9558 17960 32.21925931095481
9559 9560 98.69321519067417
9560 17985 51.88689270727774
9560 19297 80.5944859665294
9561 10981 81.07244052854787
9561 17277 62.33866467601341
9561 18016 85.57944155020681
9562 10323 308.0442422022826
9562 14836 60.21474703707901
9562 18016 71.55907121835224
9562 19172 88.71534790731208
9562 19205 86.37309492525736
9564 9565 77.94729969311537
9564 14420 79.96141144252681
9564 17981 19.544459236914477
9565 9566 84.85757348024444
9565 16669 79.97675205858125
9566 9567 82.6982665932352
9566 11291 79.97173480292541
9567 15591 79.973535445962
9568 9569 83.51613789261874
9568 15260 80.04222434367223
9569 14693 79.97182845264632
9570 10283 64.9797822285647
9570 17033 11.734590555392836
9571 9572 71.50358786467368
9571 13902 85.24031076317681
9573 9574 36.23823940593424
9574 14606 24.21153505098294
9574 14607 161.9369060321852
9575 9576 118.16963185392319
9576 10446 77.16379389276761
9577 9645 80.57013594915152
9577 9646 64.40732057999993
9578 10445 77.04733726293405
9578 15985 77.00806041945214
9579 9580 327.35799077940493
9579 11559 108.86430814994227
9580 9581 129.97761857953083
9580 18186 161.86117341997328
9582 9583 117.28972738779781
9582 17613 92.70902282508675
9582 17890 58.40563237415289
9583 18582 114.00882630305476
9584 9585 78.95826844696185
9585 9586 78.56866227337144
9586 18952 73.08927045310034
9587 13169 138.79299733614522
9588 13170 137.82357694937548
9589 13172 138.9996614107312
9590 9591 196.08554491041002
9590 15044 74.39007064214447
9591 14555 74.6565543836084
9591 14587 77.38515802058166
9594 9595 102.54915882098422
9594 10343 248.70081293252926
9595 13176 135.67242095024653
9595 14965 100.05424527421542
9596 9597 76.11566067804037
9596 11650 140.1329939138621
9597 13676 140.10557692124368
9597 16675 196.1679948500808
9598 11704 34.93762064348138
9598 11705 131.09947663235633
9599 19208 283.0444610139577
9600 9601 115.28924635177266
9600 12960 77.65097590198765
9601 9602 123.41402750170957
9601 12961 78.43598383276768
9602 18834 10.528824375331915
9603 12962 79.11840486657594
9604 9605 83.5236189347764
9604 12963 79.26085066028429
9604 15350 78.60890450011091
9605 10019 78.78394965577144
9605 10020 79.22807457605917
9606 12964 79.83969532365552
9606 15379 78.77184789239504
9606 16902 193.1143398407187
9606 17734 201.5747307473483
9607 9608 200.30249485298788
9607 10261 79.50876802528907
9607 10262 79.06792363259834
9607 17734 202.11273978599286
9608 9609 119.56822614904738
9608 12200 79.58727609017055
9608 12201 79.22691480022542
9610 12965 79.51716588563508
9610 16232 79.03956531324397
9611 15845 76.30227641484453
9612 9613 96.55135437841162
9612 9628 20.426916422142423
9612 14096 170.34214098245354
9613 9614 18.592696630959253
9613 13775 170.61782254488404
9615 9616 82.47348741677203
9615 11225 171.40998258918574
9616 9617 84.41190891147208
9616 15784 171.49184240070707
9617 9618 85.10461727435184
9617 15518 171.27393637874403
9618 12966 171.02868496910372
9619 9620 67.77981393655448
9619 9817 201.96628324705648
9619 10266 170.47495937890656
9622 10936 79.41555326560551
9623 9624 32.98064209726543
9623 12207 46.19054858521942
9624 9625 187.5991047719234
9625 9626 186.37930807356435
9625 10350 80.07215700843533
9626 9627 209.6221438894871
9626 15842 79.3607021781842
9627 15843 80.03956459249815
9628 12522 138.37362201163606
9629 9884 221.2407118926113
9632 12201 131.97375545912243
9632 18374 83.98613911476482
9633 10354 79.36480746516354
9633 18374 12.27821520108003
9633 19697 72.59557401627146
9634 9635 195.7124434285322
9634 11060 58.974347740677864
9635 16499 60.68056175756408
9637 9638 75.88407586028298
9638 9639 75.26885892708755
9640 9641 73.91418476042321
9641 9642 75.88433050623429
9642 9643 75.83703765651009
9643 9644 76.06374531676242
9644 9645 75.970613208801
9646 9647 44.405195306280646
9646 18422 85.65192204346994
9647 9648 43.205356968068166
9649 9650 31.230284181915405
9650 9651 75.93916019138598
9651 9652 76.19698098160532
9652 9653 75.79111692039382
9653 9654 75.98515299788109
9654 9655 75.87647022951597
9654 19574 102.80193640941896
9655 9656 76.10215393497245
9659 9660 80.64220209419048
9660 9661 82.12819916919163
9662 9664 14.811479852118433
9664 9665 79.02743663576997
9668 9669 78.54113446023865
9669 9670 79.24750572048093
9670 14276 100.72127927687652
9671 9672 165.1272148200362
9672 9673 33.12344443854957
9673 9674 134.86288091145042
9675 9676 126.07487239211784
9677 9678 78.70960412033938
9678 9679 80.0807001914847
9679 9680 157.0222237404917
9679 17352 176.32005533676315
9680 9681 79.27022421407193
9682 9683 13.765845298499304
9683 17192 20.103760639324264
9684 16035 358.42757002219014
9685 9686 78.6239433659433
9686 9687 81.76220433691961
9686 10152 422.5356751517824
9687 10680 426.1543032218882
9688 9689 76.22622288040753
9693 14278 99.33235230273172
9693 19639 169.88386545925812
9694 9695 68.32328805449475
9694 11959 59.353536094754745
9694 14275 151.44901982571108
9695 9696 98.42570245956314
9695 16722 80.70651679098606
9696 18320 169.55094169541013
9697 9698 142.92187076078346
9697 11686 92.01790059924733
9697 11687 82.00660515180073
9699 13860 61.874078624421514
9699 13865 153.84965504241814
9699 14383 64.51494331781763
9701 9702 79.1166380222507
9701 11106 79.19722189377602
9701 11107 78.99476111754461
9701 19493 80.66989164467387
9702 9703 109.24923233677626
9702 16138 79.36919841007241
9702 16526 79.67194438637505
9703 9704 171.17371363682884
9703 15272 79.21829125713872
9703 15273 79.58435414170384
9704 9705 170.93425785036854
9704 15899 77.47137259022153
9704 15900 80.31514457172831
9705 9706 173.57706463325889
9705 12017 79.90411252963833
9705 12018 77.6324041827184
9706 9707 173.95821969270273
9706 14936 79.07961079528748
9706 14937 79.58543408726766
9707 9708 171.04234566362015
9707 15478 78.92140816801573
9707 15479 79.17061720272784
9708 11331 79.1526654265285
9708 11332 78.81145389560243
9708 19612 338.5910771889994
9709 9710 64.11600060324857
9709 16134 78.138944627505
9709 16303 78.41912423899326
9710 9711 139.9197894031137
9710 15552 78.86992917486644
9710 15553 78.66128844114053
9711 9712 193.35012444324178
9711 16135 78.67377804069213
9711 16531 79.10169068368346
9712 9713 14.819726292727939
9712 16136 78.4460513875971
9712 16532 79.17774105890973
9713 16137 77.62338749998
9713 16533 77.62890712116894
9713 17597 211.2277675997192
9714 15357 35.53610747874684
9714 17597 122.15477562085752
9715 9716 78.06815727896544
9715 16030 80.44027688554395
9715 16031 71.33381793604966
9716 9717 40.92021780140052
9716 11450 103.50296973301961
9716 18756 110.89241797135425
9717 18756 110.12716522795176
9718 9719 72.56699721540863
9718 11558 137.58763630825646
9718 19965 55.94410598100134
9719 9720 29.423113177258536
9719 19143 94.99547777126982
9720 11559 145.5290675917105
9720 12242 581.0540571841349
9721 9722 144.8967767226467
9721 16139 76.00031559510246
9721 16528 75.774781319905
9721 19570 137.3049369016345
9722 9723 140.76285342348416
9722 10485 76.40347595992863
9722 10486 75.8076220442288
9723 9724 136.78228612050063
9723 16140 75.5764096637049
9723 16529 76.0824835425219
9724 15747 75.61378750672208
9724 15748 75.51246408157569
9725 9726 97.45782036244418
9725 10716 75.99663826220788
9726 9727 101.57515005308886
9726 15983 75.65313469947618
9726 15984 76.14349754370495
9727 9728 67.42031415605622
9727 16141 75.66739026038482
9727 16530 75.41051201682718
9728 11572 151.53721325231808
9728 12627 132.90406857581257
9729 12610 156.55727020465454
9729 16933 108.17944519100925
9730 9731 79.33807845751528
9730 14864 79.05887095738426
9730 14865 78.31886696790326
9731 10793 78.75397780142114
9731 10794 78.94009554824673
9732 9733 88.4680444251334
9732 16133 79.18827603361576
9732 16463 79.01678485248401
9733 14724 79.27973121374829
9733 14725 79.10141522660297
9734 13289 146.89480860494004
9735 9736 72.15633271694728
9735 11730 123.6508639684984
9736 17887 44.276418472228514
9736 18066 46.3976329066805
9737 9738 92.41946799329052
9737 11057 89.33196643516165
9738 9739 218.25384087691373
9738 11727 75.61681315316157
9739 9740 98.11300170854402
9739 16168 193.449317845367
9740 13297 351.8709528088224
9741 9742 128.26470401467282
9741 13297 258.85144100039855
9742 14375 29.820736041513157
9743 11855 31.372217258220513
9743 11856 317.1106548258599
9744 17627 148.0706417354709
9744 17631 147.6368435088502
9745 9746 817.8212150680572
9745 18802 104.56955054527494
9746 15679 713.2876774111659
9746 16820 312.720519371108
9747 9753 33.77165617848389
9747 13829 79.30820514078394
9748 9749 154.0358332317829
9748 16617 78.50967309850662
9749 11217 79.02988341278606
9750 11828 51.263962010604814
9750 16131 83.09913645367294
9751 9752 56.75277534439539
9751 13018 108.7015010753408
9752 9838 108.59747403419901
9752 9839 79.15021451171927
9754 14207 160.00839040855675
9754 14819 79.44940331462584
9755 9756 136.67117589498622
9755 15733 28.05453691212063
9755 15765 109.47159980300428
9756 9757 175.47263611901764
9756 15165 78.25138761885412
9756 15166 88.01029079463869
9757 15766 79.01231680403451
9757 16103 79.83632873215836
9758 15141 91.17004099777213
9758 15142 80.82127409746948
9759 11937 40.62052231687983
9759 19645 84.86173301862318
9760 9761 227.85479396897264
9760 18949 30.9130159734337
9761 15329 342.21709948851856
9763 19617 86.87468400633273
9765 14915 158.10448475088563
9765 19286 80.54340869414686
9765 19287 79.50845085086405
9765 19450 239.25941506395768
9766 9767 79.58645717115621
9766 14717 158.49156567642206
9766 19284 158.772089293666
9766 19285 79.85343780126065
9767 13182 158.11207102197255
9767 19416 78.89687573894396
9767 19417 158.81308587754978
9768 9769 78.89687329726398
9768 14718 158.67515441173222
9768 19416 79.50864434426276
9769 9770 79.55758600697428
9769 14719 158.86862326574442
9769 15570 158.08499637963976
9770 11137 157.97816822068447
9770 11138 158.45096614832994
9771 14720 158.2954067612975
9771 16243 157.850735052935
9772 11056 79.85139280347931
9772 15815 158.2870440145732
9772 18161 139.59927591832633
9773 13294 157.6291986146508
9773 17398 80.14936373743693
9774 11057 79.60173577412651
9774 17398 108.12554038810508
9774 20118 85.25850257413143
9776 10828 330.10672132555516
9776 14748 72.9081281416013
9776 14749 75.54111069793181
9777 9778 25.954819026360497
9777 18111 86.32284195320752
9778 9779 52.00636668867556
9778 12739 79.1107163445052
9779 9780 80.44797518438168
9781 13016 84.29948310867074
9782 9783 92.11148182015765
9783 9784 30.60148800271962
9783 10159 77.53823102709882
9784 18793 191.60232242530046
9785 18371 335.30683463441824
9786 9787 127.37311027972136
9786 10065 81.75068822843467
9786 11447 80.04955939471637
9787 9788 179.15570614959623
9787 10066 81.10739485034162
9787 14635 80.72776906387807
9788 9889 79.63813806163475
9788 9890 81.98446784615057
9789 10067 93.41881792365176
9789 14832 79.28349770520896
9790 10028 205.9299151342972
9790 10029 90.81364553874988
9790 16920 17.770464960884564
9791 9792 78.58046244267703
9791 15574 202.0428331196759
9791 16920 78.58703613782677
9792 15386 199.94216550532113
9793 10074 109.83880451553974
9794 12525 190.34944963426224
9794 17585 49.8589292689112
9795 9796 23.240293076951644
9795 10935 191.13920680939725
9796 14098 199.74233635654386
9797 15868 199.53148871729175
9797 19875 58.0219028126114
9798 9799 80.07580634853659
9798 10069 73.23187485718648
9798 12206 197.60446022523917
9798 19875 23.538790966014503
9799 9800 79.13205296039894
9799 10163 132.71313660167846
9800 10164 132.06829011890557
9800 19910 11.72672369587876
9801 10070 69.64546610474027
9801 18134 41.80751519355061
9801 19910 19.86965886580088
9802 9803 78.75305259829592
9802 16375 194.39511860321963
9802 18134 7.345825830442707
9803 9804 57.69321975647243
9803 12826 194.45563195941736
9804 10071 71.9464877003823
9804 18286 10.95887054254417
9805 9806 32.76687934796658
9805 10073 99.93298941174604
9806 9807 45.77308755525811
9806 10947 140.58468390283582
9807 9808 42.19160747664692
9807 10061 76.93975631203782
9808 9809 67.38970264334559
9808 10081 142.1964566483612
9809 10062 76.81410874665806
9809 18135 21.403708986306803
9810 9811 35.732146121033786
9810 10064 89.52442161788068
9811 9812 79.7380949765185
9811 14095 298.48148714500235
9812 13774 269.13945236669593
9813 9814 73.70881707450326
9813 10060 119.89577437635761
9813 11224 229.48698333674113
9814 9815 86.76576637798524
9814 14811 240.08425715425693
9815 9816 50.52699408734603
9816 10060 204.79565739238154
9817 9818 77.56732536301071
9817 14831 209.32779186440825
9818 13904 221.7444590636759
9819 9820 79.03141868542706
9819 13186 200.25991440155804
9820 10638 201.18377164486986
9821 9822 20.238323920410394
9822 9823 76.47058874814796
9823 19866 242.1615923006161
9824 9825 60.11542759599201
9826 9827 37.400583673854406
9827 9828 82.31844145045207
9828 9829 120.67430827960807
9829 9830 124.81724655248583
9831 9832 187.3263622282773
9831 13907 164.88768698375853
9832 9833 65.745700723567
9832 13825 154.9846925760474
9833 9834 83.60757554703717
9833 10265 151.28845051273683
9834 11458 79.59959743925462
9835 9836 147.2918751635064
9835 13017 79.26680174202647
9836 9837 136.96543977004518
9836 10166 78.9574782500844
9837 9838 109.78714386973745
9837 12843 79.78965556699136
9838 13018 68.57205757835217
9840 17382 232.32391832853162
9841 9842 237.79519097405796
9841 18071 102.32000175727697
9842 15685 747.4053081818644
9842 18080 546.8560182947042
9843 9844 199.51280218546123
9843 13058 623.9786118081013
9844 9845 53.70934692223235
9844 15407 270.5175910990289
9846 10729 81.97931561367257
9846 19038 190.73483993483273
9847 9848 240.27698503167525
9847 19038 14.681632954078985
9849 14343 615.9030057790922
9849 20074 147.71439736348202
9850 9851 286.353222939763
9851 9852 296.75566881774654
9851 12797 120.24565195777956
9852 9853 80.93210328209162
9854 9855 39.61856184949541
9855 9856 108.52710237743175
9855 12425 78.46424805680647
9858 9859 114.65334653789891
9858 12805 142.89421766368028
9858 15403 74.50208070044833
9859 9860 134.2124660552825
9859 14426 79.40079530031485
9860 16171 75.02515113524693
9862 9863 359.8872022290862
9863 12911 528.197718320011
9864 10982 92.50453726958295
9865 9866 131.5298962020408
9866 14907 74.01750373498643
9867 9868 47.88721493571005
9867 15491 81.12890884264662
9869 9870 365.3852033408754
9870 11085 12.420877406683848
9870 11086 80.18946569618515
9871 9872 140.36243977807584
9871 12601 85.16332392443918
9872 15942 85.13741281291077
9873 9874 248.98011772553264
9873 10629 85.17776048654608
9873 17957 57.629722796459056
9874 9875 284.91012082549
9874 10838 86.06206805075644
9875 16381 83.96387356051241
9875 17763 116.16551116869624
9876 9877 141.58671419331233
9876 13197 83.50026071956297
9877 9878 144.65477068764721
9877 15887 83.58321763685646
9878 9879 139.96231258954174
9878 16421 83.50384774996277
9879 15107 83.46258676887197
9880 9881 141.68549633496855
9880 9885 40.08015715917669
9881 9882 139.97145273192112
9881 16423 85.83579157434758
9882 16424 84.6820660501147
9883 18844 166.68661651780866
9884 11365 164.78972001591114
9884 14636 147.211079048379
9885 10273 45.320873672788544
9886 9887 76.09081695725945
9886 11364 85.84373779610574
9886 13213 74.94726481349144
9887 9888 76.3576716311903
9887 14634 166.0587955970633
9888 9889 76.07967628373247
9888 10944 170.89717627543988
9889 14635 175.0825274645184
9890 10066 183.5613700421715
9892 10131 153.63957868022874
9892 18594 105.29635923733841
9893 15152 79.19406294930917
9894 9895 78.64451259032278
9894 10113 119.94009103007558
9894 15622 194.913097016623
9895 15622 119.75573612611474
9895 16248 121.06533054359303
9896 9897 35.249069911322465
9896 12681 121.51504241387383
9896 12682 117.53355688097123
9898 9899 66.20075589394244
9899 9900 129.47392627571105
9899 12638 79.02521116654121
9899 15312 79.75082251115012
9900 9933 21.01596381332802
9900 12667 55.62002211758316
9901 9902 14.644444320777325
9901 15624 117.07974186128419
9902 16040 70.43121416007168
9903 9904 75.76412008273768
9903 10155 115.41548993713789
9903 12640 72.84403429309674
9904 10140 87.3548702772929
9904 10141 72.94421449802633
9905 9920 19.838971266366837
9905 16769 97.2932761815424
9906 9907 195.24644146181123
9906 12506 100.86023751235177
9906 12507 100.690384453888
9907 12646 100.6840470860424
9907 18778 302.38941088312
9908 9909 82.54885628677411
9908 11381 75.74683406580876
9908 11382 40.753358509425645
9909 9910 75.66954094535798
9909 15246 76.71684802083966
9909 15247 50.94685831954849
9909 18254 60.484242449898424
9910 9911 78.9265693090255
9910 16069 76.02503694235646
9910 18254 65.14570091188929
9911 9912 77.88242561870628
9911 16767 76.08120923673805
9911 16768 51.096138466728654
9912 9913 80.07915776331967
9912 11790 76.18150924530588
9912 12641 150.31291659064408
9913 12641 76.82661841838815
9913 15805 76.02474960410328
9914 9915 132.74815093945247
9914 9926 22.02915644899367
9914 10570 100.78287916467124
9915 9916 57.056492432223656
9915 13227 161.98784266826496
9916 9917 88.29985387780154
9916 10571 215.84303156472248
9917 12943 241.04641866551185
9917 13227 113.88948851183275
9918 9919 79.55680071264356
9918 12651 76.7256816579389
9918 16213 76.89247083501994
9919 16735 77.34776917496856
9919 16736 65.80866100139745
9920 9921 79.52133853576476
9920 15629 58.730854644751155
9921 9922 78.00220866893949
9921 10694 119.88865206563106
9922 15631 119.40346875156831
9922 16589 59.37453713895383
9923 9924 298.05994493776774
9923 9928 57.534932613941315
9923 12660 45.35600371382101
9923 17163 45.79108358925041
9924 9925 80.07873689082716
9926 9927 63.59585102581837
9926 10571 81.49944014192025
9928 9929 199.70718283935744
9928 16255 100.0921379520541
9929 12661 99.33061980342244
9930 13298 75.17098967891337
9930 15085 206.0200708846792
9931 12658 79.23773092526895
9931 12706 121.21486058002449
9932 12659 77.69386417703507
9932 17785 343.95382378500807
9933 9934 61.578172857573016
9933 14291 57.421375263379765
9935 9936 198.70840742270707
9935 11926 80.87229281413052
9935 11927 78.50427789881633
9936 12654 79.46220510836864
9936 15627 148.5011127507234
9937 15627 35.014003448637084
9937 18997 89.78203590094915
9939 14334 77.22502493288175
9939 14335 78.40373969672433
9940 9941 264.9368806510792
9940 14058 76.55605916304714
9940 14059 76.63883808026031
9941 9942 272.49781490364717
9941 14548 74.84411202868147
9941 14549 75.88623137316772
9942 16192 75.42433135483473
9942 16335 75.63385414850065
9943 12440 300.04934888588303
9943 13001 104.32880413483981
9944 9961 21.35708821823812
9944 13942 57.84520513718522
9945 9946 114.3376701846826
9945 11507 75.17398991187531
9945 11508 74.34155358591323
9946 10316 74.70539868942804
9946 10317 74.15700465205931
9947 9948 76.5571080358161
9947 11477 105.21134240176718
9947 13038 155.941387010075
9948 13037 106.92551958020283
9948 13038 79.27207485320174
9948 17841 154.79961424681392
9949 15528 108.43234880795075
9949 17841 10.257736930795442
9949 19933 78.06652845590133
9950 13105 75.66732133419583
9950 13106 77.13463132386173
9951 14480 315.3472231238844
9951 14481 77.3782022543391
9952 9953 69.61953706434304
9952 13274 76.72954130398651
9952 15929 77.71231249336654
9953 13275 76.38727276380402
9953 16556 79.99908461374508
9954 11967 142.3288703772653
9955 10332 101.53369272012145
9955 10333 68.51485704439465
9956 16196 96.92710654736909
9956 16555 99.99540305705783
9957 14141 50.584997311943205
9957 14142 101.89168634439213
9957 16195 128.83801610609305
9958 9959 199.66384343666036
9959 16179 68.40719086875431
9961 9962 101.93270509365333
9961 13941 79.77358713767038
9962 12299 80.88651720387483
9962 12300 80.04747566468322
9963 9964 70.02393884782757
9965 9966 236.39748529866367
9965 11818 79.47945168849328
9965 11819 161.99532203358234
9965 18036 80.80669568014264
9966 10996 79.2177734669939
9966 16468 79.3076491475185
9967 18025 95.11331097929562
9969 9970 39.99133433111513
9969 10993 81.6808308965546
9971 9972 159.32697577700796
9971 12635 173.95345371305632
9972 10958 338.50351242677993
9972 14410 404.35409360850383
9972 15297 323.7623713843196
9973 9974 91.07388525976523
9973 10997 77.60395137024034
9975 9976 85.06308643923322
9975 15603 55.66413978156621
9976 9977 79.50533202488825
9976 10088 25.25149440820889
9977 9978 50.48406938570319
9977 15054 114.82715249189648
9979 9980 50.85587978827274
9980 15676 643.6036369387872
9980 15677 127.6748226300128
9981 12188 183.3755988945215
9982 9983 77.95292853650876
9982 10455 120.32965507656216
9982 10456 84.93228887147464
9983 12116 135.64345112832135
9983 14072 290.5904712593696
9984 16561 80.03588668713486
9985 16557 81.56456365952621
9987 9988 51.1317941981991
9988 12788 180.59493736222342
9990 10888 55.744984888218
9990 10889 61.0949722889044
9991 13416 64.03159122899783
9991 13417 236.85247700127027
9992 9993 86.66730987814985
9992 14504 162.2053662962026
9993 9994 76.1325109894541
9993 13760 137.21356065433102
9994 11635 204.61254599602105
9996 9997 227.31973249569066
9996 13662 148.75232800664148
9996 13663 162.53159263561582
9997 10662 54.60300616653042
9997 18878 27.73714991861954
9998 16186 129.49503560696922
9998 19786 164.77675826032146
9998 19834 33.706429529596065
9999 13231 200.44912913056558
9999 13232 200.9974180363947
9999 18388 149.9912004577372
10000 13122 98.55985199580357
10000 13123 200.64218259359123
10001 10002 65.92178985162171
10001 10003 302.4331409683478
10001 10303 67.81173951003649
10002 10003 44.55640444322818
10002 12320 61.84264052438628
10003 10004 92.10299468943444
10004 10005 67.18710933593478
10004 12320 196.70539940688417
10005 13352 159.2689032577553
10005 14833 157.3254213444765
10006 16881 207.14490859236756
10006 19399 64.64521268678442
10007 10008 101.6880614014223
10007 16916 14.205903758607562
10009 10010 482.45082415260936
10009 17278 53.22808579976175
10010 16883 16.594946713223273
10011 10012 140.43942370714362
10011 19114 83.2718313176823
10012 10013 140.93877909424864
10012 16898 15.28500521943738
10013 10014 60.38947672224879
10015 13688 95.41782411670326
10015 19986 79.88886626062386
10016 10017 79.1146334720856
10016 15349 82.93559294161214
10016 17896 79.06587718160515
10017 10018 81.2757689654683
10017 11656 82.24815509688261
10018 10019 77.10686197719416
10018 10841 84.42246078671823
10018 16889 15.781346466744356
10019 12963 84.59723579337629
10020 10021 87.51668399226402
10020 15350 82.54755783721149
10021 16895 17.86710430455892
10021 20014 84.20196709125938
10022 12699 68.95955103547634
10022 20014 78.43301498665046
10023 10024 79.56216795638498
10023 13193 70.0710173438376
10024 10025 88.48795828630361
10024 15351 69.91487916733368
10025 10026 234.65977275245064
10025 15352 71.30208938434554
10025 16907 16.849979832637228
10026 15353 74.35594080742312
10027 12581 82.29229936665094
10028 15354 84.60854375367528
10028 16924 15.249365824010564
10030 17750 24.685800388773856
10031 17747 75.0574626692825
10031 17750 52.8999721763592
10032 10033 97.96596818370865
10033 14917 39.88393844989025
10033 16897 21.149011192408288
10033 16931 66.74780848514963
10034 16912 78.91466866226223
10035 17150 66.829387988602
10035 17573 68.47497621880085
10036 10037 108.85042406003505
10036 14789 80.8073180681463
10037 10038 164.18097718723556
10038 10039 117.6122009686258
10039 12560 307.7799933928416
10040 10041 77.24727243080791
10040 10713 84.65516548843773
10041 12439 495.78794198109915
10042 15346 64.69020051132041
10042 16180 75.84782586862438
10043 10044 153.21169489304086
10043 10319 77.3517393627909
10043 10320 75.0682418274124
10044 10045 152.36010673633047
10044 15347 75.66249112634303
10044 16206 76.4817124793235
10045 13040 75.89786133068199
10045 13041 74.05994096691516
10045 17833 135.94020170036
10046 15343 54.61471137208376
10046 17833 9.553489191235498
10046 19956 157.03911034898604
10047 10048 87.15471864258026
10047 10057 22.034176326843124
10047 13109 63.705898275070794
10048 10049 86.72186279616193
10050 10051 86.7767981904234
10051 10052 86.24306245417004
10051 18975 155.1787643982592
10053 10054 164.74452425031708
10053 10394 59.35984395976654
10053 19655 21.912068086918755
10054 16207 99.82777008158378
10055 10056 185.9072617207353
10055 10153 201.8748923153147
10055 13243 86.33721591161215
10056 11887 85.11901813001226
10058 11976 70.66792587677631
10058 17388 86.44608341496726
10059 14144 44.606287092552236
10059 14145 106.51951581601267
10061 10062 108.60378760807401
10062 10063 108.15381028143665
10063 10064 210.53267529926214
10063 17580 84.14593093037874
10065 10066 122.61330364347455
10069 10070 190.6839217637583
10070 10071 185.5550970759484
10071 10072 27.49854530606897
10073 12520 126.05217221154753
10074 19671 81.23074485218878
10075 11093 74.42280211508809
10075 11094 162.89114557725767
10076 10077 154.96015431997765
10076 19350 153.05194089523403
10077 14021 57.86018289781019
10077 14022 135.0811147384819
10079 17594 122.13754832340024
10079 19046 18.0909569872411
10080 10081 138.10431175107348
10080 13209 88.38092147544532
10080 13210 87.67808642537771
10081 10947 88.4722975502036
10081 10948 87.98676005041808
10083 13806 73.73729375362194
10085 10086 209.54184223328912
10086 10534 51.51701490533058
10086 12835 65.77866265012831
10087 10540 181.96871443233837
10087 17197 47.4480616568603
10089 10090 186.8533021171251
10090 12944 145.55451360452145
10091 10094 37.027547927701875
10091 16222 68.57469617869263
10092 10093 67.5454329716288
10092 10095 29.53157631470906
10093 10094 137.42389535972376
10093 19799 172.75335403552035
10095 10476 107.76483907968597
10096 15689 71.534434098228
10098 15439 71.35942522048853
10098 17784 12.675727104054804
10099 10100 60.16978981400688
10099 11149 80.95735558857434
10100 10101 157.29838023882255
10100 15875 79.12363777622195
10100 15876 100.69686517580597
10101 15476 78.95240930134838
10102 11319 79.3412182726128
10102 11320 84.03570948043311
10103 10104 159.6205554713294
10103 15702 79.21815830278352
10103 15703 79.09018945090014
10104 10105 158.15918711874065
10104 16246 79.98920154338033
10104 16591 78.68041249755882
10105 10106 155.0025711205
10105 10494 78.95036396886555
10105 10495 79.65787936727176
10106 15739 77.88801766806796
10106 15740 80.21657973370004
10107 10108 99.91254948985582
10107 10704 156.53233056714132
10108 10705 158.69931005818145
10109 13245 48.71728707979928
10109 18984 132.1017875986805
10110 10111 136.2588484370892
10110 18984 9.005792126325835
10110 18985 65.54219891951817
10111 10112 121.52563582558841
10111 16247 79.42905031928274
10111 16457 78.63508196038826
10112 10113 196.775346621256
10112 14742 79.26819104802755
10112 14743 79.51367728640797
10113 16248 79.33100060846846
10113 16588 80.20003363131772
10114 18165 69.90236670561163
10115 16590 153.81067594174212
10116 14214 70.24814011841374
10118 16866 74.60363519075521
10119 10120 101.91621034452399
10119 10727 73.74610081330786
10120 10121 79.16512381798525
10120 14899 68.56466855574755
10121 11002 145.03288068162988
10122 10123 51.50000209516336
10123 13725 46.89770356728283
10125 10345 71.98243686551255
10125 12463 220.18276986538137
10126 10127 45.989263797169016
10126 18040 72.34432441967913
10126 19235 161.91200348915518
10127 11005 177.35207485056887
10127 18040 122.78830467769791
10129 10130 121.07465401025935
10129 11004 163.48836733467573
10129 17728 53.200780745494015
10130 15290 303.2311475991431
10131 17367 116.95804898742321
10132 10690 56.87401339230847
10133 10134 277.1589188835312
10134 13461 91.79440954768786
10134 14164 168.33785051495818
10135 13414 77.15748369372841
10136 12171 184.93782711595088
10136 12172 411.0274283265765
10137 10138 228.71052767069435
10139 11693 96.49078124305638
10139 16500 241.54857903904258
10140 10155 45.31391423327481
10140 16283 41.86305495060928
10141 10142 39.79672732664952
10141 12640 75.8094677218772
10142 10143 36.805580131181614
10142 12657 75.39548667125025
10143 15416 75.71472651319561
10143 19316 118.82482535332782
10144 10145 86.18731603299162
10144 14216 75.66614881152222
10144 14217 75.9546434050335
10144 19316 137.74851926964143
10145 16281 76.48938767741623
10145 18992 17.45553092773708
10146 18992 122.60447588291028
10147 10517 37.95777402273626
10147 11351 78.85926886427924
10148 10149 158.9483709780466
10148 15411 79.40061301130436
10148 15705 78.69894204989245
10149 15412 79.18179963239704
10149 16284 79.14559577572719
10150 10151 154.6602695728559
10150 10498 78.46436467307441
10151 15413 78.62260334863898
10151 15742 79.58169322784231
10152 10680 67.70459979074052
10152 15414 78.22945175958048
10153 10154 201.19684779425245
10153 16282 87.01505194589612
10154 14745 86.64349899709268
10156 18889 449.78079850147225
10157 11662 42.31909751429089
10158 11663 190.0639092926295
10158 12220 29.445816483487274
10158 14683 165.59915449639348
10159 13019 225.88183388888285
10160 11445 74.81390874274771
10160 13831 76.81375659944858
10161 10162 79.59686120177703
10161 15649 200.22571286832581
10161 16125 145.44986245523356
10162 14822 140.2261805869625
10162 14823 199.4167825858558
10163 10164 79.06241347656115
10163 16374 62.648008335578304
10164 10353 62.78272100127718
10165 14652 155.82276177338045
10165 14818 59.1898415255754
10166 13017 148.23800157467122
10166 18115 15.521315291283571
10167 10168 151.9274490056464
10167 13994 79.67465154767613
10167 15133 79.40564378563278
10168 11213 78.74743857758176
10168 11214 79.3123451544179
10169 11083 83.76852917749473
10169 12153 139.7616651825826
10169 13846 143.86548069754946
10170 10171 83.87795756954567
10170 12154 140.1791426653864
10170 15620 143.63130587520243
10171 12155 140.3177539407085
10171 16202 143.58920063224954
10172 10173 154.70531683540017
10172 13538 192.69469141294684
10173 10174 157.34196796665685
10174 10175 177.52016978963
10175 14329 187.06887053222033
10175 18291 141.4801380811051
10176 16699 147.632708239427
10176 18291 68.17976699789443
10177 13519 114.03600552273471
10177 20039 272.5732610997869
10178 14988 192.45927763306722
10178 16216 93.75049134396005
10178 17964 79.48331488990243
10179 12146 72.41191367814184
10179 16137 209.7708016972738
10179 17597 73.51664419858649
10180 10181 57.494852830903845
10180 11548 232.66837473015505
10180 11549 75.40227387071813
10181 16664 226.50743553199925
10181 17600 74.09085805550339
10182 16476 227.82257887926227
10182 17600 81.42368058379608
10183 10184 29.183348822221205
10183 16047 228.48749190923064
10184 10185 47.05601884299474
10184 12149 76.44716369847974
10185 10186 122.02726295286882
10186 10187 80.25142272270782
10187 10188 83.60546480538534
10187 12150 101.89917472415956
10187 16697 203.53152373495914
10188 10189 83.26917606530239
10188 11800 203.98855635670236
10188 11801 101.56561016725738
10189 12151 101.54345848133062
10189 15809 203.91015277542994
10190 12152 101.45458172572363
10190 15155 204.06552316309308
10191 16108 204.19892176811666
10192 10193 83.10547865181755
10192 14975 193.60176435411043
10192 15306 204.1552854765416
10193 10194 83.19897745208235
10193 14284 203.64317770470035
10193 14285 193.70187222826743
10194 14976 193.75743956752945
10194 16696 203.99425774406657
10195 11945 182.50568699468724
10195 19162 22.25229510492352
10195 19164 21.951768286901178
10196 14978 195.54778723053357
10196 15200 201.1742011976978
10196 18660 78.33385681161867
10197 14780 194.47159506111535
10197 18661 75.85381077938968
10198 16602 218.71660762518943
10199 10200 138.61773810050482
10199 11196 188.088339036207
10199 12006 61.15356295203142
10200 10201 243.70358515155448
10201 10202 55.90862947720839
10202 10203 421.38242855231516
10202 12701 198.5614834202821
10204 18248 22.5772290003221
10204 19016 41.30764157082479
10205 10206 899.9213432882016
10205 12730 143.72219111814806
10206 18957 223.44889215719374
10206 19723 118.93354013911096
10206 19789 65.1525695881643
10207 10208 23.573743779992558
10207 18382 392.77554482690033
10208 18381 185.22013331277543
10209 10210 45.84597045361278
10209 15954 65.11787719915472
10209 18227 53.897251464952234
10210 14688 71.17769838294866
10211 17447 140.4796895452364
10211 18219 218.99066610074067
10211 18223 181.36022472022958
10212 14304 65.81584619751067
10212 18219 193.62508197294397
10213 10214 52.250851181493466
10213 11471 87.8934265292701
10214 15406 81.74424780265754
10217 10417 79.4279777656968
10217 12403 152.09132007800838
10217 13267 79.24244595721116
10217 17324 62.63312404807615
10218 11900 78.72687436591212
10218 12402 154.025074399419
10218 18673 73.10177909109862
10219 13130 79.21530807208204
10219 13131 78.83177172084558
10219 19410 72.60174874603916
10219 19896 151.69758414185333
10220 13410 71.81626877105246
10220 19895 10.656257138598912
10220 19896 10.668841277355378
10221 10222 78.64906444070992
10221 13743 78.89098898539737
10221 18480 72.5953312398277
10222 11610 79.07880793732016
10222 19809 73.47654851984518
10223 10224 78.52686093146063
10223 15457 79.10922503867629
10223 15458 79.55598880552276
10224 10225 76.41364476941835
10224 18745 119.1203376212633
10225 10226 110.41727995799663
10225 16439 79.73665422614442
10225 18744 94.2030501579065
10226 10358 60.0538799225712
10226 19326 79.60908370024332
10227 10228 92.04102983393535
10227 14359 154.84854433150792
10227 14360 82.49308827209248
10228 10229 88.58471619392033
10228 14361 91.76429304081985
10228 14604 64.08167965324489
10229 10230 78.35138071614111
10229 11863 96.61062879824948
10229 15132 154.1738182327785
10230 10231 79.47515307256033
10230 14362 103.03401222294033
10230 15132 78.60055454441081
10231 10232 82.22044302399114
10231 12768 78.05692148415953
10231 12769 110.42436172396614
10232 10233 79.54988031311588
10232 14364 117.7632610629612
10232 16148 78.20540749362212
10233 10234 79.72937641539527
10233 14366 124.01194141320534
10233 15927 78.57294227445215
10234 14367 130.18092541738324
10234 16615 78.79792289919979
10235 10236 55.55870701561236
10235 16576 80.92193370437268
10235 18246 87.86490332700248
10236 13028 76.90183855150215
10237 15393 79.64363537701652
10237 15394 78.2884332565397
10238 11036 47.325236043602175
10238 11037 87.21015912071194
10239 11435 155.02069285155676
10239 11643 155.0146224550312
10240 10241 79.45084189021725
10240 11436 154.76760441357771
10240 15883 154.81398546129614
10241 11437 154.7302732828386
10241 13004 155.21402185214356
10242 11438 154.89992920061582
10242 13951 155.94489206054405
10243 10244 78.46025974176412
10243 11439 154.6567177720827
10244 10245 79.12894336891874
10244 11228 155.31929570821077
10244 11229 153.7128589047088
10245 10246 79.47113317208553
10245 11440 155.0564607392431
10245 12734 155.80643820382392
10246 11240 154.93317325595137
10246 11241 155.59606564645287
10247 10248 75.26850549493979
10247 16173 79.15798161907566
10247 16174 79.22492817634546
10248 10966 79.40624712376346
10248 10967 78.85187514142223
10249 10286 157.98631048514898
10249 11511 79.68090250879467
10249 11512 80.09444402358378
10250 16251 49.13632443525553
10250 19309 102.42258985041327
10251 10685 211.82535487810858
10253 10254 13.499354737658896
10254 10255 195.09565140980877
10256 10264 55.20803441896064
10257 10258 41.87621039268261
10258 10259 80.65085033951398
10258 10637 103.82531156124688
10259 10260 80.2976703070009
10259 11658 190.88490649422013
10259 17740 200.4491529051113
10260 10261 82.37399911440671
10260 10843 174.56886575254393
10260 17737 202.724206757828
10261 12200 198.13480190866548
10261 17741 202.62563811309332
10262 10263 82.60606059070432
10262 12201 199.86618317518796
10262 17733 202.66800781762595
10263 10264 82.02042619213648
10263 12202 200.7861603762639
10265 11459 84.08170666778962
10265 13825 85.7845080681746
10266 10267 65.99444507245244
10270 10271 98.85796436954212
10270 13843 141.1740220363422
10271 14625 140.90658149114316
10271 18138 74.24296191381366
10272 10273 84.77800208823857
10272 15797 141.17096283344674
10272 18138 13.440505870092085
10273 16423 141.47629117086737
10274 16230 193.05058311641847
10274 18839 12.531868476146123
10276 10277 48.58316529386116
10276 14890 71.45355655102188
10277 19217 26.149305708646835
10278 13364 68.409946338746
10279 10280 138.08559535107958
10279 11699 103.62612550300119
10279 12976 211.653848329881
10280 11703 94.31544217552303
10281 10282 118.15140451632121
10281 11701 58.87339170364525
10281 14897 78.74441609304218
10282 11702 75.7409000882695
10282 14898 82.07568053254732
10283 17281 22.97118662166354
10283 19996 15.60687192355227
10284 11689 271.1309124562266
10284 14150 486.86364432265304
10284 14151 627.9382777393655
10284 18561 763.9578953349734
10285 10889 61.27674363678746
10285 10890 78.55310111269497
10286 11512 79.4490768709455
10287 10288 78.95541938657784
10287 11513 79.42664868640018
10287 14305 79.86125983457399
10288 10289 79.83876080158618
10288 11246 78.02723480374269
10288 11247 77.02512198506231
10289 10290 78.54312945474311
10289 11514 75.5914226227443
10289 14306 75.01227190124241
10290 10291 78.60787344008817
10290 11515 75.76845991266444
10290 14307 74.64542260040736
10291 10292 79.55600920902344
10291 11516 75.805695848215
10292 11517 75.86874245186395
10293 11518 78.31547762946738
10293 14308 79.71682607379398
10294 14309 79.11594242450124
10295 10296 77.46736120563287
10295 11510 57.07233590521235
10295 14126 78.89295848103646
10296 10297 79.27056225444375
10297 10298 78.7874808554709
10297 11734 78.89095867740245
10298 10299 75.30862529759717
10300 14310 78.46564969987516
10300 18699 153.47690425236567
10301 11527 79.37247447765112
10302 11528 79.2050694611772
10304 10305 123.0784537358868
10304 13382 86.96580122022317
10304 13383 311.72278379744773
10305 14536 29.335003462294562
10306 17692 274.50626223265607
10306 18718 263.2716646330712
10307 13619 70.1167033110597
10307 18698 74.80496252691661
10308 10309 78.93365581384705
10308 11829 127.29636128680264
10309 16261 125.84059619148616
10309 18712 72.0315690037905
10310 20141 47.44774293624647
10311 11523 90.90394176935277
10311 14259 133.94020799585812
10312 10313 29.592302746935104
10312 12104 82.94228027509912
10313 10314 75.27184687960609
10313 11524 91.14987581410657
10314 10315 75.31089443589853
10314 11525 91.02665619402556
10314 16264 133.3126340777334
10315 10316 76.5099908838052
10315 10645 91.50393616854117
10315 10646 284.43804990075995
10316 11526 91.47236950227102
10316 14317 85.63560694992876
10317 11508 114.86245132487781
10318 15964 153.12324359382188
10319 15347 153.18346257091437
10320 16206 153.01585660087486
10320 19310 224.37083731416
10321 11522 45.70153094560101
10321 13162 45.04681826671541
10322 17007 47.32115457472352
10322 17049 44.8535105620976
10322 20075 35.489688665401175
10323 17474 38.5742920952119
10324 10325 121.60831039599664
10324 17473 63.59599115899897
10324 19829 195.72288738724467
10325 14350 81.36691785510749
10325 18591 56.26485054227595
10326 10327 200.0894486716311
10326 16265 108.56004040517024
10327 11418 31.579499951081743
10329 10330 98.83935334041851
10329 19738 26.97519943010923
10331 10332 100.49645274650412
10332 11967 199.42497147348445
10336 10337 155.5410188657163
10336 10739 75.91334502546964
10337 17105 206.29719888690357
10339 10340 200.7073686651494
10339 11781 88.1115809607245
10339 14959 114.63847535968839
10340 10341 272.32233164932154
10340 14960 112.2881485712066
10340 16805 29.160672325305768
10341 15427 85.84776189484856
10342 18416 74.83445394039855
10343 11785 113.3845680095477
10347 10348 100.55459553607196
10347 11778 114.36864312641427
10347 14540 81.64159931801458
10348 16288 284.9409979283096
10349 10350 76.92780817864731
10349 12519 186.17307497171237
10349 17958 189.26234606267062
10350 12207 187.93080295527292
10350 15842 186.37051384859592
10351 12209 186.8015616492928
10351 15785 186.61015037317623
10352 12224 206.7166623981938
10352 12225 186.81837431156265
10353 16375 79.00925076694557
10354 10511 78.95750787887033
10354 10512 78.76369891391758
10355 10356 200.8523170792793
10355 15890 78.90705961293013
10355 15891 78.9390502293008
10356 16404 79.77433209522948
10356 16539 77.92273328617432
10358 14356 60.016280762110775
10358 14357 80.19016159699979
10358 19330 159.4623492369829
10359 12927 197.7966959145723
10359 15071 154.00056228423978
10360 10361 77.21097198443447
10360 16024 75.0727353962322
10360 19705 29.28386668741349
10361 10362 25.778481733531695
10361 12929 197.2721699481484
10362 16024 178.11842920653598
10363 10364 24.51669045358205
10363 12930 194.20439197695347
10364 10365 58.08150068363974
10364 15233 66.33903905828623
10365 10366 75.31450119727333
10365 12931 162.63434286405203
10366 16394 306.6105241385815
10366 19819 178.8788415303943
10367 10368 27.322819154490976
10367 13683 52.752600501568864
10367 19820 40.773832542368844
10369 15122 124.816746561879
10370 14681 124.25129012962816
10371 10372 167.08052792803588
10371 13573 82.90157135965492
10372 10373 47.13706017033871
10372 12266 85.11166597020502
10373 16014 76.73119759860226
10374 12913 185.39327216814596
10374 13978 201.8191950055645
10375 12914 185.36546353304269
10375 13441 201.91967650477312
10376 12355 185.32912236245497
10376 12356 201.67597104465852
10377 10378 75.51905684307094
10377 12915 185.22082020358914
10378 10379 77.39837264018938
10378 12374 185.1522929872945
10378 12375 204.60170068177135
10379 14176 117.13744705616656
10379 14177 67.17997213773799
10380 10381 84.54677269145641
10380 16567 116.7712037676852
10381 13475 116.68922089947965
10381 13476 66.82929277990924
10382 10383 24.70301146214716
10382 12474 67.03873115708465
10383 12480 116.2904842560618
10384 10752 98.80801200129467
10386 10387 79.25311497997009
10386 12097 197.05668332126913
10387 15449 196.64884771709194
10388 10389 45.764609556969894
10388 10658 158.7434853738318
10389 10390 132.787723418026
10389 16553 79.63795940505072
10389 16554 84.3414717627861
10390 16194 81.9763631289181
10391 12455 82.89625244063816
10391 18464 12.861942616825255
10391 18465 10.93654878258659
10392 15463 50.0839697470567
10392 15965 16.969974972756134
10393 15337 47.37248282938048
10393 19655 68.20138147581164
10394 10395 39.79409173814337
10394 19376 184.92919019919623
10395 16207 164.4275387372973
10396 10397 82.1264631271126
10396 12542 128.05388711890566
10399 15368 120.04728199125148
10399 18771 190.67890526907578
10400 12918 105.32535687987054
10401 10402 97.15409096525812
10401 13810 120.57304203913048
10402 12817 103.07908843071917
10402 12818 120.68467013605321
10402 19651 74.79939484459013
10403 14657 202.73411560683132
10404 10405 101.5253675937434
10404 15181 344.0364014052767
10405 10406 41.12018434885221
10405 12939 101.25777931120825
10406 10407 96.18512949078679
10406 15007 42.835407999341754
10407 15181 100.4576826573228
10408 12859 163.19435514058412
10408 18247 24.222951823230577
10409 10410 83.93158903887854
10409 11411 205.93562683941232
10409 11412 82.59453121649292
10410 10411 77.16115656499181
10410 18261 234.17792067121422
10411 10412 34.390040979240666
10411 10862 92.9056913690763
10412 16428 138.05260209298166
10413 10414 174.73748876744088
10413 16446 188.4628319781348
10413 18263 64.46175721791457
10414 12921 198.66319965932254
10414 19350 137.47928215714384
10415 10416 439.4696162180971
10415 15788 207.3678849329331
10417 14866 79.23115923430085
10417 17320 56.72710951950337
10417 17321 44.61246369688364
10418 10419 201.4345230789449
10418 10447 31.272998282540225
10418 16304 78.7392525163106
10419 10420 194.54950475883757
10419 16474 78.97261109464392
10419 16662 78.98531976256788
10420 10421 12.644983674050874
10420 16475 78.40038601476623
10420 16663 79.0604718349447
10421 16476 77.97275428900136
10421 16664 77.06623808227855
10421 17600 227.49935950603037
10422 10423 76.43560204289923
10422 11549 131.07818170215913
10422 17600 75.52749969413374
10423 10424 76.16886230442215
10423 11551 132.0593254054932
10424 10425 76.45775603412388
10424 11553 129.90760152634655
10426 10427 76.17998102745423
10426 11554 129.34270270952746
10427 10428 20.437709746257898
10428 10429 76.90450659624305
10428 13701 67.23283090865654
10429 11555 132.24546562546035
10430 10431 82.0559476850541
10430 11556 132.7457048944994
10431 15544 502.2344912026148
10431 18003 43.50005796573847
10432 10433 80.55760556120966
10432 16631 77.40967755972862
10433 16360 77.82973283981735
10433 16361 80.62429305850533
10433 19608 77.58708694134543
10434 10435 78.71589066830651
10434 11109 78.54316238353191
10434 11110 79.11161681092547
10434 19608 81.03994428506168
10435 10436 109.03926525841443
10435 16583 78.01251903968293
10435 19361 78.6364132446409
10436 10437 171.53152357846486
10436 15274 78.43268715051222
10436 19361 182.0962905075324
10437 15901 79.09115129222775
10437 15902 79.48031907210884
10437 18439 171.0432354849062
10438 10439 173.94442982924676
10438 14938 78.83436905061268
10438 14939 79.39096197056095
10438 18439 173.34395257979438
10439 10440 171.19831584652383
10439 15480 78.71314154348046
10439 15481 78.9597142337376
10440 11334 79.10596797006745
10440 11335 79.20956359349019
10441 10442 144.41237684328505
10441 16472 79.65249226793291
10441 16665 109.98778471124557
10441 19520 137.2513954712783
10442 10443 121.41574724650116
10442 10488 110.30356274977757
10442 10489 79.230148968321
10443 10444 139.08392321937558
10443 16473 79.36902897014683
10443 16666 110.03590209967695
10444 15728 109.93187748021478
10444 15729 79.8832230180453
10445 10446 139.04108918010638
10445 15986 74.80513087363227
10446 13868 74.81880098679903
10447 16305 47.880448620197896
10450 10451 78.44817849018204
10450 14850 214.27044821569743
10451 14850 281.3888570056924
10452 10453 76.34675490658891
10457 15422 52.08710522892576
10458 10587 72.03532079297734
10458 19405 137.74909527624945
10459 10460 136.98198372182347
10459 11856 104.65264090140762
10461 10462 26.537406411115004
10462 11855 118.21755211258801
10463 10464 109.07937610372741
10464 15005 81.27250889364038
10465 10466 103.107370784149
10465 13842 79.56025063858151
10465 17613 80.31689996819354
10466 10467 117.03467524036915
10466 14624 79.14900539837858
10467 10468 14.077375142469457
10467 18582 163.03094453451374
10468 18583 147.73891766766718
10469 10470 65.3618490876142
10469 10477 203.1853036421763
10469 16625 57.992526564812565
10470 10539 106.7010943157191
10470 10545 100.61666061280555
10471 14777 168.90681949919173
10472 10473 79.0450667782448
10472 13706 169.01788571015078
10473 10474 79.06807454886457
10473 12495 168.98440471925235
10474 10501 81.71805205087793
10474 16091 18.23636861668659
10475 15549 82.5451792322164
10475 19798 26.196296146691285
10476 16219 188.98173081313578
10476 16221 119.03925469622823
10477 14886 74.0670924815808
10477 15001 54.49115479552463
10478 12598 140.42082395902275
10478 13843 139.99784152069887
10478 14626 95.49204901302062
10479 10480 79.29231331030634
10479 15614 140.14044095836266
10479 15615 140.08380624218654
10480 16198 140.08374114029212
10480 16199 140.2315251037179
10481 10482 75.8751544366347
10481 16208 144.4901707464954
10481 16209 141.70931442825372
10481 17180 73.27318612171416
10482 10483 74.8165936342763
10482 16681 141.2754152266737
10482 16740 144.7582246788934
10483 13558 144.52442399857932
10483 13559 141.2445124710558
10484 10485 75.45377059860641
10484 12623 144.74807034254897
10484 12624 141.18962337538377
10485 16528 144.5795571637339
10485 16529 140.92008585190175
10486 10487 75.54740551780418
10486 16139 144.06074887613627
10486 16140 141.4071142358535
10487 10488 76.09215421177286
10487 11567 143.9877955436619
10487 11568 141.23450970559546
10488 16665 144.28801964721984
10488 16666 121.35044252904869
10489 16472 144.42106166918757
10489 16473 121.79436577443381
10490 15877 119.91824129622721
10490 16048 144.78777517118598
10491 10492 79.1907111885543
10491 12183 158.27754992587438
10491 12184 155.1976523184929
10492 10493 78.96071423654912
10492 15738 155.82028877095115
10492 16770 158.56793681750935
10493 10494 78.89479497414096
10493 10702 158.8664015632746
10493 10703 156.749650539319
10494 15739 157.60106342914005
10494 16591 158.25703932945513
10495 15740 155.0961852156751
10495 16246 158.74589841579785
10496 12669 158.55313898597345
10496 12670 155.27591505925773
10496 17190 29.574334083948354
10497 15741 155.64788175635607
10498 15413 155.8601487272785
10499 16284 159.02080787488302
10500 20109 130.38344140333362
10501 16092 90.04629087671864
10502 10687 220.28795676587143
10502 10688 125.4239678220338
10503 18302 52.30249838249747
10504 17592 140.9448690650786
10504 19331 82.41711495544833
10505 14630 118.43070475388346
10505 17758 102.99008375420064
10505 19331 57.04933504123963
10506 13691 89.78440678999553
10507 12698 79.38471987675437
10507 17421 10.813577922034234
10507 18376 66.88381892822554
10508 12700 76.53792781763349
10508 19629 23.612289128965656
10508 19630 22.760957405967766
10509 10510 85.73550742919628
10510 10511 79.49503314302392
10510 12202 82.20264377946363
10512 10513 79.19917248886712
10512 19694 43.72838103384781
10513 10514 71.93694371010436
10514 19696 192.00631223557977
10515 10516 36.87768665503319
10516 10517 204.0338799014929
10516 15409 46.786120343798395
10517 11350 43.93079981312551
10518 10519 61.81457380952565
10519 15051 83.42662968648692
10520 10521 40.58695254624014
10521 10522 109.70613850380131
10521 12138 85.14546694843037
10521 19579 102.00679014123507
10523 14956 390.26395308785203
10523 15053 93.25093060921294
10524 12995 40.56384764377123
10524 12996 88.83736518528207
10525 10526 93.28493839366894
10525 15907 300.763137523293
10526 11162 300.66749573340815
10526 11163 92.44710794425367
10526 12015 407.1795724679897
10528 15337 59.559693144979775
10529 15952 128.33612310754796
10531 10532 88.57811337409055
10531 10589 90.07032321091225
10532 10533 16.558921515298326
10533 10534 61.64908952489695
10533 12835 63.049457389257846
10535 15761 35.09286785591473
10535 15762 40.66518821181869
10536 11912 97.11365766901997
10536 18151 36.399669092211035
10537 12452 254.26988267897363
10539 10540 38.08883997348798
10539 14885 66.4991522831673
10541 10542 57.25679899018546
10541 16628 103.96920333952059
10542 16367 104.95775766116529
10543 11155 259.21245664554505
10543 11156 87.34152399738868
10544 16627 111.7095285574593
10546 16773 71.21094096344098
10546 18005 57.32795248266654
10547 10548 245.18393374312345
10547 15933 96.73561725853835
10547 16051 76.4466596859348
10548 10549 83.06128463018588
10548 15935 94.71667879207756
10548 16766 76.82503822786532
10549 11803 83.49994418898358
10550 10551 75.87607543651794
10550 15611 128.2418816573706
10551 15938 129.4756691413666
10552 10553 79.776105582792
10552 15939 131.9132159640205
10552 18188 72.52868963157212
10553 10554 78.7019385404223
10553 15940 133.31184413704943
10554 13553 134.4570992354017
10557 10558 13.664295536964568
10557 10559 62.90127951924133
10557 10560 146.25296839201653
10559 13650 140.94326281535254
10560 10564 27.59284225444251
10560 13086 74.61535854990599
10561 10562 75.4868741093279
10561 13456 82.45423665328542
10561 13457 78.34196474842112
10563 10564 59.76204413892584
10567 10568 65.40122003297786
10567 11698 49.104048885652404
10569 10580 31.33567504573316
10570 16793 189.66646461666738
10571 10572 80.4815469002107
10571 12649 104.39642479708778
10572 15636 145.88938692728158
10572 15638 98.140279154549
10573 10574 82.17722271021064
10573 11764 206.30105103283046
10573 14228 102.45995142904425
10574 10575 99.88968258831828
10574 11771 158.7014700359629
10574 14572 141.68916701201354
10575 16368 24.448761707757544
10575 18392 7.617646699642769
10576 10577 73.50256152837072
10576 11070 86.67824921893022
10576 11071 139.3488514703321
10578 10579 136.19281996925812
10580 14753 65.8713163094325
10580 17002 424.07313865481143
10581 15688 76.2251400384292
10581 19568 74.93927036688261
10582 10583 43.733356958926215
10583 10584 76.35100169546598
10585 13293 23.269105828930268
10585 18101 75.38785461112397
10587 19441 25.671169221214917
10588 14433 183.2142545825215
10588 17275 313.6850841623092
10588 18739 183.13438359042738
10589 12834 103.81289128673191
10590 10591 79.33022945703702
10590 13202 88.53715090295995
10591 10592 78.09776392622744
10591 13203 88.97898759856123
10592 10593 286.79297712082985
10592 16418 149.73943801484268
10593 14990 308.41066121439815
10594 10595 101.41974853081287
10594 17966 90.44742217218192
10595 12829 41.329329453932466
10595 17797 174.0158873872427
10596 10597 113.66720579467392
10596 12643 381.1848513146984
10597 16636 38.22121902626921
10598 10599 319.44279843464545
10598 12643 79.27328118580174
10599 10602 130.12264078511222
10599 12643 393.5418614811592
10600 15895 66.25196523708232
10600 16822 37.7960278426718
10601 15708 114.19477913316777
10602 14756 200.29331433787004
10603 10604 267.5160085112455
10604 12360 250.34670043729525
10606 10607 84.43190049381082
10606 11487 78.09556214291497
10606 11488 85.35724715664627
10608 15098 74.93563740784747
10609 10610 88.0239435801037
10610 10611 144.85663916171924
10610 12997 98.01584242543022
10613 10614 62.205032009005734
10613 18047 62.007223674565196
10614 18738 139.651091316777
10615 18738 284.5289264108334
10615 18893 34.32402374869319
10616 16701 157.70469492178722
10616 18287 177.05719013141766
10617 13885 690.3556810753953
10617 17798 21.28304384151087
10618 10619 53.96820353578089
10618 11499 74.92665249644926
10619 14529 1052.503769245798
10620 15177 66.54945507629684
10620 18442 138.57182394540814
10620 18443 244.56523715873263
10622 10623 238.72817994770932
10622 12596 46.110266959500336
10622 14841 44.040643281595884
10623 12597 45.737996826563204
10623 15575 52.99823087379411
10624 10625 100.50851645802146
10624 11061 189.6565290529512
10626 10633 130.68088495402625
10626 12958 94.41651637554514
10626 15378 51.48372174007186
10627 10628 69.92557873435082
10627 10635 26.649699014502694
10628 10629 85.26435249148523
10628 15800 77.41308214398607
10629 16425 129.9656949283395
10630 11654 158.57936298505533
10630 16227 98.54739890906109
10632 15348 61.880887502277304
10632 15349 79.0406411335747
10632 17896 84.50918941705122
10633 12958 148.88103769543744
10633 16911 97.32300358579973
10634 10635 107.40627459924067
10635 14628 51.90452454609064
10636 10637 150.0114703660652
10637 16027 91.93615777260428
10638 13186 79.07986532793713
10638 18372 78.92486080754706
10640 15449 81.36477197262994
10640 15450 80.25869761335241
10641 10653 51.28900304205695
10641 16334 24.61084876098916
10643 10644 154.03180046622427
10643 10661 35.71598486571721
10643 19988 151.53563232011498
10644 10979 151.58587836961723
10644 10980 76.13984433359121
10645 11525 75.26137514222336
10645 11526 75.6361006581812
10646 13036 75.76877312674942
10646 13037 74.74437360495382
10646 17842 155.23198898066877
10647 10709 36.53040108615059
10647 11915 205.9183593678526
10647 13247 42.85031409363252
10648 11966 78.6499464536626
10648 18467 16.440949258891603
10649 16555 102.98936617042165
10649 16732 98.17102507762444
10650 15928 99.53525375262251
10650 15929 102.20960140105913
10651 10652 264.8224649875859
10651 14057 76.91727812323714
10651 14058 76.59136397960984
10652 10653 271.4946158272193
10652 14547 76.10607536089371
10652 14548 76.68348908950117
10653 13320 25.078868715246628
10654 13001 91.27884080325981
10655 10656 105.05837601374448
10655 13940 79.11808109534782
10655 13941 80.7560329714008
10656 10657 95.7583191088768
10656 12298 79.72878134067254
10656 12299 80.62755059045426
10657 11236 80.19687422504428
10657 11237 80.39326674709488
10657 17138 101.01543115587232
10658 10659 247.07976564945585
10658 14140 91.4027323378742
10658 14141 51.6798039874599
10659 11967 42.35358082498846
10659 18467 62.11545257260981
10661 16179 40.43895126017851
10666 10667 126.29645387272596
10666 11325 302.34714086913414
10666 11326 394.8023039059959
10667 14716 395.6150666427012
10669 10670 155.39476071126518
10669 13795 16.425474989556232
10669 17993 239.64167854592773
10670 10671 143.4623319978434
10670 17238 133.4639787262065
10671 17992 22.453713831937847
10671 17993 29.232686412734687
10672 10686 197.81425509272054
10673 11058 104.46717453975533
10674 10675 78.68683502533615
10674 11816 145.6724930750926
10674 11817 147.64059893586003
10675 15284 144.70179996694765
10675 15285 148.4457218402544
10678 11789 256.04822461304184
10678 14540 73.1713659472165
10678 14967 89.87130629555412
10679 12521 108.79637996661533
10680 15979 65.28500018369196
10681 10682 90.63262723318398
10681 14816 116.58042983920943
10681 17251 89.9511701285669
10682 10683 89.57882376981686
10682 15560 119.65140622805833
10683 13854 119.65500581181325
10684 13906 119.7328054558771
10685 10686 127.91338493341256
10689 10690 121.32015929712185
10689 14385 47.087645202927234
10690 14386 46.015172663078445
10691 16590 127.04602601027177
10691 16635 61.04495951766838
10692 12178 72.83737420995423
10692 15266 132.86764988567015
10693 15266 77.65095362146977
10693 15267 112.89662225815137
10694 15630 79.17764846546278
10694 15631 79.43279616825758
10695 10696 374.43932530772526
10695 12236 389.5228496277157
10697 10698 93.3057728656271
10697 11148 86.02978164431478
10697 11149 80.94937898681877
10698 10699 158.71002807016993
10698 15874 79.22738851818244
10698 15875 78.84050825618986
10699 10700 185.78929821441108
10699 15475 79.085674718079
10699 15476 79.03442825195623
10700 11319 78.99724770211803
10701 10702 157.88801659944016
10701 15701 79.75538549254932
10701 15702 78.75994143025892
10702 16591 78.54124114753168
10702 16770 79.25530125481377
10703 15738 79.83807269869591
10703 15739 78.40483168653552
10703 17352 154.29422396111963
10704 10705 98.36852496441782
10704 15977 195.74074563156813
10705 13864 129.20867631722132
10706 10707 135.9538092194735
10706 10710 31.583080230454602
10707 10708 122.90524173454295
10707 16456 110.84172933715485
10707 16457 94.25585648745209
10708 14741 110.29271232420069
10708 14742 93.4379692509313
10709 10710 115.75438522589248
10709 13246 78.96819387883241
10710 10809 78.7612662898916
10714 10715 75.21264216737067
10714 12626 97.45501664020333
10715 15983 96.37449340503407
10716 10717 75.91103268947843
10716 15984 96.93706251130133
10717 10718 76.18360256377841
10717 11570 96.71408982562959
10718 15985 97.45809478810594
10719 10720 163.03930027094583
10719 15434 64.3716317765192
10720 15028 86.11102041511019
10721 15981 125.99623610478474
10721 15982 196.53429638308666
10722 12714 66.38869300845691
10723 10724 15.057056334669197
10724 10735 22.573140290192516
10724 17119 136.65372410020439
10725 10726 97.85722831029739
10725 17119 36.533905278285886
10726 10727 83.92879513662093
10726 11002 228.7680285592671
10726 14041 135.42930956672453
10727 16725 41.938551920539986
10728 10729 88.86436626127558
10728 12809 132.19054500224195
10728 18288 73.56303715594962
10730 10731 159.1475760606819
10731 10732 55.9804255508283
10731 15358 153.47629290693732
10733 10734 157.10181773261678
10733 16593 49.285794601088774
10734 14851 50.556507889442145
10734 15404 111.87834078329034
10736 10737 56.96484898993583
10737 10738 78.36448626572168
10737 12984 80.45276626672575
10737 16256 170.11959311176093
10738 12741 202.39551814145278
10738 12985 80.7321023345206
10739 10740 75.50793747426958
10743 10744 93.29170740662505
10745 17519 21.8754798751989
10746 10747 50.716158010872235
10747 10748 29.255435872348226
10749 12937 96.14879888113646
10749 17707 39.24874192035618
10749 17709 30.585626886356053
10750 10751 105.34659922487207
10750 10765 43.16719756309881
10752 10753 77.95988689094901
10753 10754 226.78399546652162
10755 10780 264.6161261925846
10755 12471 148.25745337648925
10755 18937 20.747749029243362
10756 10757 96.95008518743653
10756 14480 644.7459393073364
10757 10758 42.54851584729045
10757 11630 237.77769303646156
10758 10759 86.35923243536993
10759 11630 120.78152918172074
10761 10762 59.186277627875015
10761 13674 307.72349907949206
10762 10763 77.35318915496241
10762 12084 304.62611885423337
10763 10764 76.25003056512628
10763 12105 310.76637202152716
10764 10765 148.24294868294385
10764 12105 383.00680932965645
10766 10767 97.42111903596023
10766 12470 100.38525561649314
10767 10768 97.68047383638071
10767 14266 199.85312574282406
10768 11870 199.6381065560252
10769 10770 97.40478004232624
10769 14267 200.52543603564257
10770 12464 100.11219368634636
10771 10772 145.4435686014017
10772 14271 201.04891727588998
10773 10774 76.81410600394196
10773 14272 203.8428241602055
10774 11046 202.43379486176923
10775 10776 152.50460475835698
10776 10777 152.072159320956
10776 13953 199.1719406731663
10777 10778 92.00313962144021
10777 12306 106.71053595803824
10777 12307 197.99645897100928
10778 12306 127.01348673438682
10779 10780 137.28348235920416
10779 17625 149.87041302965991
10780 11917 136.6541150595696
10781 10782 161.2761174953973
10783 10784 50.04615029713586
10785 14872 81.2773389990709
10785 16109 76.33048427529015
10786 10787 108.94188401148956
10786 14873 79.10534300906825
10786 15309 78.77075152002863
10787 10788 110.49149633923895
10787 14286 79.12700488941546
10787 14287 79.01727300066176
10788 14874 79.87149284741749
10788 16485 79.24880106712132
10789 10790 79.94836275520002
10789 14862 79.20604539338007
10790 10791 78.97988009897136
10790 14863 79.43456995707338
10790 16487 79.08484878621799
10791 13564 79.41738163586525
10791 13565 79.10429350769688
10792 10793 79.26039641178691
10792 12619 79.38222591639797
10792 12620 79.12670114697356
10793 14864 79.36100631631768
10793 16488 79.13776961748206
10794 10795 158.12622389624028
10794 14865 79.71939332792726
10794 16133 158.9689611031799
10795 17327 72.72240211433348
10796 10797 132.28348747362287
10796 14611 81.60619538462916
10796 14612 83.10337822689395
10797 15606 84.58868441050981
10798 12484 81.21071554261809
10798 12485 100.07712158754298
10799 14031 90.40179641397229
10799 14032 85.01976993743375
10801 10802 79.34733432460062
10801 14867 79.1834923649252
10801 16049 79.69354221988446
10802 10803 78.77086904824644
10802 11378 79.27098156329683
10803 10804 158.27985385523263
10803 14868 79.07265117770869
10803 15243 79.52739698721365
10804 10805 158.10681853254596
10804 14869 78.88279315648633
10804 16484 79.73825188830602
10805 10806 33.43682621328299
10805 14870 79.26218498402204
10805 15802 79.29454666912078
10807 12685 154.29999449870377
10807 12686 85.0454269704502
10808 13249 143.7893564080435
10808 14384 257.2460791789985
10809 13247 116.49129652538976
10809 16456 136.27687016834196
10810 10811 40.67127315063491
10810 16247 136.00282493180475
10810 18984 70.51163603718422
10811 13245 116.03327932410008
10813 10814 29.215142109596638
10813 10825 38.39178123055519
10813 10826 48.9078973936773
10815 10816 139.20225827729513
10815 13783 62.282300214189625
10815 13784 80.56233440176116
10816 14323 79.74915269726968
10816 14324 79.00638527139628
10817 10818 10.074277597495222
10817 16492 65.82751906706788
10818 10819 90.59505753226786
10818 14877 72.71046900327924
10819 13595 75.92709964634345
10819 13596 76.13539119781609
10820 10821 78.77736542860909
10820 12703 113.98625582567671
10820 12704 65.21619927019566
10821 13242 202.50863121420272
10821 14746 203.4987931180772
10822 10823 28.824626303432705
10823 10824 109.91162285841916
10823 12141 67.42886131727852
10824 14751 251.9468974775603
10825 11953 140.97756129587108
10826 16489 105.03272657557527
10827 11688 122.31809365909369
10827 12504 89.4060666465318
10828 14749 259.28779315847095
10829 10830 6.9378183615269045
10829 13890 52.299959064065874
10831 11766 222.2807206832282
10831 14753 251.32311267860146
10831 14859 72.9366898902425
10832 10833 124.01616789184374
10832 14883 81.0507569937296
10832 15439 80.55032143917894
10833 14884 80.15511912897536
10833 15031 80.81221008731339
10834 10835 112.47072730545482
10834 12960 80.77301660081042
10834 13845 135.12399069273843
10835 10836 53.03990135078689
10835 11652 95.27695274395566
10835 12961 81.32430726285091
10836 10837 73.62101140881431
10836 11653 96.27387298326565
10837 10838 13.321151014526363
10837 18840 48.214264363381645
10838 16422 39.653580850001966
10839 11654 78.31905408472535
10839 12965 79.5839553397249
10840 11655 77.90255000945368
10840 12962 79.14421258410204
10841 11656 78.18248046390734
10841 12963 80.12816162158002
10842 11657 78.76165192678273
10842 12964 79.67341745275053
10842 16889 194.25265025995304
10842 17737 201.6108787407641
10844 10845 156.312652900029
10844 11410 150.2669254624148
10844 12750 159.27093685488506
10846 13235 137.37718126412435
10846 14880 77.27098313380363
10846 17021 18.460177830927403
10847 10848 76.42499043015948
10847 12415 199.0107688176677
10847 17021 77.29503848091696
10848 11894 199.5197373259562
10849 10850 77.97170773342597
10849 11403 175.23560807164887
10849 12745 199.85668765770157
10850 10851 79.67597123222782
10850 11404 174.2804632849664
10850 12746 199.54080810854393
10851 11405 174.75558593142398
10851 12747 200.65265058494654
10852 10853 76.76571715492639
10852 11406 175.3679779517208
10852 14503 216.59065110692262
10853 10854 77.21756523944849
10853 13763 176.07815093411065
10854 11602 108.17249907384554
10855 11421 178.5681223121475
10856 10857 72.31023390945455
10856 12056 79.94814110591697
10856 18647 200.6742306258593
10857 10858 87.39950399938947
10858 16507 199.25612291236263
10858 19854 246.65906721978016
10859 11417 205.23342892954213
10859 16183 48.339334471101665
10859 19854 9.6851419596111
10860 10861 4.54798580717033
10861 10862 79.48396169912108
10861 15453 292.5197839885877
10862 16568 76.37621471131047
10865 10867 68.31615350210183
10866 16916 29.139347356216582
10866 16922 159.26809066694162
10867 14506 78.65999887561377
10867 18443 77.4747539660928
10868 13897 34.972458049767575
10868 19007 21.338617154882172
10869 10870 79.34809143758322
10869 13729 78.02455889138521
10869 13897 27.586822115303313
10869 19007 51.46523681064387
10870 13730 76.85466499120946
10870 16111 73.98980508329736
10873 18605 44.32554981650681
10873 19300 16.78568024453839
10873 19730 76.12665910774987
10874 10875 80.03156724391022
10874 17333 7.684904885797506
10874 17550 79.40947852612051
10874 19938 81.52589764934125
10875 17337 55.05059444069318
10875 17341 7.214451806059587
10875 19937 81.60377452830478
10876 17334 7.98560905814225
10876 17343 13.597693850441658
10876 17344 80.3449293760688
10877 14419 82.9601228776504
10877 17334 79.96953606390856
10877 17344 7.6072367240783505
10877 19556 78.47246711059827
10878 14421 85.75963817751573
10878 15174 197.6889799247427
10878 18608 79.20092563949888
10878 19366 227.6149920097766
10879 17778 93.16185262224093
10880 10881 55.907460017910616
10880 18368 25.056595247539448
10882 10883 76.3113087879432
10882 16775 153.59377379929492
10883 11283 152.38752721267917
10883 11284 144.80087325120186
10883 19176 31.674027055157804
10884 10885 17.4249591260143
10885 11284 220.25064223479018
10887 13077 155.05709667309873
10887 16279 87.6869983135601
10891 10892 49.70719769603917
10892 16446 94.74346912432901
10892 16603 102.24014318966678
10893 15861 200.12640424279422
10894 11774 104.714490868077
10894 14859 99.73152262105766
10894 17002 66.37923684528346
10896 10897 372.08962455292914
10896 13234 103.22494513606432
10897 13118 100.45557129029973
10897 13119 69.09192198984906
10898 10899 83.37056491724738
10898 15618 127.02053062349452
10898 15619 140.51850642864304
10899 16200 126.28474133824659
10899 16201 140.57533921118394
10900 18380 6.659060100894939
10901 10902 27.427431875258154
10902 10903 61.1187738205963
10902 15551 52.73279587035005
10903 15550 76.22813201019883
10904 10905 78.71450138606004
10904 11942 130.2991502842162
10904 11943 63.6703187817257
10905 14012 130.02060296668665
10906 15206 125.74042032915406
10907 14771 125.00551747915551
10908 10909 199.51169817572605
10908 13571 73.48893639333632
10908 13572 86.74782456290455
10909 12629 56.86552632472555
10909 16967 77.94893012576217
10911 10912 126.44568539769264
10911 14383 123.57350132696978
10912 13859 97.31806367702735
10912 13860 124.46882114009648
10913 14390 121.63623697277308
10916 12686 158.0652068744364
10916 17625 90.70656776202101
10916 18986 76.37633452906488
10917 10918 73.29409128829401
10917 18986 11.565138821806956
10918 10919 82.1337332500336
10919 10920 121.50069196560355
10921 10922 75.8812667394193
10923 10924 77.31904138498325
10924 10925 42.13926417990784
10926 10927 121.30811997782433
10927 10928 122.07648347024325
10928 10929 130.3271292176893
10929 10930 117.55259017732742
10929 17637 51.21202116087566
10930 10931 143.05557978835978
10932 10933 186.92622812719114
10932 19073 41.61679088499967
10935 10936 79.10420706355222
10935 12525 83.3546226576017
10937 10938 79.74914566044959
10937 12208 262.8071735367156
10938 10939 78.79318227041287
10938 15783 237.36340635370684
10940 10941 70.80944569341912
10940 12222 101.48578226937391
10943 10944 135.3744268520293
10943 11447 75.56858981448707
10944 14634 75.9763457650747
10944 14635 76.4172534892823
10945 14832 76.41514977450383
10945 16234 76.32712089362442
10946 13326 53.19617446364829
10946 19974 138.52745692200185
10947 13209 137.98198136886631
10948 13210 138.3161342453895
10948 18135 141.14231865553535
10950 10951 177.95427438334042
10951 10952 166.05286468009308
10951 14685 79.91295773212937
10952 10953 150.17665536422146
10952 12887 117.55366061021508
10953 15992 52.06900290015926
10953 15993 71.88930618494804
10955 19231 18.58456101964592
10956 15596 51.22234920226439
10956 16826 64.8117379681385
10957 13170 53.83448195807996
10958 10959 144.06249404093086
10959 10960 165.37548500178607
10959 14412 75.4259971062648
10959 14413 93.5885478849835
10960 16571 31.174221930162368
10961 10978 43.52251560172947
10961 10988 32.04696893020336
10962 14680 79.61576966280325
10963 19942 79.19851033371201
10964 10965 79.10640936764692
10964 14456 75.06412766312656
10965 10966 79.03918041806747
10965 11427 75.42475628629417
10966 16173 75.39220373403536
10967 16174 75.29325000644874
10968 10969 64.10969820849616
10970 10971 78.58826633531858
10970 15184 78.77209508963566
10971 10972 79.66458839444581
10971 15995 78.8164680904497
10972 10973 78.71927417372757
10972 16176 79.24251112366832
10973 11684 78.5716537564715
10973 18706 73.14024147041195
10974 15067 79.83844768639169
10974 17691 56.3213068572554
10975 10976 77.60489417999915
10975 13618 106.8687268738839
10976 12369 105.57401813791594
10976 17856 80.30864887187745
10977 17855 87.93099880000352
10979 10989 76.09374854497713
10980 16179 154.25659973939915
10981 20075 228.3393878698596
10982 10983 191.4172596585529
10982 14996 426.9651692255792
10984 12912 43.214156022500106
10984 15447 43.12510703084126
10985 11398 139.07599625194806
10985 11399 63.355624951960266
10986 10987 61.62695668363714
10987 14952 65.51234840176167
10988 10989 148.24996047978607
10988 14258 76.33809173785207
10989 10990 35.007203345134165
10989 19988 77.50478546986021
10993 10994 171.52334377724947
10993 14893 76.35266607831016
10994 12972 65.45555030165028
10994 12973 50.95404365190741
10995 14643 78.10440121644329
10996 15400 78.94582734810419
10996 18036 234.67961497659113
10997 10998 111.0607893555551
10997 11710 82.66399646742295
10999 11000 87.04107944094909
10999 16433 76.17990244395675
11000 14605 89.15175544073008
11001 15100 116.110271610918
11001 16866 88.48128320830337
11001 17772 79.4665481380711
11003 11004 69.70786581239565
11003 17727 81.90557330792005
11004 11811 61.45397331251036
11008 11009 103.13845572568862
11008 11280 64.90603849199427
11009 11010 98.3323289933402
11009 13837 75.20460188514696
11010 11015 14.924743661636265
11010 20000 50.1337507941353
11011 12422 243.05110995546895
11011 16592 95.19941569342453
11012 11279 54.48140350237577
11012 19258 120.46314561096592
11013 11014 93.00923902469316
11014 16673 149.69542490699206
11015 11016 135.15761624844356
11015 16286 95.14089563374512
11017 16182 101.9890922477496
11017 19363 112.84257269680141
11018 11019 165.1250963585311
11018 16265 100.22915587366417
11018 19027 174.31890283105005
11019 11020 187.92033624156934
11020 15531 102.4773492324004
11021 11022 82.27717840197145
11021 16716 103.92165962783403
11022 16605 98.14423528385569
11023 11024 39.282460369206575
11024 11025 83.15839032010791
11024 12417 67.50625755617229
11025 11026 83.54749054605189
11025 11916 66.86499967400427
11026 11027 146.10710475272796
11026 12259 65.8077777393136
11027 11028 158.62446457231613
11027 12728 158.6857607878404
11027 13117 106.18797129117311
11028 11029 158.58158027099748
11028 13403 105.29301139564137
11029 11030 158.5372530926216
11029 14501 52.576088585913894
11029 14502 103.85679478273488
11030 11599 114.35091113624986
11030 11600 103.24438941222743
11031 11032 163.08130697031086
11031 16331 91.27252758943136
11031 16332 94.17405601431837
11032 15236 135.3539508708414
11032 16331 255.05092469022384
11035 11036 107.92234953531506
11037 11038 67.8292429087333
11038 11039 62.465955121438995
11040 11041 146.91368254664798
11044 11045 207.2918822471276
11044 12988 36.338566748964176
11044 14192 78.19390627895457
11045 11844 77.61539761900254
11046 14272 76.78841650521979
11048 12561 74.73511895404584
11048 12562 76.49115587747309
11050 11051 64.857630968101
11050 11640 19.558182870411194
11052 12810 51.59663907327875
11054 11055 64.88025472476723
11054 14048 59.24275068701083
11055 14048 403.09096245506623
11056 14721 78.6860110447068
11057 11727 82.74754291006798
11057 17397 108.07628843219864
11058 13217 191.9383087087534
11059 11060 60.39141286755221
11059 16498 205.93829806775008
11060 16499 200.21130501637433
11061 16741 81.00637604610178
11063 12084 889.8810318685232
11063 12445 54.61624893317465
11065 14343 217.6843247829762
11067 11068 158.04190513066038
11067 11537 73.38916217983365
11068 11538 73.50209191990177
11070 11324 68.3552113754208
11071 11072 122.45037431711047
11071 14571 40.741881654520206
11072 11073 59.078560754753056
11072 11076 10.241070171903882
11073 11152 172.15449884240442
11073 18175 37.27135882013958
11074 11075 67.47737621981786
11074 11359 53.56189055974325
11077 19641 189.0646010976036
11079 13211 76.28577362828838
11079 13212 68.91479551983987
11080 14630 44.16641063511993
11080 19331 118.05804102244807
11081 11082 142.66458460805865
11081 13195 83.36787987094228
11081 13196 62.36440531565332
11082 11083 143.787172778413
11082 13846 83.64639268753575
11082 14631 64.97153222468735
11083 11084 139.96561714632094
11083 14632 67.44458310032044
11084 12153 83.05940871167057
11084 14633 70.85289615083516
11085 12785 386.14145449038386
11085 19119 480.1468453324171
11087 11088 76.28846049992488
11087 17553 90.91149896548158
11088 11089 157.98537353079678
11088 12314 247.94976763179017
11089 12314 190.1923410288548
11091 11092 123.81235391567131
11091 16704 79.64240160521378
11092 17960 109.15915300190251
11093 14167 470.9920110465274
11093 17137 609.8477476502234
11094 11095 278.5968209625523
11094 17436 350.6419264340608
11095 15794 244.7181997599017
11095 17133 53.83612961968178
11096 11097 141.3194431708092
11096 11322 38.73544901943684
11096 15053 155.1276149414859
11097 14716 379.6129432816904
11097 16409 451.207800710652
11098 11099 350.5239679215241
11100 19320 176.0889704404475
11101 15917 219.80618489820785
11101 15918 96.68682398929465
11102 15011 79.54090779891013
11103 11104 81.51906428790602
11103 20149 7.932281817123047
11104 16582 79.18430128876828
11104 19552 78.68524601602188
11105 11106 79.50102428841072
11105 12613 78.99927686565826
11105 19491 80.5950439256076
11106 16526 79.24873807763689
11106 19492 80.77250019893866
11107 11108 78.67542670999927
11107 16138 78.84171941227616
11107 19494 80.78467171823603
11108 11109 79.66455964384781
11108 11564 78.80038136107014
11108 19495 80.73092161102393
11109 16583 78.74242297973215
11110 19361 78.5371536194669
11110 19496 81.01737571235954
11111 11112 142.63877516654827
11111 11376 77.93677809561873
11111 19498 81.1404911103907
11112 11113 142.46635595488374
11112 16062 77.77192092933817
11112 19499 81.58507917163988
11113 16584 77.47337509907258
11113 19353 142.7857006307555
11113 19500 81.59498478897143
11114 11115 111.2852791082347
11114 17941 34.59952002067082
11114 17943 23.12302964071249
11115 11116 137.44211506803276
11115 15300 77.13643224960045
11115 17871 59.31199309825396
11116 11117 200.2983007304704
11116 16585 74.5229451125117
11117 11930 74.05171660807864
11118 15195 78.85955712542209
11118 18006 67.86300578766746
11119 12508 204.20622702118135
11120 11121 128.62246158727208
11120 11772 112.05778083519331
11120 15866 99.90902905857935
11121 11122 108.82477246172587
11121 16581 87.22180524524609
11121 16688 51.700746903817226
11122 11123 92.84578118543911
11122 14575 125.93811617810417
11123 11124 152.44841430691093
11123 11127 10.035614399539519
11124 12945 78.55940007113256
11125 11126 170.3593662335865
11125 14088 89.00247261228498
11126 13702 88.47814238269078
11128 11129 197.7593555925638
11128 13303 72.7670636653054
11129 11130 107.31841435972261
11129 16577 73.0575054884018
11131 15112 80.13380571829428
11131 18855 78.68187965707259
11132 14664 79.18509055918638
11133 15569 79.30311098654941
11134 15014 79.76337019060968
11135 11136 157.36772769958918
11135 13966 79.89682931381607
11136 11137 158.0163714614912
11136 13284 79.17993950772839
11137 15570 80.52608990262893
11138 14719 79.03389247478786
11138 18917 152.06397833095554
11139 11140 139.350607596486
11139 13857 79.29519904636786
11139 18916 151.036698333693
11142 17917 17.52350683252912
11142 17918 24.603992766154356
11143 11144 78.98820021346053
11143 12167 109.66070378401108
11143 12168 34.7818361403109
11144 11145 79.30802699720704
11144 15893 109.56054966206756
11145 13607 107.77157824878807
11146 12689 260.3519730418872
11147 12040 70.29486902519959
11147 17919 157.29723236306745
11148 15874 124.06501050647638
11148 19072 84.37172239879568
11149 15875 74.94814221781053
11150 12675 81.6584015061567
11151 13840 41.88233204757848
11151 18842 112.93071733083916
11152 12947 40.00973750661093
11153 15026 63.04452213951317
11154 15912 117.1642181772652
11155 12035 437.9519894968308
11156 12035 82.88982404487496
11157 14644 75.1362995666614
11158 11159 499.79491870220716
11158 12041 86.515519447704
11158 15910 60.45974148274468
11159 11160 197.65621219339306
11159 12008 73.10009233596196
11159 13305 73.41288129637364
11160 11161 110.8946797971905
11160 12009 71.69978541587139
11160 15897 73.26824965415034
11161 11162 388.7145192733954
11161 13517 150.22658523540832
11161 13518 70.16517875392927
11162 12015 106.45108824364748
11162 15907 88.43785698648183
11163 12037 41.901855059153284
11164 12036 75.8531336011818
11164 12710 36.45315660061292
11165 16536 210.91327404912354
11166 16379 112.86900510569966
11166 20153 212.66867524488202
11167 13547 77.98795052455398
11168 11169 79.20760251344662
11168 11717 78.28654615335104
11169 11170 78.87107003980752
11169 14911 78.3642939534578
11170 16143 78.40243426702814
11171 11172 93.43972569845306
11171 12132 111.74724070650699
11172 15849 68.44196898363025
11173 11174 84.90445078710272
11173 11289 76.76421983383419
11173 11290 79.41215252319505
11173 19554 82.37349570762986
11174 12124 79.32615996000925
11174 15590 76.98185318922579
11175 11176 81.36262372286136
11175 12125 78.97657203715522
11175 15259 78.3835674613384
11176 12126 79.12799296345293
11176 14692 78.09198523629603
11177 12128 79.19851636305046
11177 15038 77.74757956360165
11178 14585 77.48918860926406
11178 18928 78.88923456227624
11179 12129 79.0216357528549
11179 15671 77.59795927741375
11179 19958 82.83337677144702
11180 11181 257.3262861309165
11180 11760 487.88679067761575
11180 18455 158.9083155411321
11181 11577 731.0807582811806
11181 19089 204.59698461438444
11182 12512 95.74264046248135
11184 14165 215.30934978818757
11184 17127 220.09293021993716
11184 17128 90.2111933652175
11185 11186 101.64644284067708
11186 14889 156.4699600810397
11187 11188 11.713940819323149
11189 11190 40.52299102794855
11189 15645 32.131877174806306
11190 13414 63.126791566855076
11191 11192 91.40367755789151
11191 11529 115.16519059936152
11191 11530 72.30094515030802
11192 11193 120.82976353954399
11192 11197 115.0454434974786
11192 11198 72.87092412105447
11193 16268 61.90752828579965
11193 16269 68.12235754823372
11194 11195 33.85621797421061
11194 13737 73.39999279543645
11195 13764 63.881559072295246
11197 11529 91.89234724456662
11197 16267 96.4965489795764
11199 11200 89.28703231492901
11199 17253 90.66855628866338
11202 11204 81.66645475182993
11203 19592 90.65648752803934
11205 11206 158.78326804112604
11206 17284 72.90567181967468
11207 11208 37.01416603971193
11207 19676 121.6970207387734
11208 11209 156.73537087551992
11208 18783 69.14578224584899
11209 11210 226.04620795308165
11209 11641 117.18223184907623
11210 11642 77.81227378936552
11211 11212 78.81489741322852
11211 15179 157.0463004339981
11211 15180 69.40509605002376
11212 11213 79.24844365819577
11212 14650 154.8509312543516
11213 13994 153.9266055707785
11214 11215 80.58871750856085
11214 15133 153.6094046515468
11215 11216 77.6407870960052
11215 12844 152.28050736815666
11216 14208 152.6840145887603
11217 15718 76.12287798441889
11217 16617 153.99001698343082
11218 15557 75.68515106532035
11219 11220 123.12907438177353
11220 18547 40.77870167060295
11221 11222 99.28588883069096
11222 11223 187.0121762142869
11222 16652 104.5343713576126
11224 14811 75.12921668859201
11224 19591 85.81166847466797
11225 15784 84.97007360841546
11226 13277 67.80373421769302
11226 13278 253.41611666411384
11226 13716 145.3963297332085
11227 12294 79.10580697602649
11227 12733 79.13772709202561
11228 11439 79.0601492150622
11228 11440 79.86115051309338
11229 12291 79.18364303236477
11229 12734 80.20715528170602
11230 11231 154.6951142503393
11230 11261 79.21843129981463
11230 11262 79.49529396612036
11231 11673 198.27124514888197
11231 12292 79.30435825524039
11231 12735 79.44890665261974
11232 11233 196.83330963669457
11232 12301 101.48866106816676
11232 18772 96.05347957499505
11233 17151 99.85802029480996
11233 18772 290.86718335028695
11234 17145 205.73895585703488
11235 12307 85.0737372937347
11235 12732 100.96421951349566
11236 12298 95.34312534101161
11237 12299 96.90220340781849
11237 17140 101.27651259191956
11238 11239 41.0481428387873
11239 12733 80.14579882687123
11240 11440 79.26000916983631
11241 12734 78.90423611721546
11242 11262 78.71894043060311
11242 12735 230.4120671816771
11243 19133 210.43534664813316
11244 12326 217.49329465091574
11244 17032 552.728322197043
11245 11611 78.68261257822756
11245 11612 79.76566104689833
11246 11513 80.11664100187126
11246 11514 80.65781152687637
11247 11248 78.65412513767787
11247 14305 79.23937528273981
11247 14306 79.47900096374299
11248 11249 77.42226555666845
11248 15185 78.86447634291916
11248 15968 79.27036782437403
11249 15186 87.16644211192774
11249 15520 79.50318807564699
11250 11251 182.7272330269486
11250 15192 75.19543373105341
11250 15970 82.37013991464183
11251 11252 108.72173513930127
11251 11864 79.74501881866621
11251 11865 77.62340986721021
11252 11253 171.83074807381806
11252 15127 77.92771620603467
11252 15128 77.32746956709289
11253 11254 200.9895187838883
11253 15193 76.35040449871863
11253 15923 77.40990777058852
11254 11255 200.07378491304445
11254 13492 77.27085941991548
11254 13493 76.60938823284361
11255 11256 203.2214738170928
11255 14469 77.28090745957618
11255 14470 77.45367011853654
11256 15194 77.94506754229921
11256 15971 77.48558406974347
11257 11645 155.21703185647482
11258 11259 79.03749049752207
11258 15884 154.25284041429796
11259 13005 154.73047962952538
11259 17973 152.25813803802785
11260 13952 149.0741303595181
11261 12292 154.802382797984
11262 12735 155.30542532220068
11263 11264 78.99406677394502
11263 13132 78.23221691229975
11263 13133 77.77768100992301
11264 11265 79.48340098774885
11264 15183 77.64876405661411
11264 15972 78.95595062150073
11265 13412 78.39652519545449
11265 13413 78.52926373390774
11266 11267 38.33034373218785
11266 15184 99.10694769015188
11266 15967 58.324929242356575
11268 11269 38.885265229646855
11269 13053 99.18089281659094
11271 11272 85.56850788037491
11271 11285 79.27264841451978
11271 19455 79.46850579049405
11271 19457 81.85275291537236
11272 12043 79.4794897862471
11273 11274 82.4542518944069
11273 12044 79.42355760903652
11274 12045 79.28047058480182
11274 12762 66.10927802330716
11275 11276 139.92012274148905
11275 17952 246.4904937392471
11276 11277 385.31516996647315
11276 15008 101.58172460871336
11278 17879 17.48496193718543
11279 18575 46.096924141071995
11281 12796 217.283109097671
11282 11283 156.5458577010135
11282 15854 36.72314372704519
11282 15855 76.02507416756416
11283 16775 75.93277652986065
11284 15946 72.01961546668008
11285 11286 79.02806062026038
11285 12042 82.1079962524109
11285 12043 85.49676084557673
11286 11287 79.07339679566576
11286 13187 85.59178558511407
11287 11288 78.6388093841609
11287 11579 85.36172874981558
11288 11289 82.35315178516726
11288 15589 85.29791184146268
11288 19558 82.0793746854646
11289 15590 85.14773092699787
11290 12123 82.7423999098434
11290 12124 84.96238039206258
11291 15591 82.35696827581873
11291 16669 84.8594318584955
11292 12789 86.69316461475724
11292 15592 80.52169030918482
11293 14132 76.59238427288379
11293 19015 29.269105019089807
11294 11295 56.710942200546135
11294 16572 75.41138706070156
11295 11296 24.885490277684514
11295 15595 76.27532815748154
11296 15824 82.61575537668108
11297 13078 109.50988292797042
11297 13079 81.93493334136805
11297 17233 10.639026072290823
11298 16713 33.794726378840565
11298 17903 13.52173740845908
11299 11300 210.76943779864396
11299 12217 291.4917083577208
11299 16126 153.06757723757772
11300 11301 522.1421364008909
11300 15572 43.03754805439622
11301 11302 36.616337203000086
11301 13468 52.86202258588425
11302 11303 151.61190668823897
11303 11304 100.62737052358582
11304 15573 70.46115806530757
11305 11306 211.68230013426066
11305 14537 128.89225842493883
11306 12213 77.09813234681721
11307 14029 184.96494965799513
11308 13530 186.01412140017482
11309 12566 185.13541359016008
11310 11311 79.10539282900885
11310 13788 185.8236905473474
11311 11312 78.62444052114539
11311 12587 186.20261743311653
11312 14333 186.28864141656143
11313 11314 78.92785517483237
11313 12162 186.27658993386837
11314 11315 79.00507655211418
11314 15474 186.4775753918238
11315 13602 186.48761683278912
11316 12690 185.78794589020157
11319 15476 186.25609246658786
11322 11323 310.359629438179
11323 11324 92.55670025987072
11323 11506 125.61982753188263
11324 16687 27.4985717740797
11325 13308 126.730626693082
11325 18319 249.8007849456656
11326 14716 103.36927344710737
11327 11328 71.38754075505562
11327 15018 89.1694573491108
11329 19081 78.90498323895912
11330 11331 80.06520253730737
11330 12617 171.20717242820217
11330 12618 80.75631363832159
11331 15478 170.98575921262773
11331 16527 84.73151303008609
11332 11333 79.04385883482135
11332 15479 170.81856999980255
11332 19525 338.88308647844804
11333 11334 78.97377592658509
11333 11562 170.81984475518587
11333 19523 338.89426489496464
11334 15480 170.81840526333346
11335 15481 170.5098801431925
11336 11337 79.22329757741497
11336 15482 170.9975730884466
11337 11338 79.23957326841035
11337 11391 170.89930200890547
11338 11339 81.8558102288863
11338 15250 170.51033225373243
11339 11340 82.12711878592752
11339 15483 170.5202537409463
11340 11341 79.0449025023912
11340 15484 170.98888613562963
11341 11342 79.51253054771746
11341 11795 171.13100592202403
11342 15485 170.88621814829287
11343 15162 171.44058291607286
11344 15486 172.11887872977877
11345 11346 78.97564537106337
11345 15308 183.4830117851338
11346 11347 79.11403185879966
11346 14295 183.90601213590705
11347 15487 183.60541738999345
11348 19081 81.20598619682727
11352 11353 81.75439431071352
11352 12711 405.24638051036794
11352 20105 162.35315387672938
11353 19625 202.68015759913123
11355 11356 39.47788418483948
11356 11357 80.39899880126994
11357 11358 129.7005439781821
11358 11399 295.61626865427576
11358 15034 73.41084997982355
11362 11363 13.946460847642069
11362 17169 177.06119786654196
11362 18457 75.76222061449167
11363 18457 74.7745511824634
11366 11367 108.27928923263983
11368 15342 77.02400561848657
11370 11371 83.44786311281376
11370 11637 65.02239867001447
11370 11638 279.4318160545897
11371 11637 53.364762590249875
11373 11374 79.71883867214513
11373 14230 143.2455192576945
11374 11375 78.0815437527397
11374 16060 142.88434946667542
11375 16061 142.90566102478505
11375 19498 79.63899279574179
11376 11377 110.06162036672437
11376 16062 143.0577051998483
11377 11387 24.1913603526547
11377 15277 55.22407338613209
11378 15243 79.06443491012988
11378 16049 79.31937211333116
11379 11380 87.80033793669789
11380 14729 79.45972703430463
11380 14730 79.16436214318716
11381 15246 78.10921505626601
11383 11384 201.64636618550216
11383 11397 19.76712548223144
11383 16053 56.03118365935043
11384 11385 194.38506600349513
11384 16045 77.24309440919136
11385 11386 13.530093235748318
11385 16046 77.44945596085904
11385 16064 113.10231959766314
11386 16047 76.62359784526028
11386 16065 115.7333449497415
11387 11388 172.16355296892985
11387 15248 80.06295964139366
11388 11389 169.73738412371443
11388 15249 78.65729015770464
11388 15903 78.77178434040697
11389 11390 173.49018145057315
11389 12021 78.80915671773874
11389 12022 79.08968734722016
11390 11391 174.01113197283618
11390 14940 79.18878548158203
11390 14941 79.26626923678332
11391 15250 79.20902973840303
11391 15482 78.89795345558973
11392 16048 76.73235289567111
11392 19517 137.1826222685719
11393 11951 242.15069965050483
11393 15251 78.99636161540965
11393 15877 78.09168679587685
11394 14449 105.57494103592096
11394 18292 24.375316690572763
11395 11396 138.86466191945044
11395 15241 75.94172370124204
11395 15987 76.08189211967589
11396 13869 76.4374632804294
11396 13870 75.69776863426763
11397 15242 75.49346271445567
11398 17975 87.0579553764232
11400 14252 66.70888037661813
11400 15706 54.02941342950129
11400 19070 75.39147688022636
11401 18073 43.58364394642853
11401 18074 57.00816130365437
11401 18075 83.36419403313582
11401 19093 51.340309771945584
11402 18073 89.48213400249688
11402 18074 12.410659186248692
11403 11404 79.18444819713154
11403 12862 136.83249325532017
11404 11405 79.28305178125625
11407 11408 128.0356708815811
11408 11690 68.16534720904029
11410 16371 176.37148999244326
11410 16832 91.2015382871666
11411 18261 95.77352217416824
11412 11413 66.65636173819422
11412 13836 87.83862288079301
11413 11414 13.64491944844473
11413 12859 175.77045661562875
11414 11415 52.37758347783373
11414 15953 89.83314776851981
11415 11416 90.43024120074247
11417 16182 198.98920864422675
11418 11419 395.11094266026976
11418 14314 152.21232613423754
11419 11420 104.27455475688853
11419 15531 202.65426940380672
11419 15532 152.4281419484439
11420 14541 84.65388031797417
11422 12848 176.93050621941532
11422 12849 139.66408753658322
11422 18348 61.77957111342192
11422 18453 11.68264935403968
11423 12524 109.87006153060591
11424 15186 476.5474405908054
11424 19187 440.85676232564816
11424 19927 90.08744398699358
11425 13027 79.37132565014028
11425 13028 78.7739355580939
11425 18746 74.12221730985452
11425 19969 116.51518282452281
11426 14352 100.1719711999635
11426 15393 79.3966981976755
11427 14456 78.61824374019844
11428 11429 79.61863241678728
11428 14484 79.6767816319341
11428 14485 78.61116431047373
11429 13742 79.46820391105695
11429 18481 72.45567130518319
11429 19814 73.0269349004611
11430 11431 78.80722043508405
11430 12768 163.69233873318325
11430 16148 79.26441853414715
11431 15922 43.69825330641408
11431 16643 148.2812444892472
11432 14468 134.19055003374345
11432 14801 80.40725855111107
11433 11434 78.93761038770461
11433 16275 104.63526541806169
11434 16338 105.56307411595492
11436 11437 78.90450331823
11437 17935 79.23891297628677
11441 11442 78.82789097198938
11441 17326 63.97810353978285
11441 17488 45.321816959318745
11442 11443 79.33163346987999
11442 12402 78.86590830318424
11442 19627 62.94158201367684
11443 11900 79.7941461644418
11443 19415 58.992537078208265
11444 13129 79.02530661601796
11444 13130 79.25879700915797
11445 13832 142.9672368423839
11446 16123 150.17397477590325
11447 14635 131.4356403338954
11448 15542 80.294034972167
11448 15612 75.69056156671982
11449 15543 80.7609893083575
11449 16032 76.0797160969653
11449 18192 150.3792469434205
11451 11452 40.119186207030275
11451 18003 98.01143088467458
11451 18756 32.886182117600256
11452 11557 38.662530611132595
11452 18003 100.7835182209338
11453 11454 133.13052561949888
11453 16548 28.16433280850305
11455 11456 103.7578870166059
11456 18892 38.22850840431347
11459 11460 74.5781128116466
11460 13381 192.97797415898572
11461 16121 150.0853112705035
11461 16293 31.050622706559707
11462 13677 194.19830352503033
11465 11637 118.54323935396017
11466 12538 94.84989360496687
11466 12539 69.06361169458799
11467 14106 149.2572562332867
11467 17831 190.76194409370163
11468 11469 152.0132784197151
11468 13055 54.97587090181171
11468 16268 88.34686230506674
11469 16269 90.43664930384652
11470 11471 83.85095117386442
11470 11472 12.022525217118314
11471 16671 59.742458857054025
11473 11474 98.35935255979054
11473 13033 76.56896727390837
11473 13620 75.99074579632986
11474 12371 76.31339649293407
11474 12372 76.67000058863425
11476 14319 95.25431501056168
11476 15373 53.154049825368716
11477 13037 76.88160985268344
11477 14317 122.30263216380192
11479 11480 159.48817126591644
11479 13047 71.61096398436396
11479 15068 78.61545307573572
11480 13048 78.8087054712781
11480 16022 79.52696293411987
11481 11482 156.2577800114032
11481 13049 79.04436522239773
11481 14127 79.51488430621515
11482 11735 79.11597924118746
11482 11736 79.45771910604489
11483 11484 185.53141737289732
11483 13051 79.56211672111114
11483 15119 79.17160891413343
11484 13052 79.39338806591365
11484 14675 79.75108826992901
11486 11487 172.7079295952038
11486 13044 64.54442393127752
11486 13465 141.7949620733921
11487 12198 90.8578241519657
11488 15149 79.95006963453007
11489 11490 82.95803780645085
11489 14351 92.23641016094847
11489 20078 66.93159448806611
11490 13027 78.88013734093116
11490 19926 62.35796421509654
11491 16661 81.53843024476569
11491 17965 202.53710673010707
11492 15823 166.35493877814804
11492 16570 97.74343810163954
11494 16543 82.76514460284038
11494 19216 16.247905684137006
11495 11496 80.4063925468651
11496 13175 104.96261213475863
11497 16654 97.58709098335478
11499 11500 36.69644673992407
11501 15219 57.48520178282043
11502 16659 56.838602858655186
11504 14583 204.30632625330088
11504 16299 87.74232678667202
11504 18885 7.418183038834614
11505 18884 41.259405601644445
11505 18885 178.20528526258641
11507 11526 19.58275850730763
11509 11510 79.81251175127964
11510 18722 113.63026273953847
11511 16616 31.235890025667196
11514 11515 78.29246573766059
11515 11516 79.24568920537968
11516 11517 79.00166004867336
11517 18700 72.9909203749588
11520 11521 146.68225610381128
11520 12196 303.12740449733974
11520 12197 116.75875505457645
11521 11522 147.43722744180556
11521 14318 95.7500865955034
11524 11525 76.06664232365029
11533 20096 98.23126449568483
11534 13064 316.2819154815258
11534 13065 117.75686403839538
11535 11536 143.51643138708
11535 14983 28.36462007340024
11536 13835 78.0422213107502
11537 11538 157.91435041983118
11538 11539 112.28697576456987
11539 11540 73.99370349244484
11539 19171 13.745403599798408
11540 15418 96.37649172682026
11541 11542 73.44312449300618
11541 14526 91.51519211302272
11542 16726 156.1766672036944
11544 11545 64.22591372341975
11544 16134 79.62603452031716
11544 16304 77.63339779093073
11545 11546 139.4227514168585
11545 15553 78.39539122432005
11545 15554 78.27042645091335
11546 11547 193.7840856675211
11546 16135 78.79186883589513
11546 16662 77.88342241196275
11547 11548 13.736962952142656
11547 16136 79.0602408633403
11547 16663 78.61628171211349
11548 16137 77.50365075817935
11548 16664 77.29945088618001
11549 11550 13.810607092226531
11550 11551 60.68209515330189
11550 12146 110.36822514387993
11551 11552 47.21600157124311
11551 13888 37.75588532892933
11552 11553 30.824356116691234
11552 13888 38.06643991934264
11554 13833 179.6276600533718
11555 18755 79.27099047149419
11555 19048 51.330962098358725
11556 11557 39.80784682171467
11557 16031 72.71900956795562
11558 11559 46.45834906426348
11560 11561 173.94382462026954
11560 12018 80.06414765300913
11560 12019 79.09082499453204
11561 11562 173.62099324151362
11561 14937 78.60534790865026
11561 14938 79.01787591822583
11562 15479 78.71114962241724
11562 15480 79.37310443113044
11564 11565 109.36200978369392
11564 16138 78.93164884971767
11564 16583 79.47685772494924
11565 11566 170.96245082186388
11565 15273 79.19592899085549
11565 15274 78.97779126646343
11566 15900 78.49342684527274
11566 15901 79.0679177407574
11567 16139 76.41327333364957
11567 16665 76.09515885482197
11567 19524 137.97472637054176
11568 11569 136.97095601918795
11568 16140 76.50429122643064
11568 16667 75.63532299870705
11569 15748 76.47057583345764
11569 15749 76.01659779473682
11570 11571 101.7367467540656
11570 15984 75.86421934231122
11570 15985 76.09722712905153
11571 11572 67.09772244249793
11571 16141 75.88542817205358
11571 16668 76.63287422533229
11572 13861 110.92716447485043
11573 11574 55.79970922733365
11574 11575 179.8359908447211
11574 18124 66.34147230179121
11575 11576 258.30780014970054
11575 15292 183.5824901078054
11576 11577 106.14728322293927
11576 19090 234.2645581114994
11577 11578 120.00265474304729
11578 19089 648.5316251837327
11579 13187 79.28578395463681
11579 15589 78.08934508529686
11580 11581 82.19523528291525
11580 13188 79.7167645906012
11580 15258 76.84323755865091
11581 13189 79.89592027047802
11581 14691 77.38296388999387
11582 13190 79.77170437259552
11582 15037 77.46240701892924
11583 13191 79.86796550487213
11583 14586 79.40034837562416
11584 15670 79.0940621245498
11585 18977 32.840129626234415
11585 19004 60.697754870124655
11586 11587 33.427037168135826
11587 13435 41.11148069886237
11588 12443 101.9578564853673
11589 11590 14.731929988550528
11589 17704 59.9142195258069
11590 12385 128.50870249596517
11590 17702 64.1896114963925
11591 11592 209.28568631420566
11592 11593 214.097789612467
11592 13761 102.04613783315118
11593 11594 188.02915463203323
11593 13161 88.45794110048254
11594 13737 50.77272986184032
11595 11596 102.18655900130975
11595 13014 191.92406339099244
11596 11597 407.17718872681075
11597 11598 199.09102812102836
11597 15818 99.13562997453221
11600 11601 74.0453142844318
11600 14502 159.10219521847034
11600 16482 62.02215642370925
11601 12864 159.2815295663943
11601 12865 67.08774110414818
11603 14408 97.71833556710385
11604 11605 79.23622369238377
11604 13739 78.89465174424798
11605 12249 78.87093556474963
11605 20009 51.215926541292994
11606 13100 79.28330882317371
11606 20009 25.191057209583114
11607 13740 79.10503135679457
11607 19877 74.43564816776481
11608 13741 79.10499593586516
11609 13742 79.10430743056963
11609 19813 73.03234796369037
11610 18478 73.0996897924681
11610 18479 72.9784582458448
11610 19816 73.30380758998926
11612 11613 79.28264522519713
11612 13744 79.42441523104237
11613 11614 78.90079368479923
11613 13745 79.65060133601958
11614 11615 78.95534116990463
11614 13746 79.90555788597379
11615 11675 80.1495152857329
11616 13747 80.97301959231928
11616 19807 73.33785821592812
11617 13748 81.39592981854923
11617 19805 73.32116457928645
11618 11619 105.92975704813568
11618 13750 77.83676519692703
11618 17703 84.384118606719
11619 11620 49.805292618051524
11619 13751 77.89287695723736
11620 11621 58.78928043156399
11621 11622 107.30163470241025
11621 11743 77.95966256029209
11622 13752 78.17089731068235
11623 13753 78.72858790213459
11624 11625 105.34521208891213
11624 13588 78.82681100193734
11625 11626 240.6310932578308
11625 12277 78.8495152874843
11626 13756 80.16057453720401
11627 11628 85.74302523070236
11627 13762 97.62728218967783
11629 11636 132.55238300178266
11631 11632 270.96779654196376
11631 13764 81.60290811544156
11632 13454 81.20716057622562
11632 18361 82.71369165846494
11633 12532 72.24695879626881
11635 13348 118.0335477410344
11638 11639 58.348244619922596
11638 16600 85.94132079091052
11641 11642 135.11727432187217
11641 16121 168.60769177937505
11641 16293 114.38612720980905
11642 13376 79.50086822462501
11643 11644 78.36422716852923
11647 16289 78.48680050620936
11648 18938 60.513905409434024
11648 19605 53.0474458835946
11650 13676 77.56456798799407
11651 12422 388.53279191112625
11651 15218 72.22291011362856
11651 19614 146.99726230736132
11652 11653 59.39472777780149
11652 14629 38.043935177692404
11653 15800 77.41646085680208
11655 15956 79.0757184123303
11656 15349 78.7164335137963
11657 15378 79.69865019556799
11657 16901 194.97274119831002
11657 19102 201.05393167811474
11659 11660 40.438123629554376
11659 17351 26.326142676521503
11660 17351 31.566500581864602
11660 18062 206.9292156031983
11661 18062 43.006494103807626
11662 16678 185.15948561554353
11663 11664 43.678726656422185
11664 11665 59.99915431991519
11664 14080 49.90225318679683
11665 11666 153.13202367774795
11665 14080 42.57926211489726
11666 11667 37.02075388482669
11666 12220 88.32739413980735
11666 15650 283.72724507116254
11667 11668 49.0361075745056
11667 12288 34.27016640931147
11668 12288 43.08464120668343
11669 11670 151.56829671421212
11669 15774 72.88737887463132
11669 16258 87.45949056852047
11670 13046 75.26562894358499
11670 20043 37.347268133816534
11671 13005 125.4407986473079
11671 13006 73.89876393346347
11672 19379 115.50026511092842
11673 12295 77.00732058784585
11674 11675 78.87196812367286
11674 14489 79.10027880520985
11675 13746 78.72740957400049
11676 13653 76.40645529537821
11676 13654 72.52574731870273
11677 11678 77.36001076069246
11677 11680 384.8107286611489
11677 17090 79.17286968985627
11677 17099 232.97131429110047
11678 11679 127.83090789845082
11678 14472 100.36063839691103
11679 17092 37.59681095432699
11679 17883 34.131574253595105
11680 15925 74.35510113327744
11680 16724 489.5858134330308
11680 17098 80.24548064558583
11680 18010 87.63523241616629
11681 11682 49.25997718913135
11682 11683 14.766781188837983
11682 15776 75.94856156590569
11684 15779 103.55621311797864
11684 16176 77.97977535477068
11685 15055 444.0292707946822
11687 15498 60.40530752273841
11688 14880 83.41232815550822
11688 16493 264.6094729806034
11689 17369 60.60499120490314
11690 11691 61.97151147297725
11690 16780 82.59099636117321
11693 11694 64.6270879659779
11694 16500 62.15556480991584
11699 13223 138.75551960102675
11701 11702 83.06786166860181
11702 18881 11.35379243962757
11703 11704 65.22726175642914
11705 11706 44.222439527913764
11705 13391 116.66280733607995
11707 17239 135.81628958828406
11708 14242 89.0669953124599
11708 17992 133.03214179071017
11708 19138 90.65030586536302
11709 16257 113.99652112588268
11709 19876 116.9439766934356
11710 14893 137.37695664786895
11711 19803 64.34715835043048
11712 14914 79.04578837316326
11712 19426 80.41123082346125
11713 11714 157.67077914594958
11713 16998 78.94666507842257
11714 11715 158.31502976125282
11714 13282 78.88353020357059
11715 14915 79.30494810798093
11715 19287 157.96409173538444
11716 11717 80.14665094539609
11716 17773 61.608931463548856
11717 14911 79.95125276854208
11718 14781 78.77541862925403
11719 11720 79.39816456268511
11719 12323 79.46499784024144
11720 14912 79.28613304051449
11721 14913 78.92581091744438
11722 14660 78.55175671474775
11723 11724 78.32972905790854
11723 13838 80.66878981760026
11724 11725 49.47817335824688
11725 17187 51.81342594766562
11727 17396 107.55093619405886
11728 11729 79.26100032848191
11728 19825 108.51385152443913
11729 11730 79.33170030450249
11730 13073 107.87500697519701
11730 17887 153.09037717313484
11731 11732 128.94532576787893
11731 13682 76.33504270480991
11731 16394 75.82689789401711
11733 13685 79.16356299149297
11733 16177 82.77096041310352
11734 11735 79.49338980547058
11734 14126 158.21116788406172
11735 14127 157.86938297170397
11736 11737 89.11381374019376
11736 13049 158.48914250922337
11736 13050 187.29505218105874
11737 11738 14.657377151460022
11737 13050 216.50629839744545
11738 20052 146.35859846992295
11739 11740 78.77282429374314
11739 13143 81.36507787573616
11739 13144 108.84473009238579
11739 18469 114.93245660066364
11740 11741 79.51693486006683
11740 13915 108.07920599688771
11740 15643 122.6700621109766
11741 13425 107.49837733155347
11741 13426 108.42443806174673
11742 11743 79.57281387339084
11742 13916 107.82793579034913
11742 14493 107.83595828298994
11743 13751 107.90738005095508
11743 13752 107.9930655934732
11744 11749 23.991930640581316
11744 17653 54.41240349048144
11745 11746 71.94808926124225
11745 12112 70.26537867770395
11745 12113 226.13814650604107
11746 14855 61.40168396966406
11746 18427 20.822277214398383
11748 11979 76.38868416700282
11748 11980 75.69488073913283
11749 13917 77.45201253620313
11750 12413 140.91128534140165
11750 12414 93.14097629307807
11750 19565 52.09013149917959
11751 11752 617.9999721262006
11751 15295 437.4162142543622
11752 17924 361.6739576017986
11753 11754 109.72459977695169
11753 13091 105.80466511849191
11756 14132 78.84908866333666
11756 14344 164.48862814665523
11756 19015 135.7132330494321
11756 19034 12.553877330335967
11757 11758 48.176021881050644
11757 14133 79.23403030420442
11757 14608 79.84960729861226
11761 13199 511.9790436162667
11762 19391 190.71929306756462
11763 15633 80.24441553358682
11763 15636 61.51394530926997
11764 11765 81.05434319547591
11765 11771 46.94700521657288
11765 15050 300.6044002849857
11766 11770 124.97342910213476
11767 11768 160.53799501659032
11767 11773 20.691318487215092
11767 19568 98.79024785456446
11768 11769 50.48472997452577
11768 16784 38.01816503132761
11770 14752 47.82209714436343
11771 11772 93.49605540555757
11772 18392 145.3928402223429
11774 18863 53.052426541624726
11775 11776 108.81284925363062
11778 18815 82.92643034490516
11779 11780 26.165264739848222
11779 16659 198.84434332454012
11781 11782 400.1725006389651
11781 15313 128.58775150502242
11783 16654 207.93506660621665
11784 11785 66.1168632995757
11784 16544 198.17924263334152
11785 13675 107.95787616867423
11785 18417 183.82543831925506
11786 11788 221.72183536717654
11786 16538 213.54634514292803
11788 16538 90.6769798600058
11789 18816 71.19204321314466
11790 15805 79.96276660160159
11790 16767 78.16420763364232
11791 11792 170.9643238693265
11791 15281 61.19516394935252
11791 18495 74.28325311567843
11792 11793 170.80949825743582
11792 15904 80.35351320045487
11792 18506 72.29603799185004
11793 11794 174.0106522210715
11793 12023 79.13632672573307
11793 18519 71.72144783301314
11794 11795 173.48972043539743
11794 14943 79.12633679265564
11794 14944 80.34106984842897
11795 15484 79.46865574973816
11795 15485 79.85600140211291
11796 15139 84.70057376219751
11796 15140 80.25561119984607
11796 19513 125.37270775851718
11797 11798 194.00232514772
11797 16308 32.50341310553332
11798 11799 203.72051547478176
11798 15807 83.43797933579125
11798 16743 83.08839464201398
11799 11800 12.822645875432993
11799 15808 83.27254699929978
11799 16694 82.96824861018172
11800 15809 83.31107103438397
11800 16697 83.4662315031035
11801 11802 152.31502914493902
11801 12150 83.5402108596515
11801 12151 83.47793663020636
11802 15810 83.14099411894834
11802 16523 83.09430823890405
11803 15935 84.02589235672264
11803 15936 214.02614109224527
11804 11805 136.81208656984992
11804 15765 78.47826033731783
11804 15880 75.2498026692053
11805 15732 75.66196989500439
11805 15733 76.79759794146575
11806 11807 138.565654052851
11806 15814 75.25143711552619
11806 15989 75.8948414573278
11807 13872 76.37677302322821
11807 13873 74.78073217941636
11809 11810 81.70009895869555
11809 19480 78.3989640356842
11810 15289 79.74559935668805
11810 16072 88.06189386640133
11811 18438 78.89172009474309
11813 11814 79.44506153974116
11814 11815 63.62311844392468
11815 11816 74.8647084641643
11815 19035 160.67273331013865
11816 15284 79.35162884288928
11817 15285 78.27529584689584
11817 16290 45.559928660388586
11817 18412 145.62148037261696
11818 16468 236.4743023230402
11818 18411 78.60580153620947
11819 11820 80.19515627258345
11820 18036 158.78742340005414
11821 11822 80.50710369401243
11821 16573 43.30852447693085
11822 16369 82.2119777517349
11824 11825 201.55572219809437
11825 12941 606.6756288769159
11826 11827 290.830194544767
11826 19843 312.5900714890114
11827 11828 30.34915446024105
11827 15239 622.8451510203085
11829 11830 151.8370550505413
11830 17853 153.54940512229857
11831 11832 50.15095116432927
11832 14172 146.36037122726273
11833 17824 80.33355352067963
11833 18935 154.57620693301183
11834 14174 143.05682533770906
11834 17823 140.37563936166794
11834 18933 83.48542933375076
11835 11836 116.93409688625523
11835 17822 137.68316556392068
11835 18933 6.048820755075287
11836 16567 36.675856839038865
11837 11838 97.4244533491944
11837 13472 100.3615427356577
11837 14181 111.79177441013461
11838 11839 97.48000615278625
11838 14182 110.30460768359187
11839 17818 109.15182848001203
11840 11841 99.16819013978693
11840 13482 112.54043376129786
11840 14055 169.36121081568754
11841 14188 195.04618384564438
11842 11843 126.04383032534292
11842 14189 204.72947489665734
11843 14191 205.53901977462743
11844 14192 207.35320254262595
11845 12989 240.34969227058946
11845 18586 9.244733625203876
11846 11847 76.57584102537584
11846 13151 22.82034940551446
11846 17860 78.23063512844226
11847 16706 74.94481315493128
11848 13733 83.58908368370803
11849 11850 150.89292179756842
11849 11853 40.77895039593945
11849 18680 38.51128852901064
11850 11851 151.35541891893774
11850 12896 79.25599014261712
11851 16178 78.60390940307114
11852 11853 441.46558764160727
11852 15565 88.19104054192408
11854 16838 309.31554260408706
11855 18602 78.11077119822788
11857 13444 80.99774513572724
11858 12341 80.11807971625534
11859 11860 200.90844777123627
11859 11873 19.142015859659505
11859 14598 78.06194967166704
11860 18463 8.161901609978793
11861 14595 76.80443912682475
11862 12549 52.67681111549207
11863 14361 90.8895947712812
11863 14362 78.5041776846951
11864 15127 108.26766998334031
11864 18470 92.63663245301481
11865 11866 74.31667007908835
11865 15128 109.23380740234118
11865 15192 182.53120482421994
11866 11867 74.37986531568039
11866 15129 108.89278546603623
11866 15998 182.69400871475878
11867 15130 109.03545807801075
11867 16724 183.07678432452593
11868 11869 105.66748214566587
11868 13631 79.58323836394284
11869 17817 101.60789359326458
11869 18251 78.49269754516457
11870 11871 201.93780899780847
11870 14266 97.80318677657293
11871 11872 201.3390361966361
11871 14596 97.22125650116405
11872 11873 200.97887096994822
11872 14597 97.83365488558391
11873 18462 76.4313157294927
11874 13814 75.72836166919782
11874 13815 63.38175205976493
11875 12822 76.10534101446471
11875 17370 77.11200535337248
11876 14600 76.55340449932906
11876 14655 76.25403475757352
11879 11880 82.08503772539692
11879 13578 80.49424359244384
11880 11885 85.53923113966405
11880 12271 81.26215905188502
11881 11882 73.9493998625547
11882 14158 283.76836902194503
11882 14594 61.51328509289873
11883 17500 70.24755742892796
11883 19017 104.42353361077721
11884 18632 140.5757278786548
11884 19017 42.62367868161947
11884 19744 261.42706321974924
11886 12390 75.81576867891327
11887 13243 185.30133797132612
11888 11889 78.97962928588679
11888 12526 186.22145786366178
11889 13110 219.31010109201824
11889 13242 185.06228212369757
11890 13111 219.2327949509948
11890 13241 184.77316096089436
11891 12391 52.397005309554594
11892 11893 215.33851972749093
11892 18995 79.84979773719274
11892 19564 235.13745292732483
11893 13255 121.36943566934158
11894 12415 76.40241096014495
11895 16326 130.57656972436934
11895 16327 76.04667816927517
11895 18216 200.00933867218578
11896 11897 80.31612133321151
11896 12397 79.65842965667419
11897 12244 79.794299902788
11897 19458 76.62380111718628
11898 12399 78.99462743456496
11899 12401 79.29395601152825
11899 19415 20.916621866654786
11900 19414 71.6436095801105
11901 11902 158.36441917406853
11901 12404 78.97372436457037
11902 11903 158.54821664788722
11902 17866 61.4362841437712
11903 11904 156.59507439666567
11903 12406 79.12676784440812
11904 11905 169.08238964597334
11904 12407 78.43249512402907
11905 12408 74.74535567422481
11906 11907 135.15627385811612
11906 12409 77.31920599457044
11908 11909 107.7541285135288
11908 12393 71.98440886098828
11909 11910 86.31969509720541
11909 12394 72.57635125856424
11912 13107 285.65617883299154
11913 12416 75.57037801863916
11914 11915 46.52040517460751
11915 13248 162.19493868565183
11917 12481 41.73465022003703
11919 11922 33.592645512948515
11919 13244 152.60690196235254
11920 13229 240.81160274210035
11920 15865 38.13991451256005
11923 12418 75.00239861645203
11924 19565 115.80583979117081
11925 13148 265.119863051983
11925 13254 137.83242623644975
11926 14291 167.50816969215515
11926 18996 222.37061456002
11927 11928 134.0910855082828
11927 12654 148.96630534672977
11928 17869 36.92824110994729
11929 14218 54.32247794686951
11930 11931 71.88775603775898
11930 16585 200.5128039744973
11932 11933 126.67391179942982
11933 11934 219.1326931066136
11934 11935 174.7109134258677
11934 17779 67.28861519113222
11934 19345 79.42044956915855
11935 14010 79.10394147807112
11936 11937 76.3147157957782
11936 15696 47.32294802760029
11936 17617 169.42920514022504
11938 19569 140.384423189552
11939 11940 88.80073622034524
11940 11941 53.35187933830287
11940 14011 79.8558630200479
11942 14012 78.86608615519687
11942 17764 83.1429684301276
11944 11945 12.9208710733759
11944 14005 75.01768384464032
11945 14006 78.76775539401304
11946 11947 78.33831527717453
11946 14007 78.92556931029213
11946 19163 171.1406356528369
11947 14008 78.43937134261152
11948 11949 112.73979155566028
11948 11950 137.65442527026568
11949 12238 732.9204388187234
11949 18317 11.856834909632326
11950 17902 113.49805517038381
11950 20129 4.091908272359163
11951 11952 160.15437423360308
11951 14449 65.89449413845061
11951 15731 103.79290770379184
11952 15731 66.72753990063251
11952 15879 71.37056076982037
11953 16489 74.694147211871
11954 11955 202.51887750096955
11954 13313 159.86931679800915
11954 14750 75.91482756786196
11955 11956 298.19450529629756
11955 16721 76.35650636371543
11956 11957 229.77950754940966
11957 16638 98.20272832737498
11957 16721 515.2420234634387
11961 11962 160.38841227745053
11962 11963 134.5522265160684
11962 15469 55.73165530613029
11963 17287 191.02156492056753
11964 11965 43.747437527737226
11964 18466 129.6775390201698
11967 14141 221.4206556243938
11969 11970 71.73381499595402
11969 13066 98.62271597609599
11971 15777 120.41430524460542
11972 11973 157.18977515215803
11973 14052 67.51847210675214
11974 17402 16.15370244401582
11974 18238 8.338597331854888
11974 19704 11.912517680871604
11975 14143 121.50993203706264
11977 12543 39.266562420618364
11977 12544 86.32469330789505
11978 15369 71.67729638662504
11979 13369 38.39041073613644
11980 11981 49.09643394282374
11981 11982 78.05694514971711
11981 13684 81.69650423402301
11984 14672 81.3280858907278
11984 19589 79.33593699219851
11985 11986 81.94074750674254
11985 19589 79.01802657259623
11986 11987 81.85433333420536
11986 12268 81.5322785263198
11988 11989 53.828701658311445
11989 13978 200.8411423260102
11990 11991 48.559367916881705
11991 13441 200.66401879290245
11992 11993 40.83341414842332
11993 12356 201.06306913895605
11994 11995 34.53455701546981
11995 11996 34.34746785859088
11996 11997 51.07685229927189
11997 11998 87.27187485233243
11997 12387 128.84293234001657
11998 11999 367.190407969509
11999 12476 67.49541803229704
12000 12001 36.56677875755301
12000 16301 46.757015024645995
12002 12003 43.8247826033728
12002 19689 159.68406480570755
12004 12005 143.13044439189972
12004 14532 84.32861030341326
12004 16267 43.582818014871286
12005 13054 84.04986697897627
12005 13055 81.20802276286173
12006 13166 155.69215857181155
12007 12008 88.51570807641858
12008 12009 197.61414984132296
12008 13306 76.30316663867328
12009 16537 78.2073803578904
12010 12011 97.98332637577873
12010 12025 47.70270681168991
12010 15905 122.8483531861348
12011 12012 75.8649772830356
12011 14947 224.0863210719218
12011 15307 128.55280828269952
12012 12013 96.02404579126775
12012 14293 128.58601840444308
12012 14294 225.56948613200015
12013 12014 67.1264439700286
12013 14948 218.40261128515976
12013 15906 127.3630632136063
12014 14949 215.7629863686413
12014 15605 126.22888994199212
12015 16534 95.94339312934147
12016 12017 78.31101923881357
12016 12615 171.83145800571793
12016 12616 173.06448866030811
12017 14936 173.02426781389482
12017 15899 172.13000449855468
12018 14937 173.86671626412524
12018 15900 171.28561405738824
12019 14938 173.98821666270277
12019 15901 171.0784056753556
12019 18439 78.62957061632856
12020 14939 173.535745815959
12020 15902 170.60693054127142
12020 18439 78.98891563060502
12021 14940 173.532400670131
12021 15903 169.90378275464982
12022 14941 173.5678801611653
12022 15249 169.98709478735103
12022 18521 76.37246495955034
12023 14943 174.0106778906444
12023 15904 170.80956967984483
12023 18520 75.73238186519278
12024 15161 170.5407222308699
12024 19606 173.4416291892004
12025 14648 76.96925113889512
12027 14774 170.9069077459783
12027 14775 171.69634008315094
12027 18526 72.71834851594673
12028 12029 79.14317395867307
12028 13709 170.76240107896825
12028 13710 171.70761801768523
12029 12030 79.04204834869363
12029 12492 170.79564931118372
12029 12493 171.7297727756954
12030 14951 171.44058916858353
12030 15892 171.05158933622408
12031 14025 171.02917263960623
12031 14026 160.6729568900182
12032 13535 170.9179718872695
12032 13536 102.8890942304431
12032 18539 72.67174998880786
12033 12571 169.95690503398433
12033 12572 113.50803791720783
12033 18538 73.17745195126982
12034 18761 86.94103362957551
12036 12711 86.3288607051785
12037 12038 202.6285392537275
12037 15052 154.32972028173765
12040 14399 144.11190954984377
12041 14954 217.08941003147868
12042 19457 79.12675449784206
12042 19594 74.57334821969309
12043 13187 78.93229292397253
12044 12045 82.1153167470144
12044 13188 78.92211145591311
12045 13189 78.9744314041181
12046 17263 79.41461689130749
12046 17265 83.58262829525228
12047 13190 79.97063815172265
12048 13670 79.5919660567546
12049 12050 151.95751113705398
12049 15189 79.09320163886596
12049 17678 61.001624922465275
12050 12051 148.5443147352391
12050 13653 78.76120834119457
12050 16503 79.5720093494163
12051 12052 131.3781887953593
12051 13654 78.80406718486259
12051 15778 79.37331887068012
12052 12053 220.75921211119004
12052 15066 78.84845851457638
12052 17673 81.18447491274694
12053 12949 78.64896396302552
12053 12950 79.448942590688
12054 12861 92.27012471636459
12055 12861 12.188156412418476
12055 19849 403.5351183381928
12056 12057 78.7247743229421
12056 16429 152.4154200076677
12057 12058 83.6180607873047
12057 12752 155.36664990636262
12058 15835 156.54211648044424
12059 12060 92.04125599123137
12059 16843 42.50750214485711
12060 12090 80.60973297932377
12060 13659 20.49343320230512
12061 12062 95.76961028931824
12062 12063 227.19142476758773
12062 12447 69.4483792113705
12062 12448 56.803072173644395
12063 15782 76.08168806325187
12064 19836 331.9406689252447
12065 13658 121.22612414493784
12065 19123 55.24299152499124
12066 13637 78.94943387226208
12066 15375 80.35532484371706
12067 13638 78.51519724211991
12067 14935 79.91782219072311
12068 13639 78.63719448505476
12068 16495 79.44904100073784
12069 13641 68.07403167657286
12069 16086 79.71645979100381
12071 13650 80.30525620174494
12071 14440 412.3679789429083
12072 13663 76.39673153641574
12073 12086 45.83225611587681
12073 13389 82.62535786385709
12074 15230 132.56989467728232
12074 17680 33.38299484377717
12075 14129 109.57173553792174
12075 17680 52.85443367808063
12075 18684 75.33150895092092
12076 12077 156.53022200228278
12076 13644 80.29410646557261
12076 16505 81.4948902741788
12076 18685 84.4608719530771
12077 13645 80.89450785922604
12077 13918 78.70465537603724
12078 13647 79.04932862768632
12078 14670 79.24873770292353
12078 17685 62.00659670461418
12078 18688 133.87836050505274
12079 12884 151.53139994697096
12079 13648 86.37732191665496
12079 17671 77.29763062356692
12079 18695 69.43464841866265
12080 12081 153.9236301559086
12080 12357 150.84060009165833
12080 18677 67.23690585482726
12081 13616 81.9595463035171
12081 13617 71.9741978903796
12081 18824 95.97696725977669
12082 13481 411.7149435301444
12082 18679 37.56896825696083
12083 12478 419.49235652780715
12083 18693 20.682661861851695
12084 12105 80.05608957992304
12085 12089 121.85271211119877
12085 18355 224.08197770628828
12086 13388 234.82453111364012
12087 13667 86.3790017698483
12087 15345 77.04736080142129
12088 13087 76.83591161484544
12088 13088 125.73961808896199
12089 13668 78.85037693444923
12089 15097 78.2375454971805
12090 15147 35.3307643412104
12090 18861 217.1036801318936
12091 12092 49.91137377330338
12091 12876 110.4345473340729
12092 12093 206.2442091491688
12093 12094 246.93524897183784
12094 12095 200.76500062096775
12094 12877 242.26474553994575
12094 15861 241.22982078675932
12097 15449 78.94160517356218
12098 12099 262.57808806813557
12098 14057 77.47297628901651
12099 12100 270.51613709145425
12099 14547 75.53837719220512
12100 12101 51.0931982028758
12100 16333 24.665415475456985
12102 12103 104.9732854105026
12102 13940 79.50201286466681
12103 12298 79.40797251224612
12103 17144 196.5563475486743
12106 14140 88.72852016440264
12107 12108 150.64811573787986
12107 16264 75.60709092204392
12108 13036 75.42984495829016
12108 17843 154.2382883736142
12109 17432 17.383283158301218
12109 17843 10.488655310691291
12109 19584 76.55910385486784
12112 16751 58.6526779830291
12113 17148 202.31631297539832
12114 17577 27.306892975536208
12115 17577 39.014618555737975
12116 17923 37.75068630662314
12117 12118 153.89396659336776
12117 13513 79.17093804999358
12117 16557 78.00193312799556
12118 13514 79.0264707725108
12118 17078 22.186196973201493
12121 14698 111.55413069462878
12122 12123 77.99411813522187
12122 17339 83.52598242231798
12122 19555 78.84896242440195
12123 19554 79.28212655446428
12125 12126 80.82982971239319
12127 18127 79.26229417493123
12130 12131 168.46482036327706
12130 17035 18.7108325496887
12131 12132 54.82179532994032
12131 16857 180.3935269682222
12132 12133 96.30055713100928
12134 17152 237.60820903110508
12134 19178 275.1595914312209
12135 12136 43.80082230194519
12135 13094 128.3812287899176
12136 16142 61.69723287471536
12137 12138 32.37160847435884
12138 12139 109.3685024433502
12140 12141 92.04801826456404
12140 13235 153.91826122414068
12141 13235 244.13773453516427
12142 12143 205.5516655641658
12142 13336 98.84413915507233
12142 19380 55.39632129026296
12144 12145 113.94233052196051
12144 12650 106.14054794687425
12146 15357 77.7022054214282
12147 12148 99.28807608381443
12147 19082 70.77584279795997
12148 17605 72.69677474546766
12149 12150 244.15194775179174
12149 14980 75.79111630681894
12150 14981 75.77946395047952
12151 15810 152.2153898127389
12152 15156 152.0484315077733
12153 17596 108.14983487989471
12154 12155 82.94911911093675
12154 14984 111.88488477278122
12155 14986 112.72047317325907
12156 12157 49.84609015659858
12156 14979 139.5794144856374
12156 18670 72.3584199568135
12158 13600 168.76092536968656
12158 14321 162.29447492106274
12159 16309 107.92218948279323
12160 12161 103.99165130910578
12160 17638 298.35228389711943
12161 12162 165.8851383139412
12161 15873 90.119332876985
12162 15474 78.78382644697928
12163 15700 79.05052613360321
12164 16633 23.30514869091216
12164 17861 74.65901281135694
12165 12166 140.2949627279395
12165 16586 79.39813623688309
12166 12167 140.5617172619519
12166 15283 78.76547558308447
12167 15893 78.91962478885442
12169 20099 28.81187819365977
12170 19396 383.4128994821596
12173 12174 380.0134665391884
12174 13508 229.00337035830415
12174 16765 360.85841115098793
12175 15765 57.92080411837726
12175 15880 209.5488604618073
12176 18893 208.12587803170047
12177 16635 72.59696074002098
12178 12179 132.4309346789254
12179 15266 73.08175287312548
12180 12181 158.37031225710416
12180 15874 79.2289270264758
12180 19072 153.040840777008
12181 15475 78.5938948257386
12182 12183 158.7333785673892
12182 15701 78.45558661393696
12183 16770 78.89759100894844
12184 15738 79.18287798802838
12185 12186 124.09008232576096
12185 16389 32.858302595975786
12186 16769 87.40492250098599
12187 15629 77.9572575498773
12188 16500 62.999703751529
12189 12190 41.65881413471653
12192 12193 202.69959183591047
12192 17029 329.82651925408527
12192 17157 202.56140182042927
12193 13401 102.56558986896292
12193 13402 203.22313506832825
12194 15146 165.58448605091934
12196 15148 153.00539496012837
12196 19378 149.78001194861946
12197 12198 74.81219312363964
12197 14320 90.60102298574009
12198 13465 174.69047766725728
12199 12200 63.580727951559226
12201 12202 82.23475926766025
12202 18374 144.21694780753882
12203 12204 196.93158976172742
12203 15869 84.96047639083304
12203 15890 80.5866351703719
12204 15870 85.34956648283516
12204 16404 81.26715379138949
12206 15868 80.63916365580438
12206 16374 79.99203803770632
12206 17586 201.29714598811952
12207 17958 76.52743872155659
12208 12209 32.99165569159034
12209 12210 47.32254810137132
12210 15783 24.330748772895475
12212 14918 783.0931319070178
12213 17451 478.47324649435535
12214 12215 306.1066719706654
12215 12216 128.87426936629095
12216 12217 90.26588915174806
12216 14461 149.6963194674996
12217 13961 96.23117236730734
12218 19740 63.63613784816144
12220 12221 125.9853086048829
12222 12223 155.36625571836007
12223 12224 8.473097542054798
12226 14918 16.25583699182661
12227 13543 86.05157269219167
12229 16129 100.64402166589778
12229 19142 73.75574013420048
12230 15843 77.4470923331926
12230 15844 75.523360752747
12232 16312 200.97374799123193
12232 18200 157.05015180328755
12233 12234 172.8709074417182
12234 17411 324.03478687147333
12234 18203 245.989812892875
12235 12236 162.10479333809724
12237 12238 367.8186967587326
12237 13541 354.98927782869845
12239 19087 80.95619222673228
12240 12241 218.02609469271857
12240 15801 96.49582458612481
12241 16063 341.54849060546013
12242 13804 133.60126131551255
12243 13803 43.232928738417215
12243 14636 373.94099104288233
12244 12397 79.3329247779105
12244 12398 76.69212150192777
12245 12246 78.98730925320098
12245 13097 75.99355404885229
12245 13126 80.31056050457646
12246 12247 78.98217984357746
12246 13098 77.41689262655555
12246 16761 77.1568064705561
12247 13405 78.59926539379667
12247 19473 77.18992897074173
12248 12249 79.38269393378314
12248 13099 75.87643358067785
12248 14483 78.44592284885897
12249 13100 76.53279773317595
12249 13739 78.65837030576077
12250 16943 91.36135242650006
12250 17490 78.9965806475698
12251 13101 76.10265627624285
12252 13806 122.5368619797775
12252 19709 225.46839814105866
12256 12257 238.7470765846903
12256 17019 115.10597877957048
12256 17020 187.99242470496924
12257 12258 82.71713336631507
12257 20093 34.33659562299168
12258 12862 126.59347656433187
12260 12261 181.82316769143475
12260 14727 220.80650888638763
12261 12609 23.82390888541589
12261 16933 181.1683900232901
12261 18056 44.16162693334478
12262 17158 66.5802893863691
12263 12264 72.60044586149294
12263 12282 35.745658963369465
12263 19921 39.74075979998853
12263 19922 6.927678988625717
12264 12265 73.76806364183926
12264 16017 75.30968721296817
12265 13420 75.20942383575363
12266 12267 82.49496767160198
12266 13573 152.1470182893156
12267 13574 137.89138969248677
12269 12270 79.69884090656487
12269 16074 54.03586905541266
12270 12271 79.1267921620537
12270 13577 81.53497270650855
12271 13578 82.28638860357005
12272 12273 78.4170118952738
12272 12763 83.63611894847467
12272 12778 82.15589080648341
12273 12274 79.84032735967337
12273 13579 81.67976734042321
12273 16008 84.02121327830793
12274 12275 78.63405976141235
12274 13580 81.87578938569742
12274 15921 84.15246308104358
12275 12276 182.6715770842752
12275 13581 80.48423631822494
12275 16009 84.80486414659862
12276 13582 81.85594589963974
12276 14792 83.96916778892704
12277 13588 105.44512968396681
12277 13755 58.235079488410996
12278 13591 79.75214640307075
12278 15564 78.38084785573875
12279 16015 100.3079278399606
12279 18653 57.4599375091715
12280 12908 91.66801505555817
12281 12484 142.17913346038776
12281 13256 85.34973154698244
12281 18818 241.8949954233919
12281 18995 70.03122533361088
12282 13145 39.756415314010354
12282 19920 7.116518643817367
12284 14467 132.69607753589378
12285 12286 77.46037031672162
12285 14544 119.75046157505595
12286 16010 120.91344508495938
12287 12288 142.01956046986916
12289 12290 155.10087492717952
12292 12293 51.67618145676982
12295 12296 25.652297934447972
12297 12307 10.442383338555377
12297 13939 105.00209959496696
12298 13940 105.4856345957657
12299 13941 103.66971377286467
12300 13942 102.7494928689732
12302 12303 97.38103358270916
12302 12563 20.928312603573424
12302 17145 98.57454387219862
12303 16321 135.7336812584584
12305 19716 18.892239500505514
12306 12989 199.85963854250872
12308 12309 268.26719857797207
12308 14194 127.2530373889453
12311 12312 203.8201729094707
12312 13344 60.985254938051426
12315 12316 172.2956911110527
12315 12319 7.045145914799798
12315 14885 69.57912234901023
12316 14886 70.3864879977432
12316 15000 81.02228604212296
12317 12318 73.74499538537152
12317 15322 86.02243038199074
12317 18176 157.16942156344612
12320 12321 36.50455175288177
12322 17266 79.53877621047684
12323 12324 79.79867184684572
12323 14912 79.36270178893041
12324 17267 79.32842771726409
12325 12326 157.96440580690307
12325 17270 79.2228617751702
12326 12327 79.63344978335506
12326 18599 51.533621493052344
12327 12328 79.79491672837995
12327 15826 79.555216826401
12327 16992 116.2354206270617
12328 12329 79.02340150665577
12328 15568 79.2514855146132
12328 16992 138.77347061365916
12329 12330 80.593089813319
12329 16991 81.73319970086389
12330 13452 604.4096144772335
12331 15719 48.80432250659483
12333 12334 181.91050564575588
12334 13544 106.83107389702737
12334 15255 92.68513806961758
12335 12336 158.07783657136446
12339 12340 78.57119507287186
12339 18545 68.4752074535339
12340 12341 79.31575365002566
12342 12343 78.88715746240479
12343 12344 79.1153024541435
12344 19590 79.85056004033419
12345 12346 204.2663096998094
12345 13635 158.2938172454121
12345 19590 208.4930602511521
12346 13625 112.05096209800506
12347 12348 78.70392787690362
12347 13626 155.06650903937197
12348 13449 76.71163277262418
12348 13627 154.90428810996184
12349 12986 84.61860056544157
12350 12353 19.67376147629584
12351 12352 363.3656994011414
12353 12354 86.03176378451161
12354 12355 86.03781081320409
12354 13440 151.3669857156865
12354 13623 152.512665243068
12357 12886 156.83942233027724
12358 18146 61.145310170539354
12358 18546 16.382619749678405
12360 16496 209.1592761704383
12361 12362 77.30430438638415
12362 14916 45.21969311751088
12363 13021 114.13596165110809
12364 15502 201.27709286551055
12364 18888 164.43178377807843
12365 12366 43.739072021015765
12366 12367 80.24048319554733
12368 12369 151.21631987038737
12368 12895 81.62608311428971
12368 18823 147.00620973969905
12369 13618 86.19319363366884
12369 14168 79.61473898927986
12370 12371 76.34656994454805
12370 13619 91.48276910627366
12370 18698 67.05368099549553
12371 13620 98.47431478806287
12371 14170 83.24680407630865
12372 13033 98.04158483637245
12372 13034 83.00540428051485
12373 14171 81.9087144490739
12373 17854 10.163592269209623
12373 20065 97.60467204619647
12374 12915 75.890938702006
12374 12916 77.59801927624974
12375 14179 87.04355472241738
12376 12377 79.51888406334629
12376 13629 127.11986029826001
12376 14180 79.05013875155907
12377 12378 78.99521075156346
12377 13630 127.16824995701961
12377 17820 79.79117244948026
12378 17819 79.98562296746219
12378 18251 21.68192287654833
12379 12380 79.38599913079618
12379 12766 104.43809437320559
12379 12767 102.78924872880745
12380 12381 79.07265420402899
12380 13632 104.05057292269623
12380 14183 103.44948012831748
12381 12382 79.8246294037002
12381 13633 103.44334844826254
12381 14185 104.18891097756351
12382 13634 105.48627205294055
12382 14187 103.21876906431497
12383 13635 75.03349515307268
12384 13622 42.84732075259634
12384 14173 109.67105235141644
12385 13612 75.55735763514818
12385 13732 75.74254137133289
12386 12987 88.61939203214575
12386 12988 88.98518637942435
12388 12389 76.23364390455359
12388 16257 313.42582812098556
12390 16351 36.62905333827593
12391 13240 133.6199553163135
12392 13238 134.48182145855066
12393 12394 107.32402870183023
12393 13237 96.25836776048034
12394 12814 94.47237109591315
12395 12396 115.88142243632035
12395 18166 62.31547988941398
12396 17000 96.46792862519091
12398 19458 79.06083451018333
12398 19459 80.86068493053789
12400 13269 80.09544147906738
12400 19271 46.619730990804364
12401 19627 15.908735975749094
12401 19644 76.34901995102643
12402 13268 74.82356842969165
12403 13267 78.63022070117358
12403 18674 73.4777129774155
12404 13266 78.8490816804428
12404 17867 154.86485427416818
12405 12406 155.51265690952243
12405 17866 17.79895346617475
12405 17868 15.69174489067818
12406 12407 158.02879023726734
12406 13264 78.90405064123979
12407 12408 166.91003923116142
12407 13263 78.85960032718864
12408 13262 79.39412898120815
12409 12410 181.49052651732146
12409 13261 82.15849898802071
12410 13260 82.94154791541251
12411 12412 75.06004010813129
12412 12413 34.970122361711645
12413 13257 77.91540955072396
12414 18329 232.51685044018305
12415 17022 75.11292699189764
12415 19308 202.92695050753534
12416 13249 99.21164774075297
12418 12419 124.78401864696482
12418 13252 96.10302302842845
12419 13250 95.41666997168893
12420 12421 83.21189115096242
12421 13253 37.16186838470527
12421 14196 177.32491970173103
12422 12423 42.8345830019169
12424 19690 150.25950245112892
12425 14699 448.0335557732165
12425 14908 169.80632043810564
12426 14241 88.31867919429902
12427 19208 483.4486222295928
12428 12429 100.4789611726203
12429 18463 68.65442892521821
12430 12431 76.67281752287123
12430 12773 200.48327964022937
12431 12432 75.93996589714035
12432 12433 21.616730647872796
12433 12434 54.56445761096838
12435 12436 187.41934586765413
12436 12437 126.1960726618015
12441 12442 17.84701711359665
12441 13946 98.54639606493602
12445 12446 48.16489504255702
12446 12447 28.43617499729825
12446 15782 205.3739964847281
12447 15780 94.70052115331623
12448 12449 17.90393487804257
12448 12894 296.9421648267179
12449 12450 77.21005468798431
12449 16506 96.29256488517213
12450 12451 102.44218255086062
12450 12894 196.19175440158213
12452 12679 174.18844825924688
12453 12454 192.1122343673181
12453 12462 18.972790749769292
12455 12456 80.57230241433203
12456 12457 76.86050873371316
12457 12458 80.49196209746756
12459 12460 118.10209505581447
12460 17838 10.429821434767952
12461 12462 127.75294013931591
12461 13107 51.65113949257187
12461 19001 11.515600913646049
12463 14621 147.5006649029729
12464 17815 96.89987379499438
12466 12477 54.86437319531321
12467 12468 152.73760609750326
12467 18708 119.47441789569847
12468 17849 153.69387960176093
12469 17849 10.274428692283344
12471 12472 73.50215363767651
12472 12473 68.03853211176418
12472 16762 61.270318833591155
12473 13415 60.92831970788706
12474 12475 66.21205173320914
12474 13476 132.84696565622482
12474 16719 69.36983537877175
12475 13477 132.50627464163944
12475 16610 69.29282741588831
12476 16759 62.64508725305984
12476 20091 107.65119466459865
12477 18691 295.7839273829993
12478 18970 69.34935008245716
12479 12480 117.0688322269726
12479 17707 103.33659210135788
12480 17707 220.11021747612682
12484 14875 88.11934682443535
12485 18252 82.19628971588077
12486 12487 84.49917189358099
12486 18252 18.29134621837881
12487 12488 89.55657783581444
12487 15608 114.38845702676612
12488 15607 153.86814886166718
12489 16089 80.79440190781517
12490 12491 139.98398408765925
12490 13707 79.07153935446567
12490 16096 79.22686223533691
12491 12492 140.74008098489776
12491 13708 79.0698186940946
12491 19382 79.08492964994258
12492 13709 79.35560985151545
12492 15892 79.03730245421006
12493 12494 90.94110249008678
12493 13710 79.07092438035569
12493 14951 78.9282141824636
12494 13711 90.62702153430143
12494 15488 75.14222607331509
12495 13706 79.07389556627041
12495 16092 79.30716735026934
12496 13862 81.74198228084032
12496 17608 217.7362194170961
12497 12498 29.482160045782965
12497 17055 43.38021087877371
12497 17056 38.4530257796061
12498 12499 49.52036539400956
12498 18456 150.14073581535814
12499 12500 35.74869458608986
12499 17057 38.97846700947595
12500 17057 38.198679210857065
12500 17634 81.29529291271888
12501 13714 83.52692763229236
12501 15698 27.675310240787173
12502 16996 34.29565625001533
12503 13712 79.05622362258454
12503 16093 79.25150494066845
12504 12505 92.15579569193004
12505 18280 106.46673053213097
12506 18281 200.67213712608705
12507 12645 145.91000008365094
12508 13527 197.41155822095502
12508 13528 211.3665378642502
12509 12510 363.1416738358414
12513 12514 101.36671279991921
12513 13841 93.47188898462392
12513 18842 8.4629815686787
12513 18846 28.251533930814077
12514 12515 57.173385211521634
12514 14623 95.50772172778535
12514 18843 9.906746337449183
12515 18845 8.550958684891986
12516 17894 97.75331903963271
12517 12518 15.350361519685723
12517 15237 102.54490638616063
12518 14346 155.75351841212967
12519 15842 78.23849220924907
12520 12521 80.68883825164848
12521 15843 77.22585440277814
12523 15845 76.59128794464706
12524 14636 405.22994877345343
12524 17407 66.72110691743873
12526 12703 87.02397401535688
12526 13242 79.11713363338256
12527 12528 82.6307504361016
12527 13110 79.0064664374132
12528 12529 81.96595371815715
12530 12531 76.42824224308036
12531 12532 74.51260934491911
12532 19168 203.55387675976272
12533 12534 29.363062614036522
12535 13656 82.77949721691863
12535 17676 194.46490857944335
12535 19892 385.05937133432633
12536 17694 148.63192472539862
12536 19892 9.429394626296029
12536 20094 105.16195510948458
12537 12538 52.68448497305469
12537 14106 288.3366043303241
12539 13032 143.7305131547608
12539 19952 122.33744370669564
12545 12546 49.41884680621125
12545 14146 95.75603099128375
12545 17554 63.33389536724849
12545 17556 41.745541964498145
12546 12547 75.9432399467216
12547 12548 76.01720182674515
12548 12549 40.12323407661203
12549 14602 81.47957374890683
12550 12551 77.57469379542344
12551 12552 64.97994187733356
12552 12553 99.47266199048445
12552 15926 80.52932593487844
12554 12555 76.59186584725911
12555 12556 45.73647735030026
12555 14799 81.6379256303785
12556 12557 61.05722285823904
12556 14786 80.83845151167085
12557 12558 139.6171079168194
12558 12559 24.929997529593585
12558 14464 81.18728634815801
12559 12560 115.42218385911366
12559 18338 98.70429230687989
12560 20090 40.99763952506451
12561 16320 81.91585751318614
12563 17573 289.7091063393818
12563 18551 85.9427159543047
12565 12566 159.84357163976526
12565 12579 40.66127399982943
12569 12570 140.33948565253107
12570 19572 79.4278082508777
12571 17916 52.4841898644549
12571 18535 71.85614203388015
12572 12578 37.45324442104223
12573 12574 142.04146553572377
12573 17607 125.05297613918806
12575 12576 17.976315416968287
12576 19086 108.11335124136392
12577 19086 70.95373710201143
12578 12579 86.62748528173604
12578 14039 183.62317452358576
12581 17755 109.71129765844715
12582 19046 106.8350544596375
12585 12588 30.79836246896753
12585 13777 331.25772669893837
12586 12587 201.86582801239925
12586 14040 22.516704744391333
12586 14332 79.48222054924021
12587 13788 79.0004180101427
12587 14333 79.03242157324681
12588 13777 49.37942127896058
12589 12590 81.58480629598927
12589 14221 92.3585244231927
12590 12591 28.36105628805749
12590 13779 50.81002114421433
12591 17863 63.75588863307353
12592 12593 140.21700057608177
12592 13780 79.02439813404999
12592 14336 79.52276131468413
12593 12594 141.0066201056295
12593 13781 79.03028796440209
12593 14337 79.10820649600218
12594 13782 78.97578794627492
12594 14338 78.65507489943927
12596 12597 154.84577737892857
12596 15577 35.2755318970959
12597 15576 32.579063855624895
12598 12599 96.175272274682
12598 13844 140.72135801031467
12599 12600 82.55311589987335
12599 14626 139.90900136831473
12599 14627 140.40613908197247
12600 12601 85.73925458479712
12600 15798 140.31906735152617
12600 15799 140.00874552852713
12601 15942 140.47355327344286
12601 16424 140.40755813532425
12602 15943 140.04003168405094
12602 16231 140.49632724588173
12604 12605 78.89415198354614
12604 12871 140.37432695817057
12604 12872 140.26308056109474
12605 12606 79.01867918152048
12605 15945 140.43138386200056
12605 16786 140.32050354379084
12606 15384 140.25537870363175
12606 15385 140.60822371761427
12607 12608 273.6404791857857
12607 15124 86.33325479573594
12608 15089 81.02869876414921
12608 16622 116.13941416534679
12609 13554 155.03377491814328
12609 18056 23.888538457348726
12610 12653 157.95213022186863
12610 18056 129.77202820371016
12610 19346 86.00330006651865
12611 12612 80.29579863647488
12611 16525 78.10938634670454
12612 16359 78.76374909180225
12612 19491 77.9039170767503
12613 12614 109.39622569350182
12613 16526 78.68161299680867
12614 12615 170.92169413049643
12614 15272 78.50948543281672
12615 15899 79.14808908179327
12616 12617 173.82285477956003
12616 14936 79.05715220650376
12617 15478 79.2718485442781
12619 14864 78.9263657349012
12620 12621 80.05764340331221
12620 16488 79.17364821579176
12621 12622 88.1567854742117
12621 16463 78.31521023337481
12622 14724 78.03381080491258
12623 16528 75.67324465332632
12623 19527 137.15739933244302
12624 12625 137.06423903629357
12624 16529 75.08736524220406
12625 15747 74.93915342125953
12626 15983 75.94185777304183
12626 16966 104.99102642079113
12627 13563 170.00293346204992
12627 16966 71.51251445171334
12627 19600 60.62424400476543
12628 16303 78.9648469185641
12628 16967 68.85301024342407
12629 12630 30.1785425233536
12629 16531 78.53350514707272
12631 12632 15.669871816783191
12631 16532 78.66616311039351
12632 16533 78.19939319835972
12632 17602 209.52789704349885
12633 14983 87.5808174459611
12634 16030 73.21579609814496
12636 12637 178.5221854673139
12636 16156 321.37976216433356
12636 16416 301.7598684786664
12637 14770 130.75548822179007
12638 12639 128.33391242333644
12639 12667 23.962551937481734
12639 14292 52.01724913729623
12640 15416 76.51346558294821
12642 14047 261.5789790216839
12642 19800 186.3490381162498
12643 12644 108.44759218595095
12644 14756 418.34062958208517
12644 15020 385.6762825745571
12645 12646 49.59816135806396
12646 12647 49.37888714716071
12647 12648 47.3259204576677
12647 13335 402.80794315137814
12648 13336 403.7157811529132
12650 19682 22.242364817174238
12651 12652 78.50444869359447
12651 15621 87.25648983957353
12652 12653 81.98021828764988
12652 19083 25.765324931920603
12653 18054 59.93581412198772
12653 18595 51.63831668221865
12654 15626 50.80450058649952
12655 12656 143.4026659934409
12656 14084 408.2765036016869
12656 14085 133.12645383558512
12657 16280 200.43044764352385
12658 12707 85.59857396447585
12659 15440 83.24112978999639
12660 17163 10.04098113503031
12660 19635 100.34837885638603
12661 12662 128.36530314049364
12661 14765 77.69321152132096
12661 17163 195.1807942920499
12662 12663 66.80788331631211
12664 12665 37.939462934016255
12664 12666 188.58078034766714
12665 12666 18.15795945071179
12665 16378 126.72310852705635
12667 12668 62.66741058650034
12669 17189 27.130042801982103
12669 17995 136.59360797026275
12671 17609 80.90831348162087
12672 12673 188.59572643299208
12673 12674 87.9241584874041
12673 13995 57.42115796801512
12675 12676 102.76648327782537
12678 12684 50.380349252954225
12679 18974 197.98417216085932
12680 12681 195.82494745258907
12680 18974 11.887783066545836
12683 12684 88.36689925410775
12686 12687 76.72840649095077
12687 12688 85.31282746328814
12687 18986 157.08205882085366
12689 18759 56.444578003381764
12692 18293 110.7120985865844
12693 12694 27.854038748769057
12695 12696 124.34642368180559
12695 17618 80.98162892049064
12696 12697 125.29978021105524
12696 17615 81.47721548321034
12699 18378 78.64153171027577
12700 16893 191.65594986657672
12701 16317 115.87402026727733
12704 12705 138.40233579605064
12705 12706 218.41261007221493
12705 14746 78.9636566402826
12708 17619 95.52555967347021
12708 20111 36.57359653838532
12709 12710 40.200309318084315
12712 15706 75.96948084038269
12712 19329 61.767722033503695
12712 20125 55.898791032839135
12712 20143 9.89285802475861
12713 20109 30.034015738741978
12714 12715 75.80773802041053
12715 13882 58.26726579656521
12715 19170 21.329970571718103
12716 18204 50.052287660751304
12716 18205 90.05103916797216
12717 19063 120.31521831589683
12717 19714 157.456822116095
12718 12719 236.95184727585254
12718 17913 63.26650847440675
12718 17914 32.16065046659183
12718 19063 12.06403801991807
12719 17010 198.35408793076653
12719 19063 247.5538239236469
12722 17450 118.75763943679755
12723 13155 71.28517281673633
12723 15253 127.24658017717027
12724 16331 71.4062952043719
12725 19363 44.67891679307071
12725 19711 160.53857906028557
12725 20124 15.045786408604162
12727 12728 345.9678394597959
12728 13116 34.829973150155176
12729 15488 72.38945785601233
12729 17055 188.6564955865236
12730 12731 50.82920244459534
12730 14834 66.21827052795895
12736 12737 192.4809383018744
12736 15108 70.64711114531252
12736 17139 176.37101789989248
12737 15108 299.3858949345538
12738 13803 71.63248825572461
12741 18110 86.9968056745053
12742 12743 160.97429501941525
12742 15096 73.04840298969798
12743 12744 199.58623056916844
12743 13085 72.93947379204215
12744 14434 72.37663308000188
12745 12746 77.56988092801653
12746 12747 80.8630457498993
12747 13404 18.154144065668646
12748 12754 27.991311495362673
12748 15534 88.60226127788765
12749 12750 97.60954158595344
12750 15840 76.23027997534543
12752 15835 83.1349991810424
12752 16429 79.72661844802266
12753 16184 150.4003647935462
12753 19855 9.996513970372073
12753 19857 61.02287498193809
12754 18573 84.4099741993975
12756 13695 170.6320800414364
12756 19767 148.15357419373808
12757 12758 43.04825422614445
12757 13838 157.56391309849866
12757 14578 78.30016449181065
12759 16120 63.58916357979712
12759 17791 62.35066485946281
12759 19730 75.45037020753578
12760 17203 57.88635888043369
12760 19847 23.261682646248794
12760 19848 24.319344161322775
12761 14690 26.490434919203114
12761 18126 8.714285658015124
12762 14690 19.1858582793016
12763 16008 78.79311754539121
12764 13986 79.0611350779269
12765 13445 79.68300731830804
12766 13632 79.16074089902722
12767 14183 78.82658273694265
12768 15132 79.0104099175564
12768 16148 84.67924304643964
12769 14363 48.412778363900735
12769 14364 81.24620505411323
12770 12771 128.78706150331334
12770 13920 79.17400927343718
12771 12772 197.20062445975498
12771 15115 79.50498032899417
12773 16151 78.1354617992431
12774 15340 75.50517201998538
12775 14149 171.73563398146217
12775 14655 81.41256872357229
12778 13579 78.89299866617513
12779 12780 26.609256547444172
12779 16018 121.25784463523854
12779 16019 78.05671642826235
12780 12781 232.8378642530402
12781 16147 59.66743501797359
12782 12783 49.44465180186582
12782 14516 30.768889769457154
12782 14517 61.13749311861201
12785 12786 38.17752269148512
12785 19599 74.79907440936793
12788 12828 556.3666594683334
12789 14421 77.95402062662987
12790 15592 78.77769398501462
12790 19214 96.02727945628297
12791 14694 78.94036811908202
12791 15262 82.85229304130166
12792 16257 87.03834077480462
12794 15238 255.71546301773716
12798 12799 35.99334055287038
12801 13727 117.07551355051208
12802 12803 274.85613090162065
12803 12804 155.13985721623766
12805 12806 112.13239222319321
12806 12807 135.34001384687946
12807 16478 324.23704228417324
12811 18297 94.34360007165355
12813 12814 19.03086368698923
12813 13236 106.20378745280408
12813 13273 103.78672187983634
12813 20127 80.5411131421338
12814 13237 105.13096983040751
12814 17016 307.39203647388763
12815 13114 107.89157502630962
12816 12817 90.43405894389315
12818 12819 89.13444577480648
12818 13810 98.52803541157128
12819 13811 98.58253893275366
12819 18560 102.24517739419201
12820 12821 77.00243667877562
12820 13812 141.26791013279586
12821 12822 76.10105625791752
12821 13813 139.13112518016106
12822 13814 135.69695506628648
12823 17370 17.991277124424222
12824 12825 200.90393806904945
12824 13324 78.59595797027023
12824 15891 79.60960359543701
12825 13325 78.88134469857445
12825 16539 79.37174795952377
12826 13326 79.5770543176954
12826 16375 79.23171682551205
12827 12828 100.62073899906358
12827 13203 81.33368630272051
12828 14042 95.49637308941288
12829 12830 69.78483121509335
12830 18047 144.14273266666038
12832 12833 54.87116751299047
12832 12836 7.810561167325726
12832 17275 128.00845569063398
12833 15857 38.85917206048173
12834 12835 26.519580971307636
12838 12839 67.04617640726279
12838 13678 311.97160651029435
12840 14588 65.36629140048397
12841 12842 82.21302661160817
12841 14206 109.17119904459094
12841 16452 90.73958725048311
12842 14049 83.34365119608344
12842 14207 109.14895649080094
12843 13018 109.46543003868469
12843 18115 140.26993132820357
12844 14208 79.25801341369724
12844 15133 79.20149259840305
12845 14209 86.69285083003969
12845 15134 85.98517505676391
12846 12847 42.798940068024464
12847 18099 39.46878257294128
12847 18484 40.875961292223096
12848 18453 177.94978143582352
12849 12850 295.37449384571624
12849 18454 12.310687966008723
12850 12851 457.78614539619684
12850 18454 291.35956392547166
12852 19384 2.5000653180257113
12853 19385 1.3793709869988409
12854 12855 124.1007199957512
12854 19719 101.33029436017841
12856 12857 71.86558737023198
12857 16273 96.20687274403161
12857 18244 163.2032989586127
12858 15451 89.34741700307218
12858 18247 202.2527594169599
12859 12860 92.18099410718784
12860 16608 62.42257784415679
12860 17255 412.8739792861624
12862 12863 160.07786416599697
12862 13117 81.35532502303974
12863 12864 159.0616265964239
12863 13403 73.77006844800226
12864 14502 74.1455738640416
12867 12868 169.45025414110455
12867 13378 83.87471551644194
12869 12870 53.68575958251812
12870 16004 32.07122157451087
12871 16786 79.21545280559613
12872 15945 78.66753278006233
12874 13898 120.7421558488537
12874 13997 96.85061069456935
12874 19312 114.11032276765322
12876 12877 442.61808708042884
12876 16185 210.32101538123626
12877 12878 124.62773588070311
12877 15862 55.32043266254624
12878 12879 63.66999502700348
12878 19179 142.21785914767116
12880 15147 99.85691111961157
12881 12882 100.90271597815995
12881 12904 18.847592469323065
12883 16015 102.72497422564007
12884 13992 151.22624744402944
12885 13438 150.60837989728645
12885 18567 152.09074467823223
12886 13617 75.97163990244198
12887 14685 85.37753181308074
12887 15992 93.7997207712634
12888 12889 148.7058706282693
12888 16503 88.71156135827546
12889 12890 130.37552174232198
12889 15778 89.57878114233648
12890 12891 68.6401522334309
12890 15066 89.80158782821616
12894 15962 102.4846150584981
12895 18610 149.81431390639426
12895 19221 120.59642210863744
12896 16178 151.27977384383448
12896 18675 145.86566178394446
12897 14935 79.56112791109764
12897 17403 58.252053854090995
12897 17948 76.47823324346737
12898 16495 79.56052385280283
12899 12900 157.52567514425476
12899 12951 65.35014781191695
12900 12901 78.39036028316728
12900 15231 60.53514982399908
12901 12902 81.08032619413983
12901 14129 109.00732611884618
12902 12903 85.54138913302745
12902 16504 108.9612657354859
12903 12904 156.79391166800872
12903 15515 114.30943965430511
12905 12906 91.97897835285771
12906 15097 80.3163314629412
12907 15345 77.50523623533796
12907 19743 34.194211010203624
12910 12911 206.38780526633502
12910 18103 399.499675072027
12911 18091 1023.6382674694619
12912 12936 32.3717278988018
12913 13977 86.77754915369133
12914 13440 86.37883494991138
12915 13623 85.77008403612554
12916 14176 68.37386851366674
12916 17822 45.423202408444666
12918 14922 87.65509316517351
12919 12920 143.74665015893632
12919 18625 81.19513508991218
12920 15468 93.91546120074308
12922 14804 179.52546986105887
12923 12924 91.96761244127109
12924 12925 94.11119416917175
12924 15455 102.74596525425771
12926 14825 150.68350828028755
12926 15772 142.76696417306488
12927 15070 142.5115645130433
12928 12929 76.07261878995092
12928 16023 142.2513488807208
12928 19705 169.35727876227224
12929 17713 137.98342391037937
12930 12931 76.69391928551023
12930 18734 139.8723585856453
12931 14131 144.18054267482447
12932 15461 99.91019024691975
12933 12934 95.51237981442767
12933 15462 99.74207846522296
12933 16083 79.68421218853986
12934 14354 68.71750728150457
12934 18745 11.78873541766039
12935 15450 36.528104814796315
12935 16553 82.01723746680254
12936 16014 76.33082730256005
12937 12938 123.32893719673733
12938 14139 99.67252555509275
12938 14264 39.20808388615233
12939 12940 97.3643133096755
12939 13157 99.69795209820214
12942 15546 84.93654324447013
12942 16380 86.4526651172998
12943 12944 210.80506361447163
12943 15545 36.75103939209008
12944 14572 164.902685392921
12948 15548 43.29699763381465
12949 13655 65.23205886600941
12950 12951 29.1334496222576
12950 15066 220.73168038588372
12952 16021 75.5464148936682
12953 16025 100.3460583239259
12953 19846 69.23066537524234
12954 12955 120.44384711970679
12954 13048 78.4845627888052
12955 15512 50.994863756911755
12956 12957 224.30344116031046
12956 17748 44.900093041512825
12958 19103 11.564356330105554
12959 19715 106.81270809086612
12960 12961 110.59309931784718
12964 16899 193.79798674242966
12964 17741 201.51256623454992
12966 15518 83.41990452659735
12967 12968 114.39003111454427
12967 13594 102.53782115306394
12967 18871 167.46520765459542
12968 18609 38.74434800608364
12969 12970 42.14553673248205
12969 12982 64.71952764277695
12970 12978 309.7720171180838
12970 16621 86.06275451902235
12971 12972 122.56719893962261
12973 13022 54.6075732157278
12974 12975 240.5573648261209
12974 13368 56.52142143691495
12978 12979 151.36757948648062
12980 12981 105.71077603519578
12980 19232 65.1241169926051
12984 12985 79.2539817261131
12984 16450 157.69330766596437
12986 13449 129.76293152066742
12988 14193 109.22858126014002
12990 17131 63.7018681046853
12991 14164 229.27762405362904
12991 17131 336.47614480601175
12992 12993 90.22542634340192
12995 19050 234.92402299847816
12996 17511 454.43882835006775
12996 19050 114.06572370848387
12997 15336 108.95366443383554
12997 16411 76.41599217380872
12999 13000 159.59658364243555
13001 13941 139.49700543340742
13002 15372 43.77808755888211
13003 14931 46.10161099192959
13004 15883 79.0820085266455
13005 15884 79.67234958644153
13009 13010 107.152085679223
13009 16328 85.64314489788163
13011 13012 74.74331618816753
13011 13013 101.27501748254915
13012 15535 138.92991226487928
13012 16325 148.44898126773717
13012 19914 134.4986605268201
13015 15005 152.63939921852727
13015 15359 400.756818153349
13019 19865 40.4064099822498
13020 13021 823.3242779296627
13020 15502 30.49468425590552
13021 18038 36.12593641161552
13022 14894 86.99636910430826
13024 18590 200.85281119406537
13025 15519 192.7949429699529
13026 13027 80.75381693503076
13026 20078 12.643002069472626
13028 16576 80.1548518272664
13028 20081 74.140768556515
13029 13030 43.37426559882739
13030 13031 78.96797650565294
13030 16261 152.9824828680859
13030 17852 153.78428797291485
13031 13473 152.28267255925593
13031 17851 154.14152853776028
13034 14170 152.22822758829565
13034 19924 152.9419637393136
13035 14259 150.14658067271506
13035 17846 154.177745954382
13036 16264 150.3152995410804
13036 19932 155.35388760797298
13037 16551 154.75701836137455
13038 15529 154.8862341889467
13039 15964 152.70421822387465
13039 19934 135.1061213298666
13040 15347 152.92672277407536
13040 17834 135.59154459000177
13041 16206 153.39555995159424
13041 17832 135.50382250961968
13042 13043 63.63763085108963
13043 13164 103.77079709614145
13044 13466 203.93694291227334
13045 14438 164.54598441592506
13046 15774 151.04800997617227
13046 20044 69.66573029626113
13047 20041 8.184091763855795
13048 17976 142.15290748901725
13048 20041 159.86833341159291
13049 14128 101.395509585711
13051 13052 185.08937605136867
13052 14676 38.06261660585221
13054 14532 143.10886245104308
13055 13056 47.14790663266086
13057 13058 216.75205350968858
13057 16313 82.3429743604325
13058 16313 305.6528334115858
13059 14804 210.76490330844538
13060 13061 13.889230149325972
13060 13229 141.27346529245136
13060 13230 200.08537380731644
13061 13062 82.5169750857532
13061 17285 72.45753687468245
13062 14910 56.7094594875298
13064 19898 179.87786808431315
13064 19899 96.91705982135984
13065 14806 71.36945271387904
13065 16236 17.634333805220486
13067 13068 115.84576195862427
13068 15060 57.30573068449042
13068 18067 8.304563762767087
13069 13070 226.9655274369216
13069 18067 73.83040741449632
13069 18068 35.89847251422405
13070 15058 154.89861558202523
13070 20025 24.6057261709058
13072 18105 23.269480385942277
13073 13295 80.8866400691019
13073 17400 81.518420462274
13075 13076 31.784818546976776
13076 16099 72.62378129683792
13078 15824 115.06212692846881
13078 18022 21.543973931439826
13080 13081 48.369680945926625
13080 13082 286.6877914288618
13081 13082 131.4053380019676
13083 13529 37.6780610965152
13084 13851 162.28727975984722
13085 15096 160.74173667772214
13086 13087 31.332758047388666
13087 13668 146.60649943526053
13088 13089 295.14664367299997
13089 13092 32.363356920287366
13089 19945 60.439575504592995
13091 14437 69.44900373346525
13092 19945 27.879243520503945
13093 17797 269.73584075235647
13095 13096 16.210754833558532
13095 18854 224.52397694197185
13096 14659 193.10447160671933
13097 13098 79.68533001922805
13098 19473 79.14997729486193
13099 19999 66.51935954096578
13102 13103 72.93498962323036
13103 13104 141.05181934676565
13103 16731 102.59996699096934
13104 13105 42.274776587127086
13108 17060 15.87354663640501
13109 19677 32.3690478602182
13111 18544 60.34427774485948
13112 18543 67.08790614199046
13115 14078 79.10119893107257
13117 13403 158.3050682023648
13118 13234 374.28383912486237
13120 13230 357.19380717136033
13120 17358 22.53994117967548
13121 13122 104.44065360750653
13121 13231 352.79872756476993
13121 18386 178.2120446683629
13122 13416 109.5200490009297
13123 13124 200.3227498768967
13123 13232 345.16816551793795
13123 13417 119.27968142796935
13124 13125 202.044693625689
13124 13387 467.00970369499373
13124 17024 340.6833532373935
13125 13233 337.4323451322347
13126 16761 79.60070850420284
13127 19463 79.23960280128013
13127 19961 64.21439557690069
13128 16494 79.16059263781676
13129 16084 79.03858589325431
13130 13410 158.38830540427503
13131 16437 79.75014312802314
13132 15972 79.35696495150374
13133 13134 75.6128012063652
13133 15183 81.34679125940025
13134 13135 82.95193998014858
13135 13136 156.39911710993965
13136 13137 171.24200640099448
13137 13138 13.805818648629815
13138 15065 81.51550521487748
13139 13140 19.625839191963372
13140 16026 82.86342637456775
13141 19919 8.9130739596843
13142 13143 76.23628236465952
13144 13915 79.84792514022138
13145 16017 75.50218910915618
13145 19920 39.85602607643874
13147 13421 167.23774162376617
13148 13149 136.81187901330338
13148 19581 40.552723583260246
13149 13150 26.443027535964806
13149 14196 188.35362595322704
13150 14195 162.9909180097827
13150 17860 84.54134216803494
13151 13152 49.66064659785235
13152 16706 77.71620457264908
13153 13434 159.08244208730753
13153 18149 66.04311125758491
13157 15451 404.62730129772626
13158 14073 198.07950261589758
13159 13433 61.37994745644438
13160 13161 71.32186136766697
13160 14486 123.27775721300094
13161 13761 216.84392147401095
13162 13163 43.59362574126717
13162 14318 146.7433549096105
13163 13164 47.580501434667
13164 15149 147.49819624227567
13165 13166 216.1764914507534
13166 15150 136.13514825290721
13167 13168 49.08344972192039
13168 15145 112.29628326932848
13168 16119 296.5372128031114
13170 13171 19.058188531069696
13172 15756 79.08827840289008
13173 13174 197.64640787557832
13173 15043 79.1354846101814
13173 15044 75.99106650686178
13174 14587 74.21171729816174
13174 15043 274.1693748360776
13175 14553 196.23793278821572
13175 16658 210.79191649209358
13176 14964 72.72531482605612
13177 13765 78.58592200535881
13177 15110 79.47349915840068
13178 14662 78.68458979288998
13178 16995 79.04039056678738
13179 13766 79.02991334057192
13179 15722 78.8141003402973
13180 13767 78.96398314987215
13180 19422 77.88310756899155
13180 19423 78.95727009831253
13181 13965 79.17000815042596
13181 17312 78.96017167743113
13181 19418 158.2207752637728
13181 19422 157.55821207246373
13182 13769 78.94075151938544
13182 14717 79.72239408578861
13183 13184 90.60859811840925
13183 18182 186.67810162121472
13184 13185 89.0546820401385
13188 13189 82.1292878946681
13192 15514 79.21689583479797
13193 15351 79.16089629380625
13194 15380 78.99616394061226
13194 16885 192.47809117427136
13195 13846 142.65493344885135
13196 13197 109.50937290499849
13196 14631 142.74403163313147
13197 15887 142.5543525022592
13200 13901 78.41870002664717
13200 17632 28.24011839130236
13200 19970 31.853418156959417
13202 13203 79.34328500726002
13202 16649 108.11427183469026
13204 16197 89.64752068623191
13204 16542 142.36541181129667
13204 18868 239.29477630795859
13206 13207 58.80525239492424
13206 14770 102.3725774640615
13206 15586 66.41415001964793
13208 13326 84.07581478065742
13208 17584 115.97679258839699
13212 13213 86.13172975706804
13212 14634 77.0047150827649
13214 13215 68.14419283572276
13214 16234 76.13097732018703
13218 13219 30.757740394002514
13218 13391 73.05584037789588
13218 13794 195.90931590562727
13219 13391 62.22150480108834
13219 17238 38.161130177145125
13219 17239 33.676414601352484
13226 13450 83.20325504913318
13227 18350 243.11832660366323
13228 14083 86.37676371403751
13228 17030 199.39463955135048
13229 17003 17.89167233445271
13232 17024 201.70844986096705
13233 17024 199.2913478311359
13233 17025 154.08138426670843
13234 16326 101.47658610319314
13236 16254 203.96037452715314
13236 20120 162.6866124048786
13237 16949 59.0548646457845
13238 13239 24.947939449193964
13239 14884 79.50354509202774
13240 14883 79.96312731507523
13243 16282 202.43310625415816
13244 16037 201.59726566697057
13245 18151 103.8745008675266
13247 13248 36.717993505394546
13249 18152 99.91460239351105
13249 18983 78.33483282148066
13250 13251 34.34117584135217
13251 13252 89.80273211275617
13251 13595 78.69313174193165
13252 14877 81.92452097504702
13253 13254 138.8132346977619
13253 14323 84.96429250268616
13254 13783 101.122949788878
13255 14031 95.74014717126158
13256 14875 170.28924048132416
13257 13258 110.0661364428985
13257 14874 82.57390931343724
13258 14286 83.2407015060542
13259 13260 35.40078274298632
13259 14873 83.30770721381148
13261 13262 156.90978872564602
13261 14872 80.6260976067058
13262 13263 168.0528487619686
13262 14871 78.99905959381482
13263 13264 157.88681406736887
13263 14870 79.62975078310805
13264 13265 158.27062203229664
13264 14869 79.55210943128324
13265 13266 157.9195571627302
13265 14868 79.09519148796556
13265 17868 63.92956032369445
13266 14867 79.5942832787473
13267 14866 79.61597964456149
13268 17324 17.945594777335355
13268 17326 15.198015423533423
13269 14864 78.11538975670192
13270 14863 78.40390011609455
13270 19460 80.25650510384165
13272 14755 452.06834646216157
13273 16949 57.91625129662215
13273 20128 85.42045416022778
13274 13275 69.64162235143618
13274 15930 46.05821667376791
13275 15930 111.31378542275289
13277 13716 78.43005442493015
13277 18060 88.20464156305749
13277 18066 137.2487543955544
13278 13279 290.4028716742346
13281 18065 315.20435338751344
13282 14915 157.94303084699547
13282 16998 157.32770731572307
13282 19289 80.03066498012656
13283 13965 157.9147129754249
13283 19284 157.2601169668636
13283 19290 79.70093250535031
13283 19418 79.31142247572599
13284 13966 158.14760534775547
13284 15570 158.00895325286348
13284 19420 79.6855795606185
13285 16243 158.35457949577733
13286 13287 63.1843657896835
13286 13968 159.1968103490985
13286 15815 157.40444575839282
13288 13295 158.0898762873152
13288 19825 80.346753957963
13291 13292 51.63180474232992
13291 13997 99.60755744070946
13291 14748 101.32099357769002
13294 17396 79.36671349107137
13295 17400 157.82129384426548
13298 13299 268.0527400239191
13298 19911 49.179435881377486
13299 13300 85.1712661687047
13299 15085 81.39419819762936
13301 13302 70.57382375773406
13301 13892 150.3660874275632
13302 13893 150.73342101376272
13302 16354 197.07325583226807
13303 16577 197.95713498429285
13304 13895 148.50203154136236
13304 15271 197.66376753579553
13305 13896 151.6468134799793
13305 15897 197.69651593033674
13306 13307 135.7426973858442
13306 16537 198.05060822264818
13307 14955 205.34966777352219
13309 13310 14.202191146771431
13309 15240 68.58597858114408
13309 17001 197.38951861004156
13310 13890 121.81332237570842
13311 13312 79.57467187509442
13311 16467 71.9211265867483
13312 13313 69.52704923819292
13312 13891 117.58443754911202
13313 13314 90.56478422874392
13314 19912 108.37609447324574
13315 15239 973.540972115316
13315 18073 510.77746514786594
13315 19220 434.6870201269994
13316 14739 127.61910682728438
13317 13318 79.08007616633081
13317 14614 166.46855736302058
13320 16335 51.44665269777868
13321 14480 192.63270923902294
13323 13324 82.05686090533284
13323 19101 16.97405198496783
13324 13325 200.89036899928277
13327 15178 119.63967815839771
13327 15575 47.57565522676541
13327 19384 103.00645032340914
13328 13329 48.86873478729465
13330 14345 68.42075405342787
13331 13332 91.2879738096556
13331 14246 117.27103854009843
13333 13334 108.39350914013049
13333 13521 438.4574362853946
13335 13337 49.30158267969295
13336 18778 97.57148553122758
13337 13338 408.09141364887813
13337 16637 46.193556283950585
13339 13340 265.7008792035301
13339 14159 147.0203247623576
13339 14160 70.39330736383326
13339 18632 138.9729894737517
13341 13351 38.32980067865493
13341 16186 90.16693965792112
13341 19902 10.945743317827034
13342 14520 60.179942145075664
13342 18250 436.53888900798165
13343 14512 91.05757257805512
13344 15088 64.82569612435177
13344 17136 72.45074150075851
13344 17299 13.538285055324465
13345 13346 324.27469104490183
13346 13347 209.78915420720352
13348 13759 93.5465487573166
13348 13760 101.2689190533901
13348 18386 205.32154899272848
13349 16771 105.75528067993046
13350 13661 61.71007844071762
13350 13662 124.14311245157758
13350 18880 41.93227502287862
13351 18880 476.4497845437143
13351 19905 36.904408499686156
13352 14520 73.18295718831645
13354 13355 149.13595316616286
13354 17131 440.77200208233864
13354 17329 83.97630155389807
13355 13356 79.18739336783355
13355 17331 84.36373948283232
13358 13359 78.19528625853516
13358 15102 187.36690936529914
13359 13360 78.22381611382112
13359 14424 98.6674030259087
13360 16712 39.58853701229937
13360 16713 52.2282456288344
13362 13363 92.26069089837054
13366 13367 65.02576048754999
13367 15821 203.00575459964273
13367 16470 82.19042258492023
13369 13370 40.28724270484418
13371 13372 107.61758058588094
13372 13373 79.16500421036585
13372 15175 31.593091761926903
13373 13374 120.02933481105445
13375 13376 27.929200989106313
13375 16293 56.44220268169303
13377 15180 166.75326619625704
13378 13379 84.26391682053487
13378 16240 166.79121914078382
13379 13380 83.13266143617605
13379 15334 175.41793943700387
13379 18113 92.43581995537403
13381 13809 102.45860023455646
13381 13825 75.29539806669908
13382 16670 53.70712306985446
13383 14535 131.95901598664446
13387 15579 102.7578726072893
13388 15172 147.12415896108007
13390 19950 9.572064466926786
13390 20026 280.09675221001373
13392 14534 81.32786661573192
13393 14535 185.25742829876265
13394 15098 82.12106060796587
13395 13399 15.519319767527081
13395 13668 36.752745003049945
13398 13849 84.89441251389069
13398 13850 42.10797664154977
13400 14436 90.71551481295418
13401 18322 55.18615525186752
13402 13761 150.72660439468626
13403 14502 159.01230309933976
13405 16761 79.68078752514828
13405 17058 157.6605715249
13406 19463 79.22717295262103
13406 19464 83.84308903051884
13406 19466 78.34899614951573
13407 14932 79.29725852156592
13407 19464 74.29859864856479
13408 16494 79.3829811090755
13409 16084 79.44890604038292
13411 16437 79.92809287113457
13411 19897 72.5377590595099
13412 15972 79.11541294151247
13413 15183 79.327859843318
13416 13760 274.9373843665274
13418 13419 160.14792208773721
13418 15860 75.85751951033356
13419 15464 76.90258660563175
13419 15465 35.839815122015914
13420 16017 73.54516066977413
13423 13424 105.75035620933966
13423 16706 62.059852204403654
13425 15643 33.703319933159946
13426 13915 78.65947876339773
13427 14666 78.84704674409575
13429 13430 106.92564843827174
13429 13432 23.117490729672348
13429 15228 55.26353984861892
13430 15643 97.82226561020141
13431 16026 78.98643482014072
13435 14505 41.347934662036685
13437 17670 84.50905728143503
13439 13440 85.48819968269808
13440 13977 152.97279669188316
13442 13443 79.43818586993014
13443 13444 78.0942710991156
13445 13446 79.5270678665654
13446 13447 78.51669179075269
13447 13448 174.47224108500723
13451 16480 106.01403106476468
13451 19605 168.86474738651154
13452 18979 74.1393454354151
13452 18980 57.89447948522806
13453 13454 39.15183859888363
13454 13764 272.7553359681824
13456 13464 27.759238941708364
13457 13458 183.0939369619282
13458 13459 300.7386744932377
13461 19016 904.4607582976369
13462 13463 25.98696396443464
13463 13464 198.53856197312675
13466 13467 13.361124726701556
13469 18340 43.58623396760665
13471 14438 121.7839008099262
13471 14439 20.886089612559708
13473 16261 79.2266362909197
13473 18707 119.55697942317613
13474 15527 76.09424527690041
13474 17851 10.29048447245931
13475 16567 85.14581391137781
13476 13477 66.03022902707815
13478 13479 130.9860519991094
13478 14479 76.92414194921375
13479 13762 75.85159570326381
13480 18933 139.98022797227824
13480 18934 76.0354900530362
13481 15567 84.9465762269788
13484 14111 98.90980218633977
13485 14787 99.14493946602937
13485 17378 98.77508696825625
13486 17373 78.36710364423439
13487 14519 56.06922562030677
13488 13489 145.4110663145836
13488 14064 152.58091297034693
13488 14784 106.46599686024882
13488 16314 364.0742644942638
13489 14157 228.2969198421039
13489 14796 83.6040828136211
13490 14800 62.91107762986851
13491 13505 42.59703783906837
13492 14469 199.98386007245716
13492 15923 201.24713745331653
13493 13494 77.20080450791254
13493 14470 200.30014265370397
13493 15193 201.44678672538683
13494 13495 75.66024648381116
13494 14471 200.67139598045515
13494 15924 200.09454803556218
13495 14472 200.0812392291311
13495 15925 200.3245894625809
13498 13499 97.9404042303535
13498 14475 70.85366223677758
13498 15226 212.54711285537766
13499 14124 122.32180373800068
13499 18369 55.47648978050535
13500 14476 174.47644439507198
13500 18369 82.8344459784068
13500 18577 159.07959430946858
13501 13502 152.55043575213924
13501 13922 156.5961482193143
13501 13923 50.26289283643258
13502 14790 126.79862114433683
13502 15117 69.60393923319577
13503 13504 134.92024258986632
13503 14801 79.31275024820592
13504 13505 87.09528601149202
13504 14802 79.72445012520328
13505 14368 79.59128719449116
13506 16856 73.72516994941701
13506 16857 131.3266145890743
13506 19274 48.22980252013505
13510 13511 59.34798975113554
13511 14564 76.57609685505949
13513 13514 155.09906662546368
13513 14559 79.17093805167114
13514 13515 112.65169248009875
13514 14560 79.4381602931808
13517 16537 110.7719852255286
13520 15911 110.93727850031995
13521 13522 46.58028710261245
13522 13523 163.13305727896022
13523 13524 201.00386903542548
13523 19147 168.61721471092852
13524 13525 98.7801036230829
13525 15736 154.33770319720838
13526 13527 601.1857040831587
13526 16721 94.2121675145199
13527 13528 56.504512852139456
13527 16638 121.70119234845886
13528 16354 156.9689829444306
13529 13530 115.66196736743672
13531 13539 31.33584714343536
13532 13533 143.0083543446092
13533 18613 13.444747835270467
13535 18534 72.71241949812203
13537 16094 368.40310898311395
13537 16748 19.49280430282519
13539 13540 202.43770272395565
13542 13543 59.35683714239368
13544 13545 31.13983360702026
13546 13547 79.27134544300694
13546 19451 72.92152009491184
13550 17046 45.30815047395914
13551 19430 78.50287630110032
13552 18977 66.30462881004078
13552 19430 78.62166389729795
13552 19432 79.25199789987924
13553 15940 78.84645131989174
13554 16735 82.59396939499494
13554 18595 102.58680511052194
13555 13556 79.59724911149866
13555 14226 79.61448859097338
13556 13557 80.65394166773626
13556 16630 80.69937158393708
13557 16358 79.68501223922593
13557 19609 77.79120842040417
13558 16740 74.85633988604475
13558 19610 136.62933830728164
13559 13560 137.3297864690241
13559 16681 75.18109205792783
13560 15746 75.27134672807927
13561 13562 101.10010950094406
13561 15982 75.99620417470243
13562 13563 67.17017624530263
13562 16739 76.37562318989268
13564 14863 79.11328353934456
13565 13566 79.44898671122473
13565 16487 78.43346436877087
13567 13568 12.965496327511328
13567 16693 98.98563617468713
13568 16698 79.6371919251732
13568 17604 200.7639464812712
13569 14982 79.09382682241899
13569 17604 230.04181434778252
13570 13571 73.45779281759043
13570 16302 70.48619772061755
13571 16967 200.27909477721764
13572 16738 75.80105453378016
13573 13574 80.83962162503536
13575 14496 136.58718853451424
13575 18147 137.93482514995745
13575 19559 80.38298166870274
13576 13577 46.746673249056535
13577 13578 78.82129467103564
13579 13580 79.7641983126966
13580 13581 79.43823655321198
13581 13582 182.1405438813257
13586 15526 148.69336195429818
13586 19929 145.54670458931884
13586 20071 11.175173864861863
13587 19942 81.11851400179356
13589 13591 25.612979066098067
13591 18394 65.21616373300945
13592 18394 297.6294776690014
13592 18657 74.50523709989078
13593 19145 42.09185221707229
13595 14877 90.75801150499727
13596 13597 68.6971786297952
13596 16492 90.65586277555258
13597 13598 101.98989568818284
13597 16461 91.20090604966771
13598 14740 91.58871450331469
13598 18989 15.307644472308345
13599 16386 106.80376922742823
13599 18989 79.63792589150233
13601 13602 106.95189755062219
13601 15873 83.06485209185237
13601 17635 101.10641206780174
13602 15474 79.20218309582917
13603 15700 79.24282143904395
13604 16634 78.73273068199397
13605 13606 140.19499727444355
13605 16586 78.74390851207366
13605 17618 92.3718026847322
13606 13607 142.35194823953776
13606 15283 78.9291686969764
13606 17615 94.26358746027036
13607 15893 78.7079150883408
13609 13773 30.961435183635558
13609 15058 167.88086270959707
13610 13611 452.00939513759164
13610 17914 260.59196798675384
13610 18198 455.2064978586892
13611 15669 395.50118031153414
13611 16115 120.45218478701453
13611 18198 11.468183555403764
13612 13613 64.82781265023118
13613 17704 63.15904017682427
13614 17059 22.2039020114128
13614 17859 82.98752108218929
13615 16117 53.56411341934454
13616 13649 54.318849589558795
13619 13620 76.578915017029
13621 17854 97.87789498208448
13621 20064 96.64211520479137
13621 20065 10.891647378478561
13622 13623 86.4879926187202
13622 13628 26.073189736473864
13623 14175 152.74635885838086
13624 15392 28.020242660415256
13624 18145 56.841524663155724
13625 13636 46.53622571166759
13626 13627 78.33697564294108
13626 14189 156.15777167894996
13627 14190 156.28763311260124
13629 13630 79.51570441336985
13630 13631 79.04905734159964
13631 18251 105.16833484311827
13632 13633 80.31117529891424
13633 13634 79.38041601985051
13635 17172 103.16873199955262
13636 14188 124.0301924963016
13636 17172 100.37769225132982
13640 13641 11.453117483263123
13641 13642 93.97352598036699
13642 17672 45.38433409230873
13644 13645 156.57443880139138
13646 17655 363.50932805754843
13648 17684 72.7306521187606
13651 14376 124.61244779723378
13651 17674 91.88224881332883
13651 17683 44.78434873889547
13652 13653 75.93904182144283
13652 17677 73.96893379484862
13656 16322 88.85393280357582
13657 15782 45.379077587519646
13659 13660 76.68782338090246
13659 18230 76.63571900973298
13661 14515 39.030719051262516
13663 13664 22.310401085057745
13669 14454 35.84081702335285
13669 16443 23.82695654194638
13670 13671 70.4250483594067
13672 14376 110.04546470215719
13672 17683 49.29747475046673
13675 16658 102.63013233699301
13677 15217 163.87921232197937
13678 13679 31.56726858777478
13679 15829 173.86532174144762
13680 16509 288.0729832328102
13681 18365 255.89683316744635
13682 18578 128.76478502713553
13682 18728 72.31916426313902
13683 19819 25.854533881151596
13683 19820 21.794865752382243
13685 13919 74.97786179210873
13686 13925 89.66000191903512
13686 20052 81.10118541667424
13686 20055 10.210948687456897
13689 16787 45.60123412031318
13689 16904 128.9622939634435
13689 17591 65.5901376728628
13690 18141 68.31816496199363
13690 19211 39.795217774630956
13691 16232 80.73015494940053
13693 13694 80.92432869828312
13693 13839 106.14682967086306
13694 13695 80.05197321927152
13694 14347 171.1321270950291
13695 14348 170.7535752739335
13697 13698 106.51992047479375
13697 14134 63.75552142965002
13698 13699 88.53280176657742
13698 16323 60.23402743547642
13699 13700 84.70655502584381
13699 16403 77.55757010177246
13700 16453 24.193793885100227
13702 14088 166.303088457493
13703 13704 51.42784132013769
13703 14952 124.45271363073128
13703 16536 219.30518625598523
13705 16619 33.92154756248322
13707 13708 140.53974620884952
13708 13709 140.45061477047926
13708 17873 49.979045812019216
13710 13711 124.26146537205948
13712 19146 43.326016327540195
13713 17057 37.497299162338365
13715 13716 36.854643769913466
13716 13791 29.608807972478992
13717 13718 140.46771548367525
13717 15294 51.56321432526942
13719 13720 139.25157005860783
13719 14816 135.81334893938384
13719 18285 55.77875861850895
13720 13854 124.13835047185447
13721 13906 120.55791968402262
13722 14246 121.02764974013643
13722 19105 142.76186862814893
13723 13724 87.38541316335606
13725 13726 116.13731668665564
13729 13730 81.1952446312331
13729 14734 105.37566825928829
13730 15804 210.99167663734477
13732 18612 128.74206494094224
13733 13762 64.20580085936973
13733 14479 64.9845554432741
13734 17782 76.40465095655357
13736 13737 63.47307290843163
13739 14483 79.20592301894932
13740 14498 79.39417118136832
13741 14499 79.53865113883833
13742 14484 79.35023610877674
13743 19812 73.79313973078153
13744 13745 79.98965157758963
13744 14487 78.69347408008487
13745 13746 78.75075609090429
13745 14488 78.75997876301173
13746 14489 78.80399441007837
13747 14490 79.07194423321856
13748 14491 79.1942985317936
13749 13750 83.90896774357584
13749 14492 79.33956799104696
13749 17703 81.59496009876155
13750 13751 106.08419643228287
13750 14121 79.39351022971834
13751 14493 79.48433722417275
13752 13916 79.63865781990799
13753 14494 79.05190627442686
13754 14495 79.42491684863785
13755 13756 181.89715040790418
13755 14496 92.59231971155177
13756 13990 78.70462903115416
13757 13758 87.08800288639921
13757 14497 74.06112797745301
13757 15819 37.24651598922429
13758 15467 41.89898300112986
13765 15111 80.32108441927069
13765 17310 54.62611490132494
13766 15723 79.65736734260034
13766 17311 79.34021334898323
13766 18459 78.02252307695323
13767 15013 79.6775565176132
13767 17311 80.03396432729488
13768 15827 79.03633218814647
13768 19416 158.61697960566107
13768 19417 78.92439295888954
13768 19419 157.1754130833201
13769 14718 79.5376971810957
13769 19416 158.47596269866833
13770 13771 57.44078949041426
13770 16167 57.93932531532502
13771 13772 56.978373462074885
13772 16190 87.26692575962632
13773 15060 128.81009098347667
13774 14095 83.164623092869
13774 19591 89.2988538127902
13775 14096 97.28170086541661
13777 13789 30.463065581848035
13778 14329 189.94354100373397
13780 13781 140.10580570840665
13781 13782 140.43961189151966
13784 14324 139.3071813755737
13785 13786 90.73352340880474
13785 14331 147.52221587049107
13787 13788 161.52853692533137
13787 14040 68.33769697907516
13792 13793 25.480153867179645
13794 13795 58.07170652824135
13794 14554 55.508113616248906
13794 14558 122.2230782284062
13795 14554 97.76795873147219
13796 13797 26.155120184605963
13797 13798 50.08304693475294
13800 13801 39.92187130487735
13800 14251 72.60264028044577
13805 17426 46.93977116425301
13807 15027 200.64786662981595
13808 15152 78.18791859782749
13808 18904 88.47122502724645
13809 14606 130.81743039573612
13810 13811 91.94739026455414
13812 13813 75.82396768072013
13812 16079 99.19767823296466
13812 18570 72.82371122719503
13813 13814 77.04742890618539
13813 16833 102.07427039374876
13814 17349 95.51251014058762
13815 13816 36.5891165147488
13816 13817 71.60796600954524
13817 20138 79.36173660484577
13818 13819 21.906043426260418
13819 16647 55.429488278930776
13820 15448 54.271074821032094
13822 18813 413.5004809640891
13823 13832 23.664454150848837
13826 13827 58.90555740824198
13826 17481 20.73214190398716
13827 17569 83.00507562950327
13828 17569 75.1248191266924
13828 17572 72.70708298669015
13831 19659 143.64781653182703
13834 13835 143.2781670902814
13834 14983 50.01976463127727
13834 15726 56.90566708468346
13839 13840 65.40494923541699
13840 14347 79.98623122993894
13841 14623 113.14309937716403
13841 17891 46.212756199039156
13842 14624 102.70786153305785
13843 14625 96.20948552903559
13844 14627 94.99807539215797
13845 14629 113.92997632194633
13853 13960 88.42479391924658
13854 15560 89.38756360674246
13855 13856 138.60157966162888
13855 14817 81.74850498270801
13855 19097 13.398459087096803
13857 15571 60.89753243031993
13857 18912 227.30116642999747
13859 16837 74.9121424689242
13862 13863 434.110722955412
13862 15975 148.94581628913912
13863 17607 96.63233570566324
13864 13865 53.303899346772475
13865 15977 71.14949885131644
13866 13867 162.80229668287978
13866 15436 92.12674227493758
13867 15029 91.5695805178517
13868 15986 138.98556924330114
13869 15987 138.6621604462852
13870 13871 75.90964643455357
13870 15241 139.09647168171702
13871 13872 76.13542474816998
13871 15988 138.9405269046024
13872 15989 138.71788940152746
13873 15814 138.56838805667
13874 15168 138.17255922728327
13875 15990 138.53014550429504
13876 13877 82.65777531831463
13876 15303 139.25756026875922
13877 13878 81.94332359532439
13877 14281 139.49565996832007
13878 15991 140.44036764440898
13879 13880 83.4609950109022
13879 18832 154.07368353482727
13880 17898 85.92977731698275
13880 18833 152.72670295478974
13881 14330 91.29859197684576
13883 13884 44.50328049212649
13884 16749 51.56387815042972
13886 13887 166.7085065771774
13888 15357 143.00260489573373
13890 13891 208.70373308039584
13891 14857 69.78485246059336
13892 13893 71.26859539850182
13892 14763 151.138488491102
13893 13894 255.78649408683788
13893 14764 151.09888964776584
13898 19311 113.06723145290073
13899 14556 152.4586399722486
13900 13902 42.36836202265074
13900 18049 8.37529970451277
13901 17112 76.24386530963721
13901 18049 50.85524351396946
13902 18049 41.49273143216551
13902 19401 311.16241065331764
13904 13937 23.56136037790022
13907 13908 51.753957674601516
13909 13910 77.17190791266104
13912 13913 30.642274951590228
13912 16157 143.25821568624767
13912 18405 127.42345069984994
13913 13914 215.22954752119034
13913 16100 127.2008686607904
13914 16100 21.93996621856921
13914 16101 47.201908729570334
13918 16505 156.08119050845184
13920 13921 78.05314920143265
13920 15115 127.80756988057726
13921 13922 80.83906087662982
13921 15116 129.6035315222557
13922 15117 129.13375238595987
13923 17235 141.79610475935073
13924 17235 241.38610317612904
13925 20054 10.324439706798016
13926 18178 87.53661886331815
13927 18178 37.03382873567794
13927 18179 43.68242676747499
13928 13929 612.5334273284357
13928 16383 57.47411710745419
13929 15651 385.4951400503607
13931 13932 63.18324075516825
13931 14958 52.3735162455412
13937 14831 73.44792466067341
13939 13953 36.072170747667165
13943 17301 313.23086652888423
13944 17951 146.87755429236825
13945 17950 99.49340914841915
13948 13949 48.012425527011786
13952 19379 11.559762469270735
13954 13955 84.60116659724511
13954 19716 75.31401068198593
13956 17436 107.40892390547872
13957 19867 235.4736396633577
13959 13960 90.0460016560749
13961 13962 41.79267093817077
13965 19292 79.62596621916606
13966 17268 156.88841306084367
13966 19421 78.95047387036816
13968 18981 88.67000907535225
13969 16130 24.308774972719405
13969 17406 56.28739910000631
13970 13971 75.7532401753644
13970 14051 50.74983992325178
13971 13972 75.65211635896664
13971 15425 54.98694016081693
13972 13973 76.23552775484326
13972 15588 96.90766482983337
13973 15604 82.79614602788885
13973 15764 143.6635038739421
13974 13975 87.83078568529582
13974 15932 50.808026492774424
13974 19967 133.7132036693289
13976 13977 84.89791394170103
13976 13993 46.058724402664154
13977 15447 166.38786979948637
13979 14467 159.11709502375874
13980 13981 77.58771861525909
13980 14544 158.94275434788523
13981 13982 25.64158749245949
13981 16010 158.91394722269192
13983 13984 80.07479233646595
13984 13985 78.74844600443963
13986 13987 78.97078695062112
13987 13988 79.47151800246955
13988 13989 182.33842462054997
13990 14496 186.09160474502772
13991 19755 83.2907347475203
13993 18541 97.53477037446751
13994 14650 79.3457216746882
13996 17457 196.5701230281018
13996 17789 12.088372312804674
13996 19160 14.16203659308583
13996 19282 85.02472870202162
13997 20120 233.42104402336903
13998 17237 40.38381335928699
14000 15686 36.86268968155848
14001 14002 227.50696560546027
14001 19645 87.15607661792141
14002 14003 50.43359646554065
14002 19569 79.38483057412881
14004 14005 69.64182221529796
14005 14006 12.958104443823732
14006 17601 79.12574177407416
14006 18663 198.14989858370691
14007 14008 78.79293513285906
14007 18666 188.60383747705353
14008 15196 211.88807706685367
14008 15197 293.37731223095835
14009 19345 118.92316754382367
14010 19345 169.55026731956644
14012 17166 134.6794856437967
14013 15696 74.6562331769853
14013 17628 81.33027201016232
14014 15542 81.23913008083932
14015 14016 43.16896479186118
14015 14018 31.758230480800286
14016 14018 63.950704203960036
14017 14018 779.2366053870526
14017 18304 146.22894151265928
14017 18305 41.6779562172767
14019 19014 98.36129421992918
14020 14021 33.034256052101036
14021 16300 76.62822805458799
14023 17621 80.67599774186074
14024 14025 140.15043267850774
14026 19571 100.72241668423437
14027 14028 202.94749577801562
14027 14030 46.70689879762336
14032 14033 100.75636122377719
14033 14034 103.40270070980594
14035 14036 55.379788841418865
14036 14037 106.02465083300568
14037 16089 249.36188766327416
14038 14776 114.56940169308197
14038 17056 138.03482031693355
14038 18866 76.98623221887846
14039 17638 20.847060219991835
14040 17638 15.425799453390624
14043 14044 588.5701970767044
14043 14995 528.2618718285597
14043 14996 48.35276699746017
14046 15364 193.87504080494213
14047 14229 80.25663713873708
14047 18196 42.82806825758284
14049 14050 98.33280949318694
14049 14818 31.051131559794218
14052 14053 248.6590830257335
14054 14055 95.22994459600979
14055 14188 107.93381026077328
14056 14269 265.6413566578066
14057 14547 261.3868696191692
14058 14548 265.30036485618007
14059 14549 264.56828732002464
14062 14792 80.9851666157125
14063 14789 109.85851640903468
14064 14065 46.64913547609128
14066 14067 146.1309203572457
14066 15428 83.66488345470901
14066 16477 115.95573878018135
14071 14830 250.9216214534597
14074 14656 160.86008677036403
14074 19887 93.57367694854402
14074 19888 13.88309984703184
14075 14076 352.8067752894221
14076 19658 62.599917896242765
14076 19888 55.83146630765673
14077 14615 34.14476396114212
14079 14080 117.98421596094428
14081 14082 85.83685030638601
14083 17506 205.51155824251123
14084 17506 168.25121948288228
14085 15511 84.67081935843235
14085 19058 264.2154040495954
14086 14087 82.68350717746935
14086 19058 9.230096575675367
14087 16366 63.01904049139599
14088 14089 11.421671213109443
14091 14092 121.82055229208544
14093 14094 150.78055363813493
14099 14100 824.2662264406081
14099 15407 103.65666717426129
14099 16313 81.4523856368654
14101 14102 112.98150251970186
14101 16460 130.1182358122369
14101 16485 136.90113441524997
14102 14103 82.75582444656195
14102 14737 120.36703411784612
14103 16388 113.82193769798683
14105 15370 47.29046385660473
14105 19893 47.73480000008116
14106 14315 126.56977233534447
14107 17831 10.20794970765665
14107 19955 104.09901763600038
14108 17368 52.244714911502186
14109 14110 137.63840248257188
14111 14112 200.31815108949917
14112 14113 199.83687660883288
14112 18562 84.71575731208414
14112 18564 76.79420658231136
14113 14114 200.2179872953574
14116 14117 126.05847074267363
14118 14119 93.62703946905721
14120 14257 75.90211454811735
14121 14492 84.64012153596224
14121 14493 106.47221481791249
14122 14123 156.3664684944075
14122 15225 83.18334995459664
14122 16147 69.71462664639108
14123 15226 86.85088114259405
14123 18369 134.11061184162273
14123 18577 89.60705827467423
14124 14125 150.8207243795058
14124 14475 79.2221938725701
14124 14476 83.79633112197828
14125 15227 81.29649114829118
14125 16277 89.14632617030038
14126 14127 79.79462125083565
14128 20051 129.74739432521852
14129 15230 76.65343985314767
14129 16504 81.13427901473948
14131 16394 75.9047592372719
14131 18735 71.1977908068797
14132 17296 28.388993453344526
14132 17297 31.992815995356494
14133 17806 381.71861009808265
14135 14136 109.3827328041302
14135 15092 60.66045744245068
14135 15715 96.54759751840935
14136 15094 136.98199025937532
14136 15793 109.03202073411217
14137 14172 125.0793943537573
14137 18145 41.07729741596272
14139 17885 98.9007192539346
14141 16554 98.10857504993501
14142 16195 94.70577672699969
14144 19306 34.707534210808475
14146 14602 197.52661172061445
14147 15361 40.795078238050365
14147 18362 213.41340628386752
14148 17372 153.668908261876
14149 17487 97.05986918402724
14150 17723 53.532559399423775
14151 14152 115.3543455705588
14152 19989 135.27175238668116
14153 14154 138.7370950473258
14153 16314 177.27405509628335
14153 18352 380.76507814308195
14154 14155 231.62162466515923
14154 14510 106.99381986983232
14155 14156 84.44510488994322
14156 14157 14.062494324533915
14156 14803 62.248129716424884
14159 14518 74.95760071040692
14159 14519 213.7499836835218
14160 14161 31.09707940341472
14160 16445 324.7619910281912
14161 14162 70.70201723613503
14161 14757 147.83418395717226
14162 14163 46.2191032565298
14162 15678 72.38020653257551
14163 15678 120.00857280090761
14164 14165 332.24123978218967
14166 14167 667.5504169699109
14166 14796 143.40224754068535
14168 17856 105.80714692048923
14168 19221 31.997723743526123
14169 14460 68.16976360452178
14169 18343 48.76047941822789
14170 18342 126.87391714066818
14171 14172 68.5524557989989
14171 19924 10.285651554691443
14171 19931 77.40532898036226
14173 14174 41.13106968854746
14174 14175 45.534397459393794
14175 17822 40.36382216538566
14177 14178 65.7543403334161
14178 14179 69.80173253015761
14180 14181 24.16350573703262
14181 17820 51.539685519778395
14182 17819 36.11626501674459
14182 17820 46.446281065902205
14183 14184 24.78587469736801
14184 14185 53.61827447381328
14184 17816 310.90888632061285
14185 14186 51.7170252907726
14186 14187 28.89090694954266
14186 16645 152.82339202631533
14189 14190 78.19258882290893
14190 14191 50.10459210525031
14194 18963 126.30427626597769
14196 14197 44.28398287893576
14198 18294 2276.3937289464825
14198 18994 259.7733664646498
14198 19125 663.7485136632456
14199 14200 1669.1090335894946
14199 19125 459.83634581187897
14200 19641 336.6281221730259
14201 19246 510.0668271553388
14206 14207 82.83504293655014
14211 14235 9.769072586146864
14213 16637 102.21807475876766
14215 16041 87.13302465241638
14216 15417 86.43204080318989
14217 16281 85.85560766423508
14219 14220 60.29637971252125
14219 14388 78.24883769140628
14221 17863 82.17334204727086
14221 18531 98.22239716369509
14222 14223 69.1995731073503
14222 16633 82.35393209529873
14222 18530 88.08595049702778
14224 15010 157.30185700824765
14225 14226 79.44295642374385
14225 16212 79.18286779823325
14226 16630 78.61600828528408
14227 19580 84.54953611742512
14229 16113 94.79439237507678
14229 17156 27.76195881688566
14230 14231 143.27491688746682
14230 16060 79.9611197431534
14231 14232 137.9320255533693
14231 16632 79.68259909418302
14232 14233 162.8959449184057
14232 15811 78.6391631032532
14233 14234 144.1396469229607
14233 15157 98.7790262805508
14236 16992 115.0264637137054
14236 16993 170.59220919746681
14236 18646 96.9981450464489
14237 16159 113.81736604474365
14239 14240 45.048607145185386
14240 14445 101.84119056534291
14241 15123 181.0368046830978
14242 14243 310.6275730805678
14242 17775 141.9734035784047
14244 14245 66.23311355425338
14244 15264 159.930255685163
14245 14447 57.40496858625541
14247 19114 41.71407184481443
14249 14250 96.0316317532829
14249 14891 324.0043872400138
14249 16071 339.0228936564087
14252 15437 198.74442264947413
14253 15438 197.57897783312086
14253 20108 197.874104909894
14258 19988 148.19301775649996
14260 14261 97.78685063838158
14260 17846 12.201474156046405
14261 17714 76.82620319848128
14262 14263 76.4172370761741
14262 17710 182.97890867717356
14263 14264 37.21763453143374
14263 17709 179.7341543444915
14265 14266 97.09527718974715
14266 14596 201.56900106772733
14267 14268 97.24801788667355
14267 16149 200.68917566920206
14269 14270 76.81494173172693
14270 14271 37.72891820027149
14273 14274 797.8593403628973
14273 15408 423.59004019627537
14273 15500 745.057599653164
14274 18743 765.8875251854477
14277 19075 19.807781348380466
14278 19640 71.82164945509386
14279 14280 68.06019254714829
14279 15143 72.8917191793777
14279 15144 88.12564931649263
14280 15144 59.66814463450354
14280 15302 80.52046759833705
14281 15303 80.53579940051017
14281 15991 82.05340691015707
14282 14283 203.95461273834763
14282 15304 83.37582251752298
14282 16744 83.51594694002048
14282 17757 194.43466015164012
14283 14284 13.10212066771554
14283 15305 83.68459020100694
14283 16695 83.18666185357534
14284 15306 83.34418269181435
14284 16696 83.45847232024941
14285 14975 83.18097465750127
14285 14976 83.1264827184192
14286 14873 109.67565684314157
14286 14874 110.09197194455425
14287 14288 79.34266261557508
14287 15309 109.3526461190481
14287 16485 110.02241035690307
14288 14289 78.79361675370689
14288 15310 109.5691912001115
14288 16460 109.23428656620369
14289 14290 81.07327990612917
14289 14737 109.21263812446668
14289 19863 81.45362384893488
14290 15311 109.6069111714653
14290 16388 122.25547282092089
14291 15312 129.7725839194932
14292 15634 66.19575768024181
14293 15307 75.73412773443259
14293 15906 95.96832051303923
14294 14295 178.02591771317603
14294 14947 79.59341094253026
14294 14948 78.65121701802143
14295 15308 79.34945525325331
14295 15487 78.89248322372538
14296 15695 78.95348390199968
14297 14298 531.4234094062317
14298 14299 53.60103608994913
14298 16166 103.70182597302941
14300 14301 13.739635185276963
14300 14302 125.03908946431811
14300 15002 68.07916276834882
14302 16627 147.3130864753638
14305 15968 78.85464608929684
14306 14307 78.2866465433148
14306 15185 78.76409774209785
14307 15996 78.57300731784568
14308 14309 158.71658582207112
14308 15068 79.16008089211944
14309 16022 79.43161746494766
14310 14311 185.2460035982415
14310 15119 79.5047236107105
14311 14675 79.08233679782296
14314 15532 378.06499748059014
14314 19175 30.015569358096077
14315 14316 125.05844568401267
14315 17829 340.40637986057584
14316 17828 340.6354330054679
14318 15149 90.63532238883458
14321 14322 83.9121616085338
14323 14876 82.228828872414
14324 14325 79.46006183572119
14325 18990 78.53724316667692
14326 14327 78.5820122532798
14326 18990 10.376433055337516
14329 16699 201.2581967636851
14330 15976 200.29339110228625
14332 14333 195.0509839044212
14334 16792 85.04033428026813
14335 18732 99.3501365068319
14336 14337 140.08417478109047
14337 14338 140.82880821252962
14338 17917 109.40988809553762
14339 14340 27.287134856840815
14339 14696 32.421115774052254
14339 18927 21.579019474975716
14340 18042 33.828991262286976
14342 14343 25.617015795656737
14344 19299 75.85158011051726
14345 17663 100.68981373677168
14346 16226 32.55327928760488
14347 14348 80.09487759264708
14347 18843 158.69782631128655
14348 18845 155.30964914955118
14349 14350 46.549925217378025
14349 15446 35.60203530242433
14349 19829 16.03714028574191
14350 15446 22.668045613941352
14351 17471 12.642890627960698
14351 19926 92.67131500135281
14353 14354 37.21454081568063
14353 15462 63.580694869391934
14354 15457 64.4719509511477
14355 16083 121.22019490154568
14355 18744 9.554407800017897
14355 18745 71.76481903888617
14356 14827 140.8964909597769
14356 18744 55.7165899901982
14357 14358 86.13219671147127
14358 17365 76.51635464694083
14358 19788 147.56350682162974
14359 14360 77.43475772973942
14360 14361 91.62994333767082
14362 14363 30.253597223619703
14364 14365 62.768261455913716
14365 14366 16.369286627293114
14366 14367 80.07158362807714
14368 14369 79.32722615304164
14368 14802 92.67721221381333
14369 14468 98.1557356473881
14370 14371 41.86726008742343
14370 14546 108.52876494755391
14371 14372 39.037627681609564
14371 19649 79.15086611604495
14372 14373 78.52174544407471
14372 16276 113.90442063913373
14373 16339 119.01723901291213
14374 15883 93.05858802624951
14374 18959 67.55239893152329
14375 15063 126.74225668142108
14376 14457 103.13161787973374
14376 15188 151.25551281625434
14378 14379 15.227615463921254
14378 14380 87.00395142372503
14379 15326 61.66531963848428
14379 17864 313.1025241752029
14380 14381 21.622571510723922
14380 17864 13.216970014722115
14381 17864 32.87956605447323
14383 15977 115.04254085512586
14384 18987 68.46001649328242
14384 18988 9.652046928280448
14385 14386 121.76985678518152
14385 18988 80.50790046564723
14387 15625 59.831107973650546
14388 14392 51.56585964590674
14389 14390 193.89415703860317
14390 14391 55.37572682242029
14390 18001 122.88962988233448
14393 14394 43.98886476112203
14394 14395 87.43364698499704
14395 14396 33.729152423919636
14396 14397 122.47825375122837
14397 14398 106.98233314652883
14399 14400 158.5685986307964
14400 17994 80.3633787063466
14402 19792 4.7435204883659985
14403 14404 12.98557403828004
14404 14406 61.270092182736576
14408 15816 26.302465614084372
14410 14411 36.2063710111602
14410 15257 38.93901550264856
14411 15257 52.08903791550007
14414 14415 152.68626849529772
14414 15105 72.62700204582585
14414 15855 79.2733099296528
14415 14416 36.305336427417835
14415 15105 228.46417993739357
14415 16775 76.56720240455608
14417 16120 75.59074385236038
14417 19731 79.27671527969083
14417 19732 6.227705888661323
14418 14419 79.64094650652532
14418 17334 83.23220704256345
14418 19558 78.4050515961922
14418 19937 238.45053865473477
14419 19555 79.2025811121581
14420 16669 77.94114444651257
14421 17455 230.87890970971017
14422 15023 45.67099554577019
14422 15024 83.29282313380132
14426 15403 108.20616780319554
14428 15046 62.68661614770934
14429 14430 158.04793403620332
14430 15400 79.85030084331623
14431 14895 76.09204860672918
14432 15824 333.3839864458405
14438 16263 56.90845480435571
14440 19657 31.855083162180062
14440 19945 104.85209336674978
14443 14444 89.27910549259906
14444 14447 36.68273723249915
14444 15170 108.6871384927458
14447 15265 138.50486490885226
14449 14450 75.9097924218102
14450 15731 92.67769610676885
14452 15674 78.84973469119397
14452 15675 79.7569559388773
14453 14903 78.68785095978392
14453 14904 79.54036661212832
14454 14455 200.75396825380378
14455 17928 273.67101127418096
14456 17928 21.79473941607761
14457 17652 269.76782399504395
14462 14911 76.97938956726131
14462 16143 123.59752723160314
14462 16880 597.4225013805526
14462 18644 15.099579745638593
14464 14786 199.95249119320482
14464 16274 199.10592732036739
14465 14787 201.85869121281613
14468 14802 79.59091586820404
14469 15971 202.649389707038
14470 14471 75.44958183621539
14470 15194 202.3757145367626
14471 14472 76.39647834667821
14471 15999 202.560507163373
14472 16278 202.54096294670362
14473 14474 147.80522341559362
14473 15919 95.08172488434428
14474 15919 155.89203232274596
14474 16020 161.5218650173959
14475 15227 127.85213603804658
14476 16277 204.59916861358064
14477 14791 240.1464021946477
14481 16191 70.84450217545398
14485 18482 73.00041449711796
14487 14488 79.93397458148752
14488 14489 78.54709270389696
14496 17641 81.41060603334643
14497 19687 55.696053358325436
14506 14507 73.08789273851505
14506 18841 91.26291196824288
14508 14509 109.58832869166942
14511 14512 47.102521899781586
14511 16708 74.76098266030517
14512 16398 80.48597501353103
14513 14522 94.498497980354
14514 16116 150.9741911213357
14517 14518 61.28197258913045
14517 16153 49.25910306252923
14518 16646 47.96829190100217
14519 19828 134.20277145437421
14520 15470 162.2129323210393
14522 17499 172.96841760100568
14524 14525 33.26369101309271
14524 17052 9.938386718523383
14527 18973 79.24626251531478
14528 14529 369.64090361202614
14530 18853 393.2283062448083
14533 14534 36.6541952349646
14534 14535 271.3985530762934
14538 14539 145.07220633103304
14539 16288 137.49321519967936
14541 14542 63.0148111947973
14543 15113 78.69424586185949
14544 16010 78.40004838931738
14545 14546 134.7195498242607
14545 16275 78.57008641468511
14546 16276 79.16402345746187
14547 16334 270.572236834935
14548 16335 271.26081130864725
14549 16192 273.1296200261083
14550 14551 123.29726363307213
14550 16273 125.97358828332607
14550 17369 192.70357189068037
14552 14553 163.74313993771815
14552 16345 163.1299077051308
14556 16197 75.86732054377732
14557 14558 49.15980286299646
14558 14642 172.88864661916676
14559 14560 153.7876507530947
14559 15493 79.17093805193407
14560 15494 79.20425967340678
14563 14564 83.3610789075939
14564 15495 81.37276011773206
14567 16656 55.56263976699617
14567 18486 74.01931638379581
14572 14573 79.09988561922208
14573 14574 35.046896766245204
14573 16356 117.39334435714365
14574 14576 33.1873087358014
14577 15769 277.611624886112
14580 14581 20.818401616305525
14581 16613 60.04858504247231
14582 14583 39.11135216089206
14584 15673 162.80613908060147
14584 18434 205.69839051539282
14585 14586 81.66608923284473
14587 15044 197.1986104308706
14588 15215 31.388715371528363
14592 14593 39.154628186081794
14592 14921 82.91181855951204
14593 19018 95.2670094621774
14594 14599 35.31556326082942
14594 17174 125.64405404258628
14595 15339 75.4134485897436
14596 14597 201.4279910370164
14596 16732 97.58792992722064
14597 14598 199.34042793223585
14597 16555 97.44638139964337
14598 16196 100.89149963617996
14599 15790 146.04551501071887
14599 19802 233.3898246021571
14600 14654 76.14196974323325
14605 15840 198.1070572230283
14605 16433 113.55350822383642
14607 14843 80.58134087948775
14607 16121 70.62611829298348
14607 18783 156.04878419865173
14608 14609 98.68107337804538
14608 14697 53.892991661369244
14612 14613 143.51534068060565
14612 16237 83.88868302436092
14613 14614 168.12428819275056
14613 14738 79.07781156641582
14616 14888 120.93268206589622
14619 17388 73.54856012358583
14624 17953 66.85608886350981
14625 14626 140.70641989121918
14625 15797 85.86089907177528
14626 15798 84.98678861600563
14627 15799 81.79371815634326
14628 14629 37.44365654221162
14628 15800 64.64232678061359
14630 16381 117.12240592049181
14631 14632 143.71137093599492
14631 15887 106.70395255029611
14632 14633 140.05810077066633
14632 16421 104.18715523954722
14633 15107 101.37536319887653
14636 17428 425.73286256151573
14637 14638 118.35515212927098
14637 18102 99.84811501024764
14638 18102 24.242362745456084
14642 17359 32.215044135129226
14644 14645 185.33211371091423
14645 16412 165.3783503426175
14645 16501 33.564396284336794
14646 15914 206.234820059926
14647 14648 61.066463963700706
14648 14649 60.2959927243544
14648 14946 95.78345725936818
14653 14654 78.10102801147295
14656 19365 26.473352589761873
14656 19886 21.378026635336187
14660 14661 79.15174545866617
14660 17979 78.86357466130474
14661 15109 158.35171677398324
14663 14664 79.35183028629301
14663 16995 79.60774765215434
14666 19561 80.12858772695024
14667 14668 41.56413986537046
14667 17660 104.00964199642274
14671 14680 26.30952923623197
14675 15119 185.30318450549333
14677 14678 70.15803233317085
14682 19324 122.81727143783883
14685 14686 52.40876472310846
14690 18607 6.53562445983411
14691 14692 81.97032956464886
14691 15258 82.53418226520583
14692 15259 82.64538656937273
14693 15260 82.8525047659027
14694 15261 82.84413302195543
14695 15263 82.85925698332423
14697 18042 33.38290655103724
14697 19267 63.12968055999268
14697 19279 17.29590043963975
14702 14703 58.439288820288056
14704 19599 182.6057048265999
14705 14998 41.79153764598629
14705 17790 53.266937209472225
14705 19119 22.6068637303378
14706 17548 25.120814407287543
14707 15177 64.44554303967074
14708 15644 66.84243641445234
14708 17125 36.78389149344463
14709 16187 36.09820374089155
14709 17486 268.0667469353199
14709 19947 252.70858876263222
14710 14711 120.8391569537443
14710 18213 127.01920290341032
14711 14712 148.39121208689278
14711 18213 11.871229512761463
14712 14713 38.91858555066372
14712 16408 188.9256952945164
14712 18211 17.7237617974673
14713 14714 11.206350150386914
14713 18211 43.24909976008628
14716 16409 60.031382396693196
14717 19440 79.93282215871929
14718 14719 78.63523229312703
14718 18913 150.90276311890747
14720 18919 155.47495254555466
14721 19980 155.64902088265487
14722 14739 79.27253951072798
14723 18252 44.15475469710105
14723 18430 61.87512589809069
14724 16463 88.11121805528475
14725 16133 88.47875271941487
14726 18055 32.6135157257599
14726 18208 40.72930986020443
14727 16214 80.7174512458276
14728 16466 94.01860658437259
14730 14731 79.14020081088223
14730 15245 73.65615734354631
14731 16068 78.64928645630565
14732 16459 89.66974366247803
14732 19861 122.28738739854208
14733 15803 81.25121926537864
14733 18773 6.749582041744386
14733 19860 27.710744448107825
14733 19861 27.45395717234647
14734 15164 84.011019195367
14734 19860 140.16977887134485
14735 16110 82.6175935400645
14735 19007 58.838933422346614
14736 15310 76.69128904875625
14736 19862 27.57470594905577
14736 19863 28.510602939666587
14736 19864 6.816263083762044
14737 16388 83.80182191695963
14737 16460 78.4603720414424
14738 16237 157.32615741163153
14738 19000 199.8259586185391
14739 15606 99.27297547673805
14740 16386 72.76689387081778
14740 16458 78.01540720069026
14741 16456 122.56428437909503
14742 16457 121.87120553517542
14742 16588 196.9227437154977
14743 16247 121.95981928728902
14743 16248 194.68311536759035
14744 16037 199.34248095243646
14744 16038 80.00497244445474
14745 16282 201.50783099213288
14745 16283 217.9999660161993
14747 18336 61.1491954979099
14748 19369 99.10072211290998
14748 19631 244.692972502488
14749 14762 100.24255497073692
14750 16721 200.92541548805937
14751 19680 200.29636772840743
14751 20117 7.457904156595697
14752 14753 56.8877707434341
14752 16690 200.394454014673
14754 17015 442.58048957490746
14755 18235 125.04759373308396
14758 14759 44.73447807934596
14758 15820 32.16372878207024
14758 15821 39.997258403036035
14760 14954 155.7587797278293
14761 15270 200.7721388059179
14761 19157 84.20020685755097
14762 14857 189.03964179324328
14762 16390 33.6948065384765
14763 14764 71.00769764901796
14764 16252 433.13203512647414
14765 14766 87.28230228631527
14765 15640 90.5129263726436
14767 14768 28.278207506573096
14768 14769 23.69905926396008
14768 14770 38.832823907695975
14771 17630 81.9387595755718
14772 14773 139.79466776736533
14773 14774 140.461824306332
14774 18514 74.2713463808241
14775 14776 169.7953216610267
14779 15697 87.99526320275555
14781 14782 79.14290860768894
14782 16994 24.691601654425774
14783 14784 68.59411349765753
14784 14785 34.235877483653006
14788 15961 131.6696486548933
14790 14791 18.130697361680667
14792 16009 181.58227900967992
14793 14794 57.20229945762522
14793 14795 87.78563441132323
14793 14796 126.46742478174009
14795 14800 41.03071524252212
14795 15791 49.97864353638711
14797 16347 51.66213091675977
14800 19771 73.40920288498258
14801 14802 134.98189966821963
14804 18857 71.76218961941639
14805 14806 36.58351462055261
14806 14807 281.84464566682584
14807 19745 29.93790460029036
14808 15379 76.40401992263386
14808 16895 191.88249984356636
14808 19628 79.15099154524414
14809 14810 201.2681217770754
14810 18131 192.97835379789362
14811 14812 84.33884494204196
14813 14814 218.74448502621541
14814 14815 166.39595455674726
14815 18182 44.010478708723525
14816 15560 91.48066027475554
14816 18792 52.09622528271987
14818 16414 101.92443619825049
14820 15558 78.96742701255008
14821 16513 47.75584294957514
14822 16125 78.94882481651021
14823 15649 79.3515655411173
14825 15773 33.98196949046987
14826 14827 138.70609916653618
14826 17884 87.14814224520593
14827 16083 62.09147615834251
14827 19330 57.80069329133272
14828 15100 80.5671001858918
14829 15430 199.2346821631408
14836 19204 30.326617404385168
14836 19236 22.76781283730203
14843 18783 78.51264357146877
14843 19260 126.81709749063695
14844 18457 77.32675490220599
14845 16427 137.06540300305548
14846 15332 49.49288576576328
14847 18307 26.99402081516812
14847 18308 88.37248775592073
14848 14849 202.45042491139617
14848 19598 154.3731407186163
14852 14853 24.681426134142804
14853 17115 206.8476294528712
14854 17115 46.060781670281585
14854 17414 195.23295121190228
14857 14858 149.55290931232724
14858 16255 361.23445696804026
14860 14861 69.46077722710945
14860 15547 40.69816419330731
14860 18351 347.05026044411125
14862 14863 80.13775387634129
14865 17323 139.78677376877224
14865 17489 79.05029248710778
14867 14868 158.0648977076819
14868 14869 158.42118586577087
14869 14870 157.89996632601265
14870 14871 168.76096497351915
14871 14872 157.35472027667927
14878 14879 52.98202515621673
14880 16683 72.77826682872049
14881 15948 40.92720914565945
14881 17289 142.1857486701886
14883 14884 123.58988679344017
14885 14886 175.88879468887737
14888 14889 125.45602994636747
14889 15713 51.52344166419318
14891 14892 87.64323249758407
14893 14894 23.4405358377414
14894 14895 54.88830757045182
14895 16295 71.64365286695332
14897 14898 157.21264332321516
14903 16648 38.52199854035199
14905 14906 32.45792855319751
14905 19995 29.658564192378712
14906 17865 47.33357594935375
14908 14909 42.560360391645574
14911 16143 78.12564096730864
14911 18644 76.77930028612832
14912 17267 79.37486361587095
14912 17308 78.41214414999519
14913 15109 79.4755095027938
14913 17308 79.33250569545649
14914 15012 79.64511228466925
14914 19425 80.22714898981647
14915 19288 80.17500411436005
14917 15356 104.23741467592936
14917 16931 62.51610206864014
14923 14924 21.814488424102283
14925 15367 152.98853083901457
14926 18767 200.16171512145
14926 19021 200.72359751791325
14928 19838 13.921293244787039
14928 19839 88.52861032432236
14928 19885 243.85853955280024
14929 17828 10.087276232662173
14936 15478 173.90114784112532
14937 15479 173.47610519687947
14938 15480 173.7226378466924
14939 15481 174.25560966990213
14939 19381 82.11646882243451
14940 15482 173.90047201487238
14940 19381 81.85347195594278
14941 14942 81.06646920173446
14941 15250 174.2001408561878
14942 14943 82.65342911221519
14942 15483 174.27242091345812
14942 18524 167.67127742914155
14943 15484 173.77755753981418
14944 15485 173.48748553845948
14944 18523 165.36473408408804
14945 14946 27.59272210921388
14945 15486 174.77700184296498
14945 18243 80.09132881003413
14947 15308 177.5317225026756
14948 14949 46.71229011161278
14948 15487 178.97613767782653
14949 19080 54.54737648978059
14951 15488 78.63729048871313
14953 15477 84.29508498604567
14953 16535 83.92761197440221
14955 14956 492.43242521670027
14955 16537 137.81464678684938
14956 16534 84.84514455710368
14959 14960 202.1737991890991
14960 14961 159.44399266446706
14960 16806 102.69546937636923
14962 14963 99.02521600679509
14962 15402 288.7450748345966
14962 19227 80.75313541463476
14967 16720 164.13425199375794
14968 14969 125.72709076602322
14971 14972 83.98742128675646
14972 14973 22.299982433436192
14973 14974 81.39743803051995
14977 14978 24.186341146745487
14977 15196 78.54218986894257
14980 14981 244.390265173172
14980 16050 76.88156118887383
14981 16523 76.6259084961118
14982 14989 39.56354848473211
14982 16524 80.08333521541878
14984 14985 22.924314243024703
14985 14986 60.9120125717311
14986 14987 15.147844721553401
14988 14989 78.66627105473515
14989 17964 190.778055619412
14990 14991 54.5706343819371
14992 14993 24.074883032157775
14992 17776 16.384201866776753
14993 14994 67.24564269832086
14993 17776 12.384040173848097
14994 14995 98.73463396629772
14995 19178 252.21262371511426
14998 17790 77.37862405475596
14998 19119 43.98513628665164
14999 15000 55.30911965821269
14999 15004 9.915908675883855
15001 16680 34.643327258355356
15002 15003 151.94405460426415
15002 16815 62.75307577471036
15002 16816 74.52506387577206
15003 15691 37.47192236316651
15008 15009 115.80246992942162
15008 15224 56.4838094273931
15009 15061 101.80329400686973
15009 15224 151.8390534810594
15012 19294 79.1906461772527
15012 19424 79.93612829555804
15013 15014 78.8987640110331
15014 17268 77.79481845191879
15016 17241 78.8933009373121
15018 15610 51.55420026865488
15020 15021 22.495006169966427
15021 15022 404.1479524804112
15021 16002 94.36527621567664
15024 17317 41.3464045652113
15028 15029 95.65013775994588
15028 15435 163.21624057021347
15029 15436 163.0665447086868
15030 17410 116.2108268236209
15030 17411 67.30049128033896
15030 18201 36.244673674614965
15031 15032 82.48588196427697
15031 15439 124.74413116382905
15032 15033 56.499906263714
15032 17784 125.23683937998543
15035 15036 33.46468050553976
15036 19041 40.06144734077661
15037 15038 82.43542333696413
15039 18451 77.12743948242263
15040 15041 76.82161290110164
15040 18447 82.24049729209374
15040 18449 79.6284812436124
15042 15043 31.268248148516733
15047 15048 24.20590492650764
15048 17234 30.98564630550151
15049 19681 17.180212636767894
15052 15053 164.2492045950222
15052 16534 394.1148212097677
15054 15055 244.2931950914997
15054 19579 160.60002538579943
15055 15769 203.4302169201416
15056 17394 193.77638237419202
15056 17395 222.41088638724403
15056 19050 28.69172117818536
15057 17243 37.37350373481961
15057 17244 25.44655649938415
15058 20024 10.142094869326462
15059 15060 82.15404822919396
15062 15238 65.84434999593279
15063 18982 54.954828182886025
15066 15778 130.7162898468644
15068 16022 159.38894570004993
15069 15523 159.18155966920895
15069 17977 11.030827660742649
15072 15073 53.329860229605636
15072 16081 38.31993334368197
15075 19898 9.563234467832189
15075 19903 115.35728304597176
15076 15077 55.286262097349116
15076 15079 75.38902872589786
15076 19898 342.41585303464154
15078 15861 142.63162187856653
15080 15081 166.48754198825353
15081 15082 139.78510019343378
15081 18330 99.66383590706297
15082 15538 116.91149078385887
15084 15707 79.06451833215175
15089 15090 33.30599091648679
15089 15124 46.5108882786414
15091 15092 188.11937395499834
15091 15715 106.33717268173882
15092 15093 79.32670151440631
15093 15094 43.347854905306974
15094 15095 82.29693284248198
15095 15423 313.294389290551
15096 19723 90.55003632884768
15097 16508 90.006616548451
15099 15100 158.1651563376305
15099 17355 87.43433769628389
15099 18088 79.6609971697201
15100 17355 244.60165867199362
15101 15102 133.11436636089073
15102 15103 17.43917938699399
15103 16711 29.34429671462562
15103 16712 158.87165927772463
15106 15383 79.47344980182939
15106 16892 136.57100049453578
15106 18128 81.18015044249718
15107 16421 140.16231631762696
15108 15959 149.39472949645366
15111 15112 78.90819165071628
15115 15116 78.21512554145521
15116 15117 78.69326135417037
15118 18705 152.7153332804988
15120 20048 33.86332212536823
15120 20126 19.18307316868065
15121 17720 130.80368215824632
15124 17579 206.0002790041935
15125 17796 24.663779846227975
15127 15923 178.50235414192232
15128 15129 76.2592571369633
15128 15193 164.5886364558137
15129 15130 77.30476522112956
15129 15924 159.16482167015084
15130 15925 152.1627065871478
15131 15132 59.54560154673018
15135 15136 145.97781765984803
15135 15137 197.78823484894346
15135 16204 316.96914515291985
15136 15661 89.45847338684942
15136 19352 63.51505378314998
15137 15660 51.3474879989604
15137 17306 49.64059025864845
15138 15139 86.7495910440374
15138 19515 69.04317433639167
15139 19514 96.0838264864222
15140 19512 134.66957170182948
15141 15882 20.083231051920375
15142 15143 64.14438887822207
15142 16448 125.23399034003522
15142 16449 101.85379452867541
15143 15301 81.3628044299509
15143 16679 81.57363775301458
15144 15735 22.565318332115815
15145 15146 33.31431047277944
15148 19378 9.407220291737357
15148 19947 145.2577437445307
15150 15151 641.0925480991344
15152 17085 105.48389994029674
15153 15154 204.11135791781973
15153 17765 193.76855355338625
15154 15155 12.599182199423504
15157 15158 78.04811260333626
15158 19607 78.11539127026626
15159 15160 109.28263986001757
15159 19607 140.75171207676803
15160 15161 171.6745867032337
15162 19606 174.16527731657328
15163 15164 79.38218403190324
15163 15802 168.53037930819133
15164 15803 168.28770157800417
15165 15765 93.97009103694793
15165 15766 175.64362512756352
15166 15167 5.337369698256509
15169 17765 26.282554932976574
15173 16772 61.167187849427776
15174 15175 14.744454907621888
15174 17769 286.0874839875945
15175 17771 280.2898733620276
15175 18608 270.216475352121
15176 15177 79.41638166080527
15176 16224 56.70814096767626
15176 17742 203.49676865310005
15178 16373 65.53379898093037
15178 19385 73.49995933178072
15181 15182 79.0844024268375
15184 15190 42.771010603006616
15185 15186 110.37337249677208
15185 15996 79.28825718159514
15186 20045 82.20647529975568
15187 15390 79.01801053897168
15187 19313 20.52257430429374
15187 19973 47.41401676713867
15189 16503 152.17049031850874
15189 18748 64.85614673867076
15190 15995 36.73772375933497
15190 18747 79.31802269920807
15190 18819 285.35890781056776
15191 15192 75.87096738358939
15191 15969 159.5343540532673
15191 16075 152.1447304696612
15192 15998 76.67676062213854
15193 15924 77.09585235331545
15194 15999 75.76523500359703
15196 15197 60.43858826173204
15197 15198 55.03989266564891
15199 15200 12.987700094089954
15199 17606 82.42632129192626
15200 17599 78.83357749661828
15200 17603 82.35370310053148
15201 15202 81.72841027879437
15201 15210 47.25469951213988
15202 15203 233.2676990039253
15203 15204 47.999165966705625
15206 17630 83.99824878544489
15207 18497 29.602144643171883
15208 18503 134.58112040436873
15208 18513 74.89371949812589
15208 18525 246.00705645483535
15210 17631 77.65704705097981
15213 15214 49.73759996520561
15219 16345 46.98869292101452
15223 15224 93.8172601198733
15225 15226 171.65507806299348
15228 19919 82.85286867498762
15228 19987 38.73802878434393
15229 17646 79.14480962190594
15229 17664 104.515102514528
15230 15231 53.67437605017645
15232 16177 158.4266432336841
15233 15234 93.21639049593443
15240 16462 468.9398910147956
15241 15988 75.9572096052751
15242 16307 102.55389172749298
15243 15244 77.73065491724189
15243 16066 71.90507699841615
15244 16067 72.84707893634129
15245 16068 78.96730535069227
15246 16069 80.06384319387982
15248 15249 172.26717740185302
15248 15278 38.66382875856115
15249 18509 76.75891218327989
15250 15483 82.16182120850627
15251 15878 81.55792039795087
15254 15255 45.90812068877979
15255 15256 27.070238019827755
15257 15504 164.5909866329931
15258 15259 82.46092144724918
15261 15262 78.93764874793753
15263 17787 55.36656355487848
15264 15507 154.19002027568797
15269 19321 78.61491836131233
15270 15896 96.85602686920822
15270 19642 30.873086077097938
15272 15899 170.58242142955334
15272 16526 109.13945764705238
15273 15900 171.0085904358923
15273 16138 109.51655036225293
15274 15901 171.20713484490778
15274 16583 109.21585816954641
15275 15276 112.53176788666303
15275 15320 149.02335427322745
15276 15320 115.8493813905
15277 15903 171.80993139615896
15277 17616 83.37949476606494
15278 15279 40.35535578309688
15278 16062 109.77226787719665
15279 15280 84.3853504752984
15279 18505 165.58411561923748
15280 15281 18.07736108948894
15280 15904 171.11834474037536
15281 16584 110.20622123151992
15282 16585 72.36630370856618
15282 17624 137.13648787214765
15283 15893 140.7064169849907
15283 16586 140.27330073901962
15287 15288 89.480697032422
15288 15720 21.515389015878867
15288 18033 73.69632295732035
15289 19479 158.70650206707722
15290 17808 40.00577983972114
15290 18438 79.21426200255097
15291 15292 100.1255944082447
15292 16188 458.4117708482287
15293 17799 68.13871311893129
15295 15510 62.35507950934531
15297 15298 60.522321591332705
15297 15503 54.375486398620964
15299 16114 129.8860965742237
15299 16353 139.23664786266482
15300 16585 137.05559148229287
15300 17624 75.78070924486917
15300 19506 133.03609649600017
15301 15302 140.48667313968508
15301 16448 43.80891772379242
15304 15305 203.90963091291127
15304 19943 157.37504973610615
15305 15306 12.665206161139029
15307 15905 97.74406889981074
15309 15310 79.17373424153969
15311 19864 75.17915053673957
15314 15830 41.770202563947976
15315 18951 111.25695009931218
15316 15430 528.2079574791078
15316 15770 35.260047332680045
15316 16624 134.70769970767896
15320 15321 43.925184327098904
15322 15323 16.455307091077223
15323 15324 90.60447037290362
15324 15325 144.75058488587587
15325 16817 26.555264108446046
15327 15328 39.40187628327267
15327 18946 75.57844681006112
15328 18946 53.262677951519535
15329 15330 123.33696642880838
15331 16131 62.98266552393836
15332 16241 30.137019359010896
15335 15471 104.0948772741088
15335 15472 87.91902382833322
15338 15339 75.98516991264331
15340 15341 76.7418175128016
15341 15342 75.70739471701127
15341 18341 198.92182463201127
15343 17433 16.308009187175152
15344 17433 208.46945251256642
15346 19743 90.12488692306731
15350 18375 171.03268166615095
15351 15352 96.19776981757433
15353 17754 164.1791610341015
15355 15356 54.96416187796979
15359 19595 457.74923778439864
15360 15361 75.16249156420301
15360 15371 22.970600266121842
15362 17377 197.8199061153103
15362 18363 200.7516521971145
15363 18554 438.3019518559366
15364 16336 78.68931357833554
15365 15370 69.62533187018018
15365 19839 35.92590377713103
15367 17676 357.8266117689348
15370 19836 9.974567387024196
15371 18929 100.36700638977804
15374 15375 32.3767521571858
15378 16921 192.4309841169276
15379 16900 194.99330954553963
15379 17733 201.52489189692537
15380 15381 88.0804745828951
15380 16926 192.44635432319112
15381 15382 55.71865108156231
15382 16907 137.29829657252589
15383 16913 137.30717472771198
15384 16786 79.1687272388408
15384 17590 11.571839228589177
15385 15945 79.19698555009535
15385 20101 140.40916942614973
15386 15574 78.64723786586809
15390 15391 90.8255437224135
15390 19874 251.39421782818826
15391 20047 214.13881244153683
15395 19188 60.70925677647945
15399 15400 191.1844320443884
15401 15402 44.699033519101775
15401 16570 223.02626122927222
15401 17965 94.83515939264187
15402 15960 405.2876168560924
15404 16594 56.91066058520912
15405 16033 47.451924063231125
15407 17798 281.9973947657023
15409 15410 78.86445880739019
15411 15412 159.0724851914646
15415 15417 21.093063944359532
15417 18992 58.10709642031358
15420 15561 128.43506007393017
15420 17906 108.09239499679438
15422 16596 150.07801342561885
15423 15424 74.9969055907404
15423 15793 143.82610367284965
15426 16657 51.0771661587643
15428 19064 105.0650982813772
15429 15430 69.76414891618464
15432 17114 126.53747696386864
15434 15435 21.82761715076781
15435 15436 95.93980858660231
15437 15707 54.35442209804991
15440 15441 49.126027512181885
15442 15443 244.8117750278362
15442 16050 76.02620227645382
15443 16523 75.45714440932738
15447 16013 43.203037543134464
15450 15459 39.721492637335125
15451 19653 345.6116444032865
15452 18261 25.46609003877092
15454 15455 101.69462037945343
15454 18399 189.76746939975783
15455 15456 122.27419500983197
15458 16439 155.6181565776032
15459 16399 80.48027293403574
15461 20084 109.20666947619006
15464 15860 160.4453929296585
15468 16397 41.510558207913235
15468 16398 103.49070962178321
15470 18250 290.9692106976125
15470 19916 109.34088937267597
15474 15873 123.42670985725454
15475 15874 158.79960872410595
15476 15875 158.5552601372265
15483 15484 81.76499773922079
15489 15490 82.07332064307279
15490 15491 86.5420468569048
15490 16727 48.33550610514484
15490 16728 67.89761532114015
15493 15494 153.85205883365148
15495 16170 18.458385547149845
15497 16197 110.78101693981917
15497 16877 172.31280008509475
15499 15500 39.89743057363972
15499 17806 24.670083788794415
15499 18743 265.0976542212529
15500 17806 48.2466059743941
15501 19234 13.291627803586142
15502 16842 184.49401401240996
15503 15710 135.57454233750846
15504 18851 37.15206642410125
15505 15506 37.634907889480225
15505 16714 37.575009340871695
15505 17232 12.60662862508048
15506 16714 49.62771247234906
15508 17880 40.1448745517542
15509 17800 359.25042665660965
15510 19302 43.303414974112236
15510 19304 42.522821777475876
15513 15888 97.68581832373536
15514 15889 96.89648529109267
15515 16504 86.02498561625033
15515 16505 11.664366885487885
15518 15784 82.65733219478692
15519 18015 13.769458562392284
15519 20076 14.87231895504633
15520 15968 67.73280377578513
15521 20042 22.454779612024076
15521 20043 61.64529173705033
15521 20047 10.293069567235177
15522 20044 10.245564183473727
15522 20046 84.29394090477541
15523 20059 84.86019214637354
15524 20051 88.59766274880458
15524 20052 72.44625934953855
15524 20057 10.313882713948807
15525 18964 78.53074722638915
15525 20048 13.927466133381804
15525 20126 40.80019644956048
15526 20060 26.335904991338353
15526 20070 10.252189681712458
15527 17852 10.544792685091345
15527 19931 157.57485857655914
15528 16551 10.441914051144078
15528 17826 73.68624172172494
15529 17840 87.73998400171567
15529 17841 78.40942839581197
15529 19933 10.343965065044777
15530 19934 10.51935268043802
15531 16265 340.58784918655465
15532 15533 100.36988085123131
15533 16183 798.7032539503723
15533 18573 17.50983475640048
15534 15837 185.20222779922415
15534 19914 136.30163702920677
15535 15536 77.92665869574618
15535 15716 44.02002046573132
15536 15537 100.94828475317713
15536 15958 158.09780248464787
15539 19745 103.19159377356854
15539 19915 6.794466666546554
15539 19916 68.66843682157167
15540 19273 64.79907875341715
15541 16978 406.16706097872844
15541 18316 148.3093208099899
15541 18637 23.195760156131687
15546 19567 41.093426772989915
15548 15549 189.5456100944518
15550 15555 17.102874096895796
15551 16309 86.98983426785051
15552 16303 64.18189504390556
15552 16531 139.66270537295088
15552 16967 79.79639853729239
15553 16134 63.74288079686906
15553 16135 140.1978740153224
15554 16304 64.38253026540124
15554 16662 137.82911363481793
15557 15718 158.60857044165488
15563 17931 61.6137642991926
15563 17982 38.8063173470408
15563 17983 29.50351539642189
15563 17984 21.52239387930093
15564 19754 63.443514256911854
15565 15567 34.26273083411047
15566 16940 79.2250593831756
15566 18568 60.79311034772692
15566 19191 24.514401367546338
15567 18682 404.5252960826704
15568 15826 78.91876635393069
15568 16991 79.38827712155307
15569 15723 79.53198324715751
15570 15827 78.94830730167901
15574 16924 79.26128807468113
15575 16159 47.62712370797577
15576 15577 89.62126980150478
15578 15579 146.20087835971876
15579 15580 39.77282052295374
15583 19387 48.290824425080984
15584 19387 6.328932283084224
15585 16410 155.52517666155916
15585 19387 166.78041975866694
15589 15590 82.3552087135824
15593 17781 124.38977603241844
15596 16825 52.487450208427205
15596 16878 69.98659179513268
15597 15598 36.78152608247142
15597 15859 32.08272131609349
15599 17903 66.2816796662019
15600 15601 41.37949018842765
15601 16535 198.6425599498134
15602 15603 47.9599532390992
15605 15906 66.93326877976024
15607 15608 114.18582401526955
15609 16595 82.09984724426702
15611 15937 75.83423096797732
15611 15938 76.42578023569921
15613 15614 141.57607556800144
15613 15692 77.13884588279078
15614 16198 78.8969360757552
15615 15616 140.64395000111313
15615 16199 78.50412136173766
15616 15744 80.00509198544097
15617 18832 11.507628294184295
15617 18833 72.44052266349803
15618 16200 83.83048448733099
15619 15620 143.0667992305831
15619 16201 83.60966354218294
15620 16202 83.37367164854355
15621 19083 142.44585821258752
15622 15623 38.80761773045978
15626 15627 178.8774846610154
15628 16089 84.27250864341678
15629 15630 66.60316218974523
15631 18165 275.22591233801074
15632 15633 17.75507711995228
15633 15639 113.48745805057655
15635 15636 12.7952478119348
15637 15641 25.70314921216729
15637 18731 91.13004791190424
15646 15647 32.20137006554637
15650 15712 1067.2253850480188
15650 16729 223.97695019335467
15651 15652 320.68589157291115
15651 16238 688.454056081236
15652 16239 51.22375509525743
15653 15654 37.91490120406727
15653 15656 91.22216009957836
15653 15657 87.25951217550164
15654 15668 90.83037711092932
15654 16982 87.5679372669252
15655 15656 69.4329252744966
15655 15669 45.92847072250477
15655 18198 396.22163395505527
15656 15668 37.70817622774321
15657 15658 140.1900597161912
15657 16982 39.81052889899963
15658 15659 79.33816549697443
15658 15667 37.149969503931885
15659 15660 99.6928375803004
15659 15666 35.650330544653414
15660 15665 33.78973930036185
15661 15664 34.17793969341478
15661 17306 91.30124902007165
15662 15664 153.2930120252091
15662 19352 54.253650567778934
15663 15664 92.74197293610072
15663 15665 99.38594649290715
15663 17306 34.95103372209783
15665 15666 99.78353068574475
15666 15667 79.26259389303809
15667 17970 34.924133634290484
15668 15669 69.9225287369875
15670 15671 81.00276133625266
15672 17274 675.3016881362155
15672 17794 47.8037169789373
15672 18895 106.1839759562221
15673 18458 93.00662443964444
15673 19941 13.087559893679188
15675 16417 71.88950933229394
15676 16156 124.59027693542384
15678 16145 66.54334811178884
15679 18080 40.308364958113714
15679 18081 42.673665806119
15679 18801 49.32905027975798
15680 18093 105.39126288387205
15680 18094 419.5520380393926
15681 15684 39.30368897865877
15681 19091 1652.9330168712818
15682 15683 40.465685242284124
15682 15796 54.18141721434138
15683 15796 60.44178522639127
15684 18091 89.72878704291838
15687 19641 251.4552763637683
15688 16522 40.370593963758445
15689 15690 38.383837733863615
15689 16221 143.3317505690149
15690 16223 53.02933936662946
15692 16198 141.5544749205506
15693 16740 136.09435885300385
15693 18849 75.07537011117273
15693 19610 79.07213794633287
15694 19509 79.0238448680345
15697 17623 156.04006361778215
15697 17631 84.25162566632329
15698 15699 44.605081782607726
15698 16090 152.94223358624876
15701 16770 158.0581707382269
15702 16591 158.98786149345196
15703 16246 158.88983742932504
15705 16284 158.50912181948655
15706 19625 200.52236936711338
15711 15712 117.37073803431701
15711 15947 531.7092121596643
15712 18889 394.2288302626643
15713 15714 106.19620537383675
15713 16549 67.75146769990056
15715 15793 147.4373095276726
15721 19424 79.19746000951785
15723 19817 66.70027743373844
15727 15752 82.64448939583653
15727 17262 77.35516062398375
15728 15749 17.03554237380503
15728 16667 119.81498617084146
15729 16473 138.21960560847177
15730 15877 139.61928214485067
15731 15732 48.229381372354226
15732 15880 137.07489392742076
15734 16103 91.33620421547293
15735 16679 140.43005887886193
15737 16415 85.66760930728721
15737 19576 316.8478230867602
15743 16824 144.96566421978065
15744 16199 140.50664731768617
15745 15746 75.5289910478247
15745 16209 137.43077284467392
15745 17182 72.39004871645594
15746 16681 137.0282351467719
15747 16529 136.88512503203077
15748 16140 136.7820384441168
15750 16253 88.30117153878074
15751 16092 110.50818283095181
15752 18127 77.56756583003548
15753 15754 77.98194010563438
15754 15755 76.11967893445075
15755 19161 76.97155346388558
15757 15758 23.417040860315176
15758 19982 29.34878979515171
15759 15760 11.229765058709955
15759 18364 130.78179725953646
15766 15767 134.56445077655945
15766 15881 82.59290042249025
15767 15881 171.39018489149856
15770 15771 89.73436632250937
15770 16169 148.753190536772
15775 15776 51.56127595072344
15778 16503 148.78785210455194
15785 15786 210.13674519418726
15787 19904 9.699621274736351
15788 18625 22.372517386726486
15789 15790 105.81324425690832
15789 16073 73.86877077373964
15790 17507 73.7227080184487
15792 17358 233.55102788241928
15794 15795 41.445526068252846
15797 15798 139.7740972763032
15797 16423 85.45426137981393
15798 16424 85.63948207351511
15799 15942 86.1868376450807
15802 15803 79.53808182738162
15802 16484 158.36373043036033
15803 16459 158.33766435557402
15804 18773 76.8948026655734
15806 15807 193.90211895791253
15807 15808 204.00969343146252
15808 15809 12.76778023217159
15811 15812 20.354303735809587
15811 16632 139.03553727952954
15812 17735 68.29811564330446
15813 16584 142.50395203698963
15813 18493 102.92562049585055
15813 19353 77.4156878542193
15817 15818 44.11395875263216
15821 16469 77.73912935777123
15822 18023 156.01280971041356
15822 18410 31.342491555503237
15823 16570 72.72159144372336
15826 18600 64.31507325481245
15827 19420 157.59852276577882
15833 15834 65.54303040528904
15835 16436 58.75312956492541
15839 15840 104.26095898393146
15840 16433 83.3439439784681
15842 15843 209.79355930961748
15848 17154 176.6823215725936
15849 19436 78.6282967116265
15853 15856 90.45315788992372
15854 17366 36.36896593659248
15855 16775 154.924303927195
15856 16521 89.87648101345859
15862 16742 98.86680523948955
15862 19903 141.60459323777226
15863 15864 466.5153114516247
15863 19898 117.02415841026277
15863 19903 9.952451461365497
15866 16581 99.26634666038353
15869 15870 193.46183999123699
15870 17751 203.2688406470191
15871 15872 87.32290565123962
15871 18396 409.52856608003265
15871 18397 468.92636093192675
15876 16245 69.89799494130209
15878 15879 43.19916658232911
15879 15880 53.065918962440776
15884 15885 29.29849113623621
15887 16421 143.76507027851542
15888 16233 226.0393385910315
15890 16404 200.34602415949956
15891 16539 199.63462486481097
15892 19382 140.19491191444922
15895 16001 51.32737541478605
15896 15910 40.77681110265387
15897 15911 44.6228868428853
15898 19320 204.7705993609086
15898 19321 284.7872976050054
15902 17616 245.09031372269305
15904 18508 74.0760059600795
15905 19507 123.99366745835198
15909 15910 93.4764617811378
15914 19748 10.260145624748764
15915 15916 48.53835153962182
15919 17949 40.01350831048189
15920 16147 124.44660304562424
15920 18577 23.373426381433468
15921 16008 79.13892379176335
15921 16009 79.5392654109014
15924 15925 76.63979008894758
15927 16148 79.56008393266599
15927 16615 79.43949820716
15928 16149 97.69432266254063
15929 16150 97.67196443358489
15929 16556 70.59129335146736
15930 18460 27.27685050895577
15933 15934 215.28495986129283
15934 15935 28.68050004290516
15939 15940 78.83102299938828
15939 18189 72.67413450898312
15947 16497 112.19160402584984
15947 18890 195.02062809735133
15949 15950 42.70147048443626
15950 15951 34.49398528533496
15953 16606 66.47979316182625
15953 16777 73.7973599014335
15959 17139 103.31629297017099
15960 16538 187.79782235652112
15962 15963 44.41259134060072
15969 15970 77.61268363489998
15970 18470 90.76085583506638
15971 19649 77.32511342240775
15975 17607 439.70791776017995
15976 16749 73.08885364184809
15980 17610 77.68466337610083
15980 18833 6.734534601487903
15981 15982 76.26063899957282
15981 16210 101.24338770948106
15982 16739 100.95053585832551
15983 16530 101.56762998657204
15984 16141 101.55862634688842
15985 16668 101.80984613573195
15988 15989 76.18272202745274
15992 15994 28.175511724368754
15993 19886 71.57982653805689
15993 19888 81.34292535169718
15995 16176 80.09081582155817
15996 16258 79.44180859315945
15996 20045 135.59013827982008
15998 16724 75.3980490259145
15999 16278 75.60089186405406
16002 16636 75.72581985326032
16006 16007 58.787343406886265
16007 16406 87.7885247710762
16007 16650 32.30233098003791
16007 18882 67.55582828208622
16012 17076 21.832146377973395
16012 18541 21.572356432666382
16013 16395 34.96731866500328
16013 17076 22.11231546796356
16015 17681 51.81704085768731
16016 17639 127.0949300195976
16018 17939 43.39121840668122
16019 17949 240.81015223590802
16023 17712 44.515849743231755
16024 16025 77.2264729551301
16028 18179 118.42239873915814
16033 16962 225.7331482387356
16034 16042 31.008079171965647
16034 18205 454.0599226174292
16036 16041 31.507063945349785
16039 16040 35.88277527752021
16042 16043 97.28891622938005
16044 16045 201.57142074501783
16044 16053 21.57310657991092
16045 16046 194.12793754949567
16046 16047 13.182942876522075
16048 19636 136.77382020217814
16050 16523 244.4023339974993
16051 16766 244.74511236646444
16055 16093 415.72891600713325
16056 16853 57.92744243942313
16057 16058 94.97835079007082
16058 16059 321.30801000127724
16060 16061 79.37208785771571
16060 16632 142.39373388116536
16061 16362 142.69640210383193
16061 19499 77.8397106297596
16062 16584 142.6613271046748
16063 19203 295.5591552700485
16064 16065 13.032101013537261
16064 16694 82.15329403065257
16065 16697 81.90208072847794
16066 16067 79.16955450199642
16066 16484 86.24713292230905
16067 16459 84.9911746987993
16067 18587 58.474884482248214
16068 16391 78.94735985942351
16069 16767 78.82658849571094
16073 17507 106.09130271419224
16075 16076 32.09039814091717
16075 16723 59.04545465825849
16075 16724 76.3247132034286
16077 16078 259.544618342799
16077 16328 82.72199648915993
16078 16447 80.10726498305885
16085 18255 61.95917516368329
16090 16091 51.740106097330205
16093 16094 163.6709928272702
16095 19573 112.45159544125043
16096 19382 140.00692256574314
16097 16365 128.05088404829777
16098 16099 95.32270461106174
16100 16157 31.28827816798611
16102 18414 25.597560929552582
16104 16105 18.37291574197031
16104 17759 64.85753766758711
16105 16106 193.95760777209685
16106 16107 204.3323122456113
16107 16108 12.412193615616836
16109 16110 78.77623750805678
16111 16112 30.094052760123045
16113 16114 80.24067887195967
16113 16642 26.926546088695233
16116 18357 187.2270434568622
16119 16848 50.200236134866785
16119 18382 165.58992812502032
16120 19454 83.06276082834304
16120 19456 79.54023439632142
16122 16123 92.16713739168034
16124 16125 45.9527031427449
16127 16128 60.99618331944643
16127 16802 58.15369913945699
16128 16819 142.4934270613843
16131 16132 72.78766263987923
16132 18119 14.400181736422507
16132 18795 14.226624958392646
16135 16136 193.22647090796968
16136 16137 14.112309285488434
16139 19526 137.83850562457368
16149 16150 201.78071809682044
16150 16151 200.96987524684914
16151 18461 11.555697190796423
16154 16155 34.55347878040458
16154 16330 74.64270219230232
16156 17069 377.2273086921635
16158 16159 7.560857225560488
16158 18405 18.920081189016862
16160 16161 84.97218737254518
16160 17109 168.027973353871
16161 17104 64.67550907803746
16162 16163 294.0610960587288
16162 19130 30.710859977932973
16163 16703 41.13899226517623
16164 16165 38.80777506802298
16164 17051 36.579312143114464
16165 17051 39.15260691222999
16165 17926 36.73629932255109
16165 17927 33.58135962684583
16171 16172 25.978711556908905
16174 16175 18.680611453394096
16180 19310 211.7976677638762
16181 16807 406.8117252563535
16181 19363 47.580646831452285
16181 19853 171.3904192019322
16181 20124 76.01779846143998
16182 19853 9.543796945625907
16183 19857 40.60006561573386
16184 19856 10.741727792027854
16184 19949 101.41417443545132
16185 19364 15.336462968700896
16185 19948 66.32111081544303
16192 16193 112.58502342407004
16194 16195 80.51955415771427
16194 16554 131.88271306553384
16194 16718 69.88448177868314
16195 16609 68.75480379746618
16200 18807 88.03561723505955
16201 16202 143.16550192645053
16203 16601 259.0672737738024
16203 19063 454.64909096588354
16204 19637 353.8227390204856
16208 16740 75.71233154590125
16208 17179 73.41057055048688
16208 18849 135.7916127654388
16209 16681 75.83326428711452
16209 17181 71.9658570747044
16210 16739 75.94973893753395
16211 16217 67.23667271219054
16211 17175 60.19968468130828
16211 17622 16.506196232466554
16212 16630 79.50959304678092
16212 19951 78.81620826090702
16213 16735 79.71688766022363
16215 16216 110.62867450871485
16215 16693 61.766390712985654
16215 16698 81.17161325196756
16216 16737 79.6516055021394
16217 16582 78.29352334785992
16217 20149 73.3570181123515
16219 16220 14.80873553942195
16225 17739 50.03851767957324
16226 19281 16.401433610459158
16227 18141 32.62368925495572
16227 18142 27.286139817037277
16229 19142 32.591302481854456
16230 16231 139.99847681835064
16249 16250 47.48649544174421
16249 16980 52.08185168552035
16250 16981 38.09745162310222
16250 16983 27.848408186369618
16250 18316 9.846739441026456
16251 17237 236.7544306681012
16251 19309 31.079690702535604
16251 19580 64.31850162026184
16252 19309 210.06088909479828
16254 17001 462.85247564336026
16254 17016 20.285729790400623
16254 19632 117.8281489320003
16255 19370 25.92062765037878
16256 18110 78.83091372538394
16258 20042 167.73000580042245
16260 16261 44.87894389863073
16267 16268 38.79887173108118
16269 16547 66.42398934651612
16272 17386 844.0618070505576
16272 18576 148.97234680124987
16273 16332 228.12792197812354
16274 16320 201.37187449396333
16274 20092 76.61899440074897
16275 16276 133.9921229571291
16275 16338 79.6095237017692
16276 16339 79.26454465489688
16280 16283 34.5167692938544
16281 18162 75.69588098615783
16285 20000 25.45247541060185
16289 20000 130.89849684608092
16296 16297 32.808862927915136
16305 16306 27.008368735371693
16305 16474 201.31096765563086
16307 16308 50.40863395387104
16307 16743 193.73524535274618
16310 16311 136.16453542951723
16310 18001 137.0665573682132
16310 18002 272.39591198708615
16312 17411 158.98635061615818
16312 18201 71.8444270845988
16314 16315 131.46007448654376
16319 19891 114.90204275143556
16326 17023 198.87808176160166
16328 16329 90.52111482437564
16332 16483 172.9542395581416
16333 16334 51.063487208041174
16335 16550 74.82773762689263
16336 16337 83.94557832686728
16338 16339 134.69427390565275
16340 16341 659.6238663409678
16341 19401 638.6595737887694
16342 17280 1073.2754684302347
16342 19401 1179.4710383863046
16345 16655 66.22463145732391
16348 16349 21.67310009666374
16348 16502 56.11243367388962
16353 16774 71.47637892278368
16353 19338 57.997426382191705
16354 16639 70.62119098183503
16358 16630 79.64325796052134
16358 19951 79.97383157923699
16359 16360 316.50327179759876
16359 16525 80.01157193341588
16359 19492 77.83224684632269
16360 16631 80.09184981122483
16361 16471 79.0541260054264
16361 19496 78.53759350437826
16362 16632 78.76131411322194
16362 17735 145.6809889220355
16362 19500 78.39412185819316
16367 16628 56.16645367583441
16369 19224 12.79901097130858
16372 18955 46.29456346909865
16376 16377 37.485767067037266
16381 17758 116.92282649766922
16381 18834 118.90310801615755
16382 16383 298.338051092474
16395 17076 27.915058104861533
16399 17718 83.20848120112095
16405 17991 30.391101094719964
16406 16651 52.5749929335239
16412 19056 78.80183244613227
16416 17043 93.04096605358444
16419 19404 207.89347752569364
16423 16424 139.82885135613196
16428 19008 105.00675746263919
16429 16430 13.310072053360432
16431 18573 96.25441380292438
16436 19856 250.68507101559914
16439 19326 108.1756804079899
16442 16443 31.75496984604545
16442 17081 28.944623018998474
16443 17081 27.964841219153637
16446 16604 374.50481167431167
16447 18352 182.58914314403495
16449 16679 107.59274132520005
16450 16514 48.68830099640436
16458 16461 23.91834795417861
16459 16484 79.40470888847078
16460 16485 79.21544238116812
16461 16490 55.60905916332557
16463 16488 80.1833220204199
16464 18780 147.4415442632608
16466 20012 26.712659544283323
16469 16569 88.26025821851917
16472 19519 137.08556993926769
16474 16475 194.64274069078962
16475 16476 12.522547055388333
16480 18758 78.66014810648807
16483 17560 97.86950675362365
16486 16487 59.51067111717184
16490 16492 13.410129360332716
16493 16684 35.47260045568764
16493 18777 188.7653237236519
16498 16499 58.61492635681659
16504 18683 106.15016333075339
16516 16517 163.77269324742255
16516 16677 89.62378140647415
16516 19831 49.201206728077224
16517 19256 46.12450015323233
16519 16520 91.03875719914637
16519 19058 149.9253059084461
16525 16631 316.97444220949495
16528 19611 137.2492242682995
16530 16966 68.48968639927088
16531 16532 193.8166429859772
16532 16533 15.675183699072354
16533 17605 211.06351329375244
16542 19040 18.44390923908623
16543 16544 23.016670617751025
16543 16658 24.92014092319042
16546 19613 185.60346844862502
16548 16830 52.44067513293728
16549 16821 105.08668738823445
16551 17841 106.56989223721418
16551 17842 74.73982526378508
16558 16849 268.24138572394213
16560 16561 39.865269756244786
16561 16562 115.77602588705572
16574 16575 284.0934794695709
16574 16599 270.55731715653707
16575 16597 105.99319895777408
16576 17475 74.28516766244161
16577 16578 62.879105083940225
16581 16691 37.0396058586924
16582 19551 77.28065618760121
16588 16589 61.75952424350227
16589 16612 91.39641951443332
16594 19255 76.1760844154941
16598 16599 141.0725878950656
16606 16607 31.627255613449073
16606 16778 16.647773095402393
16618 18303 65.6708434026213
16625 16626 9.32104184809991
16627 16815 75.04199743329889
16633 16634 55.73139247958463
16638 16639 32.9385025619808
16653 16654 71.67343678847102
16659 16660 36.07893874108982
16659 18867 67.37198460878483
16662 16663 194.3803706381666
16663 16664 12.626336002450502
16665 19522 137.81683533222224
16666 16667 19.22582077071648
16668 16800 32.90939348218902
16671 16672 9.304790627399445
16682 18785 21.82206260163881
16688 16689 12.711091561914069
16688 18392 61.56459308660965
16692 19568 40.47504797568864
16693 16698 23.041215347831624
16694 16697 12.701572999084666
16694 16743 204.0986297918197
16695 16696 12.65402207854629
16695 16744 204.08761490579667
16698 16737 103.99560107309271
16703 16850 62.8501625948384
16703 19130 289.7675209609525
16704 17961 50.855546608770254
16709 18041 111.49184541766184
16711 18022 143.07141807871716
16712 16713 64.39323744168635
16712 20103 27.845456640282407
16713 17233 27.83815192036312
16715 19254 19.65823996953308
16734 18871 24.76540920451103
16737 17964 96.2842084747787
16744 17756 194.17181677824223
16753 18686 79.35273761643475
16755 17446 97.55330976200231
16760 17061 31.807309753872943
16763 17125 45.47021543711371
16769 16789 52.743459469119756
16773 17050 53.49149983462824
16776 17775 98.39492024411635
16779 16780 126.30121866578403
16780 16781 11.308798578252917
16795 18779 257.79801565629936
16796 18946 135.92776810857518
16797 19907 8.706752359890597
16797 19908 30.43229436435498
16806 17523 147.09158706549135
16808 17114 132.18415430914183
16813 16814 949.2577276841384
16813 17005 373.040443449854
16815 16818 15.221799783347185
16827 17249 46.3560931563637
16839 19272 155.68266285054122
16844 16847 32.52316545896155
16850 16851 17.037622937381553
16850 16852 21.895354825703116
16855 18896 64.49376577900759
16856 16857 79.42296962247863
16856 19434 40.476848680963855
16858 19250 947.2289524417266
16859 17749 70.10068421915146
16860 17738 595.304217449541
16861 17956 104.71714780515441
16863 18185 502.11428104614953
16865 19344 87.56478600816152
16867 16868 62.985750870740766
16867 16873 87.69847395948041
16867 17353 79.15084612029497
16869 19118 154.6802409927218
16869 19167 307.0919747966169
16871 19181 614.608173765371
16872 18035 107.22138112229011
16873 17454 79.20532011388684
16874 17457 93.08987369100763
16874 17767 275.59338296049697
16874 19282 166.485463072197
16874 19366 11.823517314417286
16875 18043 43.45332263603106
16879 17809 37.20808105267237
16880 16884 78.30189903532828
16881 16882 21.137337773343166
16881 18208 48.42814500020783
16882 18055 34.82484625913168
16882 18208 27.60098065436435
16883 16888 199.12599715488517
16883 17278 439.36821061710833
16883 17893 78.05115829041563
16884 19397 70.60513065969083
16885 16908 79.05071960392135
16885 16926 79.89025277520814
16886 16930 19.555754756296007
16886 18442 56.369311225928094
16886 19109 13.046978250209136
16887 16897 178.25116304617342
16887 16912 94.27086126788643
16887 17583 19.813658665980764
16888 16890 140.46204426577657
16889 16899 83.58535538556025
16889 16901 76.07061859140182
16890 16898 140.31128055566012
16891 16896 79.47781488979814
16891 16915 78.93478486048195
16891 17750 13.863237242977135
16892 16913 79.07972970906768
16892 16929 85.13402176679276
16893 16908 78.3952614770914
16893 20013 79.41193325128232
16894 16917 202.04417914883408
16894 16929 201.09557600922992
16895 16900 75.39361974889893
16895 20013 83.77941753022517
16896 16923 48.421367389964914
16897 16914 112.27833177871518
16898 16919 141.56944265931915
16899 16902 79.91839052654326
16900 16902 78.4473914016613
16901 16921 79.53806020222525
16903 16914 79.44283159053948
16903 16923 31.146452422568128
16904 16906 85.43711558379333
16904 19985 75.4757226443878
16905 16928 78.43261774031123
16906 16927 44.494385607563785
16907 16925 156.57111186264848
16907 16926 88.54467671041954
16909 16916 28.499461628716254
16909 17744 39.688833289463986
16910 16915 79.5267458859911
16910 16920 109.80521331002969
16911 16921 89.26849746935301
16911 19985 84.6640464751697
16913 16925 77.87622262018289
16916 16922 149.80352922521283
16917 16924 198.43687207535075
16918 17739 19.277537801914008
16918 17745 26.217298874438775
16918 19281 32.9974310078708
16919 16927 129.7295785094673
16920 16924 203.898957568388
16922 18642 260.73414974732043
16923 17747 13.908933701142765
16928 19281 46.71850639419176
16930 19109 18.250243404484163
16933 16934 55.71135073070348
16934 17158 79.21259147476178
16935 18294 606.4383377205634
16935 19124 1452.2015764153984
16936 19249 401.02367460840566
16940 17492 14.09559299503874
16940 19192 13.194054110674237
16940 19194 480.2289708634417
16941 16942 174.01526157552115
16941 19471 15.902731300151745
16941 19998 67.27489987143197
16944 17492 393.56791932070985
16945 16963 157.73328376528062
16945 17490 77.59215756801862
16950 16952 155.48831294746407
16951 18978 273.9658361928545
16952 16953 705.6118085283688
16956 16980 186.2253228534197
16958 16959 15.047462577189696
16958 16960 39.19927552335707
16959 16960 35.79608792827478
16962 17725 24.90684376352187
16962 17726 35.76723474652917
16963 18284 68.01920417334
16963 18651 173.70389772621388
16965 17071 400.80233805610317
16965 18064 772.1310335170931
16968 17178 40.58684132286457
16968 19529 231.04178567322035
16969 18528 230.86852065318968
16969 18838 19.42580610009018
16970 18837 22.437915199746485
16970 18838 69.46338140566499
16970 19532 230.98098557629888
16971 16974 94.33945510807604
16971 18491 94.2103857905123
16971 19536 230.39295283259082
16972 16973 95.0308976261303
16972 17162 38.009574641380446
16972 18489 224.43105976678874
16973 17186 81.25964895902513
16973 19540 229.2355231881485
16974 17186 13.467161617550364
16974 18490 224.77577058072748
16975 17162 56.47920745074209
16975 17177 50.71138167149211
16975 19544 229.4806181092555
16976 17176 62.203232137025736
16976 17177 44.1339891255497
16976 17185 7.359941107856652
16976 18488 226.93634965430067
16977 17176 31.968893957442173
16977 17184 7.392033639993799
16977 18550 75.83933099790417
16977 19548 231.1932898512803
16978 17904 239.47030200619417
16979 17012 23.757442993098973
16979 17013 26.58917825995072
16979 17904 26.861999451977397
16979 17905 32.73149523835841
16980 18316 35.19410974932062
16981 16982 153.2754105348126
16981 16983 41.87821033263933
16982 17970 105.67557309613645
16984 16985 155.53826023279268
16984 17073 106.83369215645149
16984 17223 74.34069064790985
16985 17208 170.33454697573487
16985 17212 81.21680510616292
16985 17217 56.289004789649766
16986 16987 44.536315540650925
16986 17216 114.830976599761
16986 17227 88.60105312371752
16987 17228 53.081275449634354
16988 17221 88.74829194127327
16988 17224 134.20347780657124
16988 17228 165.85082603268856
16988 17254 97.61014280533
16989 16990 165.72968689463522
16989 17221 83.38088715596149
16989 17226 181.0846077741338
16990 17220 83.51355242590046
16991 18855 81.15953157040353
16993 16994 196.8869508614365
16995 18459 79.65889849328939
16997 17455 234.65940699728984
16997 17457 235.02829006277258
16997 19214 61.6262337562681
16997 20116 22.638237374450647
17000 17017 117.31599018625793
17000 17018 231.25359410931145
17001 17018 22.288306230913705
17002 17003 294.883195221401
17005 19578 38.82159740100663
17007 17049 57.739761408831356
17007 17933 89.06305250746254
17009 17010 65.82529202451636
17009 17439 63.24935785479674
17009 18326 141.6059806389481
17011 17811 14.060594397816093
17011 18637 49.36372314849758
17011 19684 11.761947435772829
17012 17013 30.509933936491876
17013 17014 190.980702373746
17014 19348 545.504925455466
17016 17017 100.7105753664316
17017 18166 30.593025097503602
17018 17019 448.36339060255443
17019 17020 113.48492463546674
17020 17021 186.96503315842725
17021 17022 198.45689131921088
17022 17023 203.53351084546338
17023 19308 70.47606801884987
17025 17026 97.35530966258537
17026 17027 95.77149763924005
17027 17028 159.60114902909606
17027 19880 336.32188788171914
17028 17029 200.52394770311744
17030 17509 220.53986645065515
17032 17889 20.912390762019413
17033 17034 82.77904555812364
17033 19995 81.94383630373484
17034 17035 83.0454585928337
17035 17036 102.22818942767293
17036 19958 77.19956464764854
17037 17038 149.00691255436234
17037 17041 72.9650873754066
17038 17039 32.38292908471631
17038 17040 153.31690168907377
17042 17043 201.30903289986242
17042 17045 225.91544851056227
17043 17044 417.5273770122347
17048 17895 43.716723452073595
17053 18433 80.02221584710136
17055 17633 19.806184737220352
17056 17633 29.284016957680333
17060 17061 46.96536326871468
17060 17479 65.05969909642276
17062 19441 44.930439696117794
17062 19442 63.59210786304009
17063 17418 83.69934997643178
17063 20144 72.22678976662729
17066 17067 107.97757933541646
17066 17920 286.05491088231736
17069 17070 72.60731050941764
17069 19647 80.31723278696664
17073 17211 67.46359805208289
17073 17212 171.57801741352074
17080 18278 53.2035533518
17081 19283 174.3635981460742
17082 18822 175.6557340011341
17085 18592 54.587302812751126
17086 17087 18.011707509058983
17086 17800 60.33553959134958
17086 19305 19.108908303128388
17087 17799 52.999526836986654
17087 19303 16.848687168299055
17090 17099 201.12322775410004
17090 17883 106.1871938867365
17092 17792 933.1084521867097
17092 17883 55.20422995659366
17093 17097 117.76595316925136
17093 18010 596.7833270421614
17094 17095 305.1812242878915
17095 17096 104.3482456313245
17095 20029 19.229698953274927
17096 17101 179.78843487139753
17097 17101 122.04703860612963
17098 17099 125.33390112416853
17098 18010 34.124443971299975
17100 17160 61.173989631713866
17102 18013 64.11996768225713
17105 17106 17.729682697213995
17113 19619 95.22894540358214
17120 18432 44.49655169929012
17121 18214 233.2019200363356
17124 18858 203.90108546870349
17126 18333 79.43486539510761
17128 17129 214.63800205496005
17129 17259 266.59311451698386
17132 17301 168.01694760052197
17133 17134 147.22759756121383
17134 17135 134.58966799317903
17135 17136 134.66158465374824
17138 17140 81.55548171197867
17140 17142 201.5606256375083
17141 17142 201.02963545311295
17141 18772 5.248552817018283
17145 19585 99.79841738615245
17147 17148 127.99533400258827
17150 17574 149.07972829205985
17152 17153 414.8081431088219
17153 17154 196.02992507566853
17154 17466 57.069227208500706
17155 17318 54.11367406052227
17155 18021 54.15976981830664
17157 19880 160.00207883894925
17159 19889 110.8536319054893
17160 20023 35.495739625373716
17161 17316 41.84768921459274
17163 19635 100.42030577414793
17167 17170 733.74803468528
17168 17169 14.280047141009375
17168 18282 164.70903933279948
17168 19094 102.09046072271418
17169 19094 88.67245874104313
17170 19762 564.127906055884
17171 17172 114.87500524721676
17173 17174 242.42439950866978
17174 19018 21.916327863745042
17175 19550 229.85402774178
17175 20146 88.36958205924634
17178 17179 137.99534766840637
17178 18849 72.52109778332516
17179 17180 142.91141514916427
17180 17181 141.37332418188726
17181 17182 137.80611017492245
17182 17183 138.57487409641064
17184 20147 75.76652740875092
17187 18592 46.66131102152684
17187 18594 117.84526353699718
17188 17191 155.93501103037474
17188 17192 174.68848434427446
17189 17190 158.57427202369968
17189 17996 124.89442130476434
17190 17191 155.25656551477917
17193 19764 579.8020149036417
17194 19215 108.8527039690438
17195 18137 15.55913834640444
17196 18928 729.2940966816547
17199 17200 97.35527992225951
17201 17203 77.33678195313915
17202 18944 48.81015913505922
17203 19452 79.10250163691019
17204 18994 293.23724746502785
17205 17206 98.03879523467596
17206 17207 60.38167406864405
17206 17427 185.39532072622467
17208 17214 81.29760505675196
17208 17254 110.0645334705903
17209 17210 29.68988669756069
17210 17211 83.19232677225564
17211 17213 57.9951279259508
17212 17214 170.2686755094806
17214 17215 110.76330988200482
17215 17254 81.03727185415715
17217 17222 64.50335000710149
17217 17224 152.13065092013994
17218 17222 85.3393876949901
17218 17223 178.71685367288623
17218 17226 147.5245864292647
17220 17221 166.68554591522042
17220 17228 88.61415644068511
17221 17225 157.76074176207368
17222 17223 149.5977337501672
17222 17225 147.01206219398003
17224 17225 81.07683252775124
17225 17226 85.18650605650753
17227 17254 77.527916471123
17230 17231 230.76418499208282
17230 19036 51.96734174970293
17231 17232 222.81478434976185
17232 17233 322.9296053254947
17232 18851 140.33353479661005
17233 17903 24.50025696064685
17233 20103 110.98609078297862
17236 19307 156.21755286692422
17237 19057 10.759062694179628
17238 17239 51.87381062248828
17242 18288 37.90065554707838
17242 18289 42.85242380113506
17243 17244 27.519369664332856
17244 18215 530.8301666710003
17245 20037 359.5344603870585
17245 20040 1113.0900785781619
17246 17247 125.61587850804787
17246 18215 427.7991097003863
17247 20035 715.9497312229217
17248 19055 199.42771067146154
17248 20035 202.61046216318283
17249 17250 676.664074734513
17249 20032 317.3673093549018
17249 20033 10.866482201552374
17250 18318 32.11329362649933
17250 19638 52.67233298296237
17251 18792 149.75922894212692
17252 17253 91.03058902153414
17255 17256 76.52234134852617
17256 17257 27.643151680166543
17261 18449 85.21045341752217
17262 17263 79.60291569176051
17264 17265 23.29799578086796
17264 17266 78.6171061055557
17264 18942 64.81823609042631
17267 17269 79.29704530658671
17269 17270 79.00783355576512
17270 18597 136.45896022260683
17271 18597 19.53351775703626
17271 18598 21.26704589384842
17271 18600 17.897105222300958
17274 17275 44.7547653710635
17276 17277 106.79354538104873
17276 17405 120.59259722207294
17277 17985 48.69909155098697
17278 18642 25.13209449693616
17278 18643 39.71896564220498
17281 19996 14.229273373261815
17282 18126 35.58667489916416
17282 18607 32.65874263722821
17284 19105 21.699802747420517
17284 19675 14.898905600073663
17287 18566 10.248575249004016
17287 18649 88.81217576551089
17288 18626 164.20235616660187
17290 18625 107.82899171796147
17290 19351 207.41402422276238
17292 18741 283.7215014487633
17295 17413 99.55572051480017
17296 17297 44.67242169992373
17297 19474 288.6740341166802
17300 17302 204.26910387197182
17301 17302 38.472141207371
17302 17303 64.31786628851134
17304 17500 8.938775214043169
17307 17309 79.22768160347997
17310 17313 34.32701485670636
17312 19419 158.06331736217894
17312 19421 79.37139627428351
17315 17316 42.87799892829908
17320 17322 39.48655420700645
17322 17323 24.145023555034427
17322 17325 47.10257828086951
17323 17327 23.78200326433649
17324 17325 24.596046371927066
17325 17326 23.484902058580218
17328 17331 87.9564859086296
17329 17331 149.99557434259836
17329 19783 182.87326242217202
17330 17331 48.01454057517291
17333 17341 80.17139860299663
17333 17552 79.43393468318594
17335 17336 253.2407043866838
17335 17339 7.65894455175222
17335 19557 79.08869284812502
17336 18603 56.75408114934674
17338 17459 79.76491211334917
17338 17460 12.053798726586127
17339 19556 79.31020507799046
17340 17347 80.81879750911955
17340 19029 158.09784288378592
17340 19727 82.51820675215791
17341 17343 222.48042256159707
17342 17346 7.24267302370588
17342 18604 126.28561952802568
17344 19557 78.27460699012228
17345 18603 6.706359009931082
17345 18608 82.00356307265753
17346 17347 79.29959328342525
17346 18605 109.2860867857352
17346 19729 78.92231123308079
17347 19728 88.0937580631524
17350 18952 65.3776535295762
17353 17354 120.713626871048
17353 17357 79.23708829274186
17353 17454 87.23789011746308
17355 17356 95.51919087320832
17355 17357 79.40508658535623
17357 18088 87.04213199119864
17360 17915 29.69898228576957
17360 19354 48.89955554520804
17362 19343 7.7255232892763654
17363 17364 151.0879588675305
17369 19076 150.51114524572833
17372 17483 63.91737713340237
17372 19021 9.928136784202632
17373 17374 98.70182806374393
17374 18766 9.550326651108053
17374 18767 69.92891885645919
17375 18766 72.22556256019314
17376 17377 62.11867037258778
17376 18768 12.664629798615428
17377 17378 20.399336052826207
17379 18362 63.92596189198915
17379 19022 10.606505643849616
17383 18370 14.82032523869346
17383 19715 69.14718554507094
17387 17388 14.367403664165085
17389 17392 40.38285616609342
17390 17395 192.60616652774326
17391 17512 80.51826426563086
17392 18215 503.6385166090287
17393 17394 97.98261851687103
17396 17397 78.13482827160064
17397 17398 79.30595193957105
17398 17400 77.14332423835252
17408 17409 30.527198085687147
17410 18202 32.86378489777357
17410 18203 44.692243445401694
17413 19189 194.98571869170718
17413 19202 81.8513438345463
17415 17774 77.13344817637747
17415 18052 9.168130925494548
17416 17804 187.90744496655992
17416 19033 33.20879159344363
17417 19478 54.14174044478925
17418 18051 9.128449260977249
17418 19190 193.81178930041375
17420 17422 217.6093725791127
17421 17422 81.48565099469344
17421 17423 67.86382943888142
17426 18788 16.577086279989544
17427 18102 29.136799352374176
17429 20150 15.910372829691758
17430 19121 94.80954708092526
17431 17826 17.42333252331296
17436 17437 152.30163715582717
17439 17441 84.88126901948458
17440 17443 9.270515950782595
17441 17442 77.40783040471592
17441 20122 14.577030579210643
17442 17443 35.880149939150826
17442 17971 48.91438161989983
17443 17971 32.68642631822959
17444 17445 29.801420527808418
17447 18222 180.93108106922298
17450 19026 5.892140788181711
17451 19355 19.33509074486609
17451 19647 164.9059463694978
17452 17456 32.73210035359538
17452 19230 35.463442329752255
17453 17459 9.678971803597443
17453 17770 84.66215675116906
17454 18088 79.32751237854497
17455 17457 11.050263268457584
17455 19366 93.79392546972062
17456 18406 28.48443183285346
17457 17789 200.52707362839575
17458 17767 14.58897725786429
17458 17770 35.95837673319631
17458 17771 9.777353996536128
17458 19359 40.24525862868009
17459 17771 126.7916737846501
17460 18406 212.1433901126847
17461 17462 34.9455335084435
17463 17465 28.55776751916651
17464 18061 55.09197969403791
17467 18910 22.668668589458306
17467 19622 24.16813834018912
17468 17474 21.6610448164369
17468 18789 24.211477431131595
17468 18910 55.6009445489892
17469 17475 507.6965210548245
17469 19874 82.71895975798554
17470 17471 58.71331274012329
17470 17932 43.722052297237326
17470 20076 55.193422065325585
17471 17472 50.76512251774375
17472 19925 47.31645703574928
17473 17932 107.39926071622871
17473 18015 16.314810211111553
17473 19622 62.447145310824624
17473 20076 12.424298997308954
17474 18789 24.936512976552
17475 19969 9.595893117718367
17476 17477 68.15417456437463
17476 17478 129.9364378103763
17476 18264 78.70584504180172
17477 18264 82.77310931991008
17478 17985 80.87439475384897
17478 19297 51.980863153002
17482 19656 88.20614647020618
17483 17555 61.77611373842345
17485 19656 42.60429524379168
17488 17489 34.028075973231516
17490 17491 157.9336064684266
17491 17986 23.484506775707256
17491 18284 9.106907358991508
17492 19193 480.00649014290946
17493 17494 93.94162936468004
17494 17496 63.726360719298825
17494 17497 155.26928825874188
17496 18354 243.4230361291103
17498 17500 37.89993687283488
17499 17505 81.9627864570651
17499 19588 212.31976763007052
17501 17503 58.97091181585433
17503 17509 90.62025949802404
17503 19713 72.94311006017116
17504 17507 34.85278412207208
17505 17508 46.06317475990601
17506 19713 101.76490375644406
17513 18266 89.28704813235348
17519 17978 511.5839898079278
17523 17528 28.695962295857342
17523 17530 70.99088825183313
17524 17538 55.59000733602317
17525 17539 14.358429578246772
17527 17537 130.19523013550707
17531 17538 49.693327854336026
17532 17535 70.37592898738417
17533 17534 64.763977752875
17533 18775 9.4299866535195
17539 17540 54.01292664911378
17542 19777 89.08434186078006
17543 18237 29.411789855979652
17544 17546 33.96452774805478
17545 17546 63.1961677123489
17545 19688 509.7152707343879
17546 17547 39.08700989798791
17549 17553 41.613448258383336
17550 17552 7.5667271931844935
17550 19301 82.6268372263805
17550 19731 86.3263967538049
17551 17553 143.8324505228845
17552 19301 82.67116903245216
17554 17556 62.60411163398136
17557 17558 49.64560838436635
17557 17566 403.7260248168497
17559 17563 51.35223518586297
17559 19020 44.32378276652443
17561 17562 255.09409129771393
17561 17565 191.43986069162656
17562 17567 787.5851992393722
17562 18274 102.9183665949717
17563 17564 416.0896731624812
17563 19020 65.79976597483073
17564 17565 345.1283439172475
17567 18268 368.57302811703266
17567 18275 189.88013868545778
17568 17571 14.979950419157904
17570 17571 82.6837633993133
17573 17574 225.05646985405224
17574 19374 128.38715486567008
17575 18018 260.14180483696265
17575 19322 30.86176722699598
17575 19797 41.34108790505508
17578 18373 12.531772909256645
17578 19663 70.55398628011612
17580 18135 90.27052345559322
17585 17587 49.02058090796733
17586 19180 30.135994733386628
17588 17591 23.611468446761478
17589 17591 184.4151610429333
17591 20100 83.78977392881384
17593 17596 204.6995969691551
17594 18131 48.4514652585711
17594 18132 51.0593427169525
17597 17605 78.70898596259472
17598 17604 81.16045229686986
17598 19082 92.40671633677438
17599 17601 79.17653340514104
17602 17605 80.82190669073108
17602 19082 14.63672338452599
17603 17606 12.831922106282471
17603 18659 196.06043099258318
17604 17964 79.34003306284268
17609 17612 18.682649459909822
17610 17898 152.00553506520075
17611 17969 100.75016495154503
17614 17617 188.5204448060773
17615 17618 132.18396608990983
17617 19081 79.48254493134259
17620 19320 87.60919842221837
17622 20149 85.8503289519345
17624 19489 133.28540575612305
17626 19214 91.34455430158646
17627 17628 79.2973008286459
17627 17631 79.19634528526605
17634 18456 112.79444046596836
17635 18759 33.15458077870785
17636 17637 17.381362050691582
17639 19942 10.302507490692935
17641 19559 133.4524221298627
17642 17661 78.22066140042585
17642 20021 80.63465938302997
17643 17652 22.28556970024851
17643 17665 78.2223544793322
17644 17651 47.03313837189981
17644 17980 76.09045367149906
17645 17662 79.34823232474736
17645 17667 78.52228807305931
17646 17656 82.44931320376257
17647 17659 63.10179922577261
17647 17982 42.701097039234035
17647 18471 73.11266171602058
17648 17658 20.921799622601696
17648 18749 67.92398312448273
17649 17650 50.96961035854043
17649 17665 29.267048371988714
17650 17657 79.4016893738471
17651 17669 28.9980084932094
17652 17980 13.42549253782687
17653 18611 8.968730792672462
17654 17658 52.20816780278096
17654 19821 6.272724152127774
17655 17660 65.71089901356483
17655 18012 14.07254640497688
17656 18611 77.4456899039028
17657 17663 60.693143683191984
17659 17662 15.27279755593061
17661 17668 79.45347468987161
17663 17667 18.693410006182585
17664 17668 79.19905883740984
17666 19821 20.713573150307507
17666 19871 46.554048803134506
17669 19871 3.311658045404894
17670 18567 5.878356816777378
17670 18676 69.79930249883691
17671 18567 74.36032836888282
17674 17678 22.04475846074035
17674 17687 32.98944221814483
17675 18653 150.2115089694124
17677 17678 20.534539662142684
17677 17687 34.18923890914158
17681 17686 85.22115237638359
17681 18654 90.55783872814476
17681 18696 71.85785357291626
17682 17857 443.37455617916487
17682 18610 20.457761516822732
17684 17688 7.348587328166913
17684 18697 82.38003538064108
17686 17688 67.94554211942038
17686 17689 10.247501132183478
17689 18656 71.45010193627016
17690 17697 71.7918268046236
17690 19894 39.90094841170036
17693 20141 7.801563151681631
17693 20142 13.992925269280182
17694 17697 19.615061929150688
17694 19893 104.43152784643706
17697 19891 75.68187679496785
17698 17701 13.157368967338975
17699 17704 18.264084194331584
17702 18612 11.609821713033746
17705 17706 33.37925558337779
17705 17713 33.192649399227626
17706 17712 33.48381701777082
17706 17713 9.418304228681452
17707 19602 134.08504052377907
17708 17715 33.33092051406395
17708 17716 8.447654371976398
17708 17720 32.36234745160388
17709 17710 82.75290430069522
17710 17711 76.95347387709798
17710 17721 142.44907870478903
17711 17717 69.90837042964911
17712 17713 33.27783809247382
17714 18936 16.11248624046432
17715 17716 33.41607862128623
17716 17720 32.105270975751864
17717 17719 11.108391598316798
17721 19602 12.902857522175847
17722 17724 18.3324786219625
17722 19067 569.4569022568847
17722 19652 51.03445221547331
17725 17726 31.62435651329805
17727 17728 83.13395395219496
17727 17807 65.50639039833047
17728 17729 172.97459285368578
17729 17730 14.034945475149035
17731 17807 15.520038766850927
17733 17734 79.68350603501888
17734 17741 78.90511031995584
17735 17743 11.757047207346512
17737 17741 80.48409966219938
17737 19102 75.53656817901476
17738 17746 22.133206130568656
17738 18643 342.15082087871826
17739 17745 22.565468488948177
17740 19102 9.151568056630325
17743 18615 20.943413044024282
17743 18616 53.66571907832086
17745 19109 101.49398801585025
17751 18483 75.3517176373378
17753 18483 8.882333044908345
17754 17755 9.4966881203554
17756 17757 82.7414968767522
17756 17764 82.36632323156742
17757 17760 83.41775724581093
17758 18811 12.230687983086778
17759 18796 12.16808880498482
17760 18796 72.66006988382287
17762 17766 30.906980256643482
17763 18810 10.595708180753647
17763 18811 72.21609984208692
17765 17766 52.6041072842381
17767 17769 9.952326912427456
17769 17771 15.001428929790931
17769 19366 275.0614110090853
17770 19359 50.363401167669295
17773 18644 16.91188381034503
17774 19210 40.51738604142585
17775 19254 26.296654248912922
17778 19031 27.869214076597338
17779 19080 11.970204429943575
17781 17789 249.5509258158614
17781 19200 87.44348180215142
17781 19299 14.161179378651555
17783 17784 83.88670142186729
17783 17785 20.583210456741593
17786 17981 87.52020773959022
17786 19194 21.050616468470025
17789 17795 13.767343582183017
17791 19327 67.97282980921842
17791 19452 81.17994042935747
17792 20023 147.47883141974137
17795 19160 11.761545995067086
17795 19299 250.6237888078947
17799 19303 51.132688056806764
17800 19305 55.26985194721162
17801 18753 4.771279024867488
17801 18754 34.69630474302827
17802 19446 23.6294793717998
17802 19447 27.322008215363866
17805 19200 51.44933266490503
17805 19268 207.48860174581498
17805 19278 20.635315984681114
17807 20086 653.0869354634044
17811 17812 67.9205532209635
17811 18637 50.239764954521476
17812 19684 17.73696558168256
17812 19685 35.960679935714666
17813 18051 299.40304756843466
17813 20087 68.73745111904691
17814 18740 13.851912213256462
17815 17816 11.920135925395703
17817 17818 18.258472451182374
17818 17819 61.190838600659404
17823 18556 80.66120948539458
17823 18934 7.527943486990042
17825 19013 157.2562068174559
17825 19936 10.622032028131885
17826 17842 10.254678047867579
17826 19584 75.6336609161866
17827 17828 94.24726814641234
17827 19936 164.5630429367049
17828 17829 122.58695132272064
17829 17830 51.03633521456703
17830 17831 73.3196549358664
17831 19954 100.73234393901339
17832 17833 75.67314100332364
17833 17834 75.15094682221091
17834 17835 76.21873700741577
17835 19934 76.53057883283707
17836 17837 70.561125691621
17836 17838 85.91534051300825
17837 19935 16.305308175661978
17838 17839 61.550916601526474
17839 17840 99.62560329806834
17842 19932 75.63579213166241
17843 17844 60.39043303467551
17843 19932 75.67884493947342
17844 17845 14.769997406174841
17845 17846 72.87549783687231
17846 17847 79.22749620832458
17847 17848 109.15181696920284
17848 17849 92.5647214341245
17849 17850 77.50491273253196
17850 17851 75.88359699821822
17851 17852 78.76043172467975
17852 17853 78.98567193314226
17853 19930 75.81570760117953
17854 19924 82.04083288259045
17855 17856 12.622116659834163
17857 17858 20.87540594349742
17858 17859 74.43836151004044
17859 18826 437.6195877555272
17860 19336 383.64751335106666
17861 17862 83.05011624021868
17861 18532 77.80668472913302
17862 17863 15.539819207828335
17865 18049 111.57156713519369
17865 19996 24.250000525027712
17866 17867 17.69139188387041
17867 17868 15.571786563220591
17870 17871 54.77387062287383
17871 17872 17.26992932077134
17873 17874 36.36954346896725
17877 18276 22.728851094632503
17877 18277 62.675314051519486
17878 18276 24.51121051461253
17878 18277 19.651018469805752
17884 19222 579.3096308198626
17884 19330 73.29094259108801
17886 19012 7.793385766830664
17886 20030 13.616062917972842
17888 19335 50.41435890822517
17889 18593 66.07250323737253
17890 17892 50.97006216466325
17891 17892 56.91242665622182
17894 18844 60.92834152131925
17895 18137 6.144208019945895
17896 19986 85.08105050345354
17899 18807 100.88990697138215
17900 17901 86.34624506019433
17902 18317 69.83988231080048
17904 17905 42.85636026565983
17905 19685 146.59753454562713
17909 18062 39.70486124582696
17909 18752 393.0870666428192
17910 17911 301.4325054170776
17910 19170 252.34815891372492
17911 17912 361.8785006220987
17912 17913 806.5158297890455
17913 17914 74.58860941039077
17915 19354 39.53979993850492
17919 19072 13.177559097305313
17921 18872 137.14512635170811
17921 18951 378.58373766998227
17924 17925 83.44117626228238
17926 17927 44.23121832659745
17929 17930 25.94628613793247
17929 17931 64.0527146845404
17929 18829 153.30589543554885
17930 17931 38.581829071424664
17932 18591 18.750203744144944
17936 17973 16.8444241155174
17937 17938 74.39709664325316
17941 17942 38.32968405836376
17942 17943 25.91839699110234
17942 19505 42.89303601509667
17943 19506 77.19162869363592
17944 17945 50.74875654219158
17945 17946 56.655365886112776
17948 19205 52.45533104341941
17952 17978 12.598402986110864
17953 17954 41.26857056645234
17955 18835 15.32458387739567
17961 17962 13.098239396585575
17968 17969 26.90409832745635
17976 17977 159.3768492675229
17976 20049 88.61708128254281
17977 18966 83.71735984893999
17977 20041 121.51349227883168
17979 18978 11.22689440187471
17981 19193 121.95670998232507
17982 17984 43.66922723246278
17983 17984 36.15471017079125
17984 18257 60.238378861822525
17986 18568 51.07139008434825
17992 17993 51.30947668693166
17995 17996 29.662609628355373
17998 17999 62.99119939121295
17999 18000 78.32051278039232
17999 18001 71.39869711044446
18007 18008 76.97307327377435
18009 18329 222.92071051815094
18009 18818 82.12954720725682
18009 18995 239.35517575099308
18009 19564 119.02735469149441
18014 19874 78.38083648998749
18014 20042 10.219607974795986
18014 20047 22.451508960900995
18016 19206 96.75246466028975
18018 19334 298.9164077016945
18021 18409 136.30252043264707
18022 20103 14.873595614638251
18023 18024 159.1999607952983
18023 19140 29.530834397104755
18024 18025 161.23077814742598
18025 18026 163.10893788294376
18026 18027 138.67626435632982
18027 18028 139.2184046314903
18028 18029 156.55803241900844
18029 18030 158.92630141958745
18030 18031 141.9743677193628
18031 19328 132.6668547130371
18032 18033 10.845967875197607
18032 18034 160.03248762436945
18032 20089 6.104422380944307
18037 18038 13.338652634621317
18037 18891 16.661989688336305
18038 18039 14.830880023127737
18039 18891 17.209822400861228
18040 19133 310.3182175282394
18042 18927 10.939496201191824
18043 18927 37.59970697777368
18043 19279 24.287965826854446
18044 18045 43.5850583454198
18044 19015 256.37985439727413
18044 20145 21.975350739372676
18045 19225 14.619356995670548
18046 19160 317.5133354102186
18046 19225 115.42506646473842
18050 18739 10.276936305331395
18051 19367 422.9564615046436
18054 19002 63.44066654747632
18054 19347 26.361495801951982
18057 18058 38.420068076012214
18057 18440 7.21560024257963
18066 19042 726.7716865285511
18067 18068 38.934377927941924
18070 18075 725.9407488123547
18074 19093 76.59106600006902
18075 19093 32.04028935431139
18076 18077 124.62923505595943
18076 18078 11.379090098752995
18077 18078 132.70013731566803
18078 18079 530.1378383661705
18080 18082 71.84120283869959
18081 18082 16.091058724716333
18081 18801 68.85177485274296
18084 18085 28.881072321046574
18086 18404 162.66427292635746
18087 18095 49.36131680186821
18087 19477 187.90657966012304
18089 18090 357.0667328026853
18092 18093 99.26918367580856
18092 19092 155.0995962494626
18094 18805 860.5618593783653
18095 18096 36.570700980498614
18097 19341 78.44079529517593
18097 19488 85.04528399076666
18099 18484 49.651264532376146
18105 18106 88.28779703471666
18115 19100 64.1062578816816
18116 18117 16.048508431844095
18116 18118 11.190493731273992
18116 18795 21.038298893920768
18117 18118 15.68548016410509
18117 19679 5.403891349464073
18118 18119 17.443801538707355
18119 18795 11.269771524482568
18120 18121 118.51353745775356
18122 18123 71.21859672234272
18124 18125 32.78153874859071
18126 18607 21.27742956060695
18128 18129 21.344415930026187
18128 18130 40.84295818657452
18131 18132 13.452851502588327
18133 18181 26.37026545739579
18134 19910 61.54134320794144
18139 18140 41.85973480249015
18140 18141 41.38535320586079
18141 18142 7.088266105843131
18143 19695 48.36097930950792
18145 20065 54.4254059033909
18145 20066 79.67537690296744
18154 18156 30.204532623228705
18158 18295 218.33246062627634
18160 19777 116.30815937518167
18162 18993 7.120472633021012
18163 18993 7.886179099786492
18163 20132 5.248664763419732
18163 20135 13.408762011963283
18167 18169 97.72624804888885
18168 18169 49.18121108929336
18169 18171 90.69103188277415
18170 18171 96.89493706788988
18171 18172 42.658873748049544
18173 18174 67.22828370696881
18176 18177 36.728547732246604
18178 18179 38.508643855499436
18180 18370 29.866651615638148
18180 19715 38.970725791393306
18184 19106 39.88777002920382
18184 19108 33.0856033311229
18187 18188 163.49826875463214
18188 18189 130.77819167492987
18189 18190 75.94697964362953
18191 18192 36.27970014639648
18192 18193 34.0713031607048
18194 18782 330.13990535694876
18202 18203 41.175797487398455
18204 18205 117.093581724156
18206 19212 384.2160806007381
18206 19244 201.3782789655708
18209 18210 67.53513083631096
18211 18212 38.624369200062084
18212 18213 114.42695945602131
18216 19308 59.13403874519447
18217 18218 37.03326630389764
18219 18220 75.93179841928436
18222 18223 141.51950300578835
18222 18224 76.94109824435013
18223 19774 15.067822572306667
18224 18225 105.8182416270268
18226 18227 75.70555988436524
18227 18229 2.802159451700083
18228 18229 69.40879886888413
18229 18381 92.36052784973738
18230 18231 40.2305707277114
18232 18233 62.803006972372756
18234 18235 94.81342767930757
18238 19704 14.870677846392626
18240 18241 40.987235773647704
18242 18243 4.166564834018306
18242 19606 74.65683268753794
18248 19016 48.11199272026805
18249 18250 70.27226196596014
18257 18473 75.29454127741118
18259 19707 131.11101482945918
18259 19708 75.02841770016822
18259 19783 152.03119625116713
18259 19784 44.799613635659554
18262 18263 87.78851998444196
18267 18268 94.70959871439754
18267 18272 182.28847739206157
18268 18272 303.44355679511807
18269 18270 86.44579885522586
18269 18271 95.7485282463433
18270 18271 101.9305786796452
18270 18273 116.06416356600062
18271 18274 123.41480522448425
18272 18273 259.762511084967
18273 18274 282.89802759933195
18278 20011 8.71396772488334
18280 18281 20.95545461546453
18281 18780 110.0357121701937
18282 18283 36.841673965413946
18284 18568 37.366366113876005
18286 19974 13.169510356711015
18286 19975 40.332528500926344
18287 18893 90.58049464693092
18288 18289 37.172892308436936
18290 18291 55.52679707607458
18296 19859 12.395644770458546
18296 20139 55.40441110974153
18297 19012 152.00993589833374
18297 20031 148.2649199675896
18298 18299 642.3525714094908
18298 18345 726.9024899013953
18300 18301 71.00146208653022
18301 18302 84.0741455511892
18302 18303 76.6552894177068
18303 18304 1444.2173584201837
18304 18305 105.28416360579463
18305 18306 1134.0552408175213
18306 18307 344.55447008829924
18307 18308 72.63901475754021
18308 18309 362.96629739946246
18309 18310 133.6484572885085
18310 19701 136.40125462268202
18311 18312 116.78345297682168
18311 19702 119.95987775432553
18312 18313 181.9185466143992
18314 18315 48.2698084436526
18318 19638 65.31341909620441
18320 18321 121.92619318040845
18323 18325 13.944916720671866
18324 18325 98.68363943471091
18325 19785 119.39769828067011
18326 19683 104.28884658374153
18327 18468 79.30491578407563
18327 19563 60.56835495521991
18328 18469 44.04308322562731
18328 19565 127.13718111483232
18331 18332 63.959219852049785
18337 19885 145.46158953676482
18338 18339 75.97572879576728
18342 18343 17.1802302812716
18343 18344 76.79766070339076
18344 18698 6.211457700111567
18345 19703 72.48539272394603
18346 18347 199.77865385807996
18346 18945 198.02903885384296
18347 18348 256.83888889498195
18350 18351 11.452849321633352
18353 18354 11.430857265632449
18355 18356 9.39781491598693
18358 18359 70.65032089765556
18360 18361 12.966485463669745
18362 18363 11.38194050534964
18375 18377 66.90823000676336
18375 18378 12.553153973134961
18376 18377 12.214991455423423
18378 20014 69.9153590934923
18384 18385 35.19331385687929
18385 18386 96.6701955854281
18385 18387 22.71749764487551
18388 18389 67.05077847705633
18394 18969 55.17247858534065
18398 18399 52.72870927811906
18403 18404 22.26212634026689
18403 19030 105.77285379775323
18406 19230 5.298731927303519
18407 18408 14.595213153671988
18407 18409 94.92341650759629
18408 18409 86.71037938683588
18411 18412 128.73571175346015
18418 19069 39.346707275317655
18422 18423 18.23886594650663
18422 18424 18.87989256656404
18423 18425 18.11749089971161
18424 18425 18.369491225815274
18428 18429 47.42880494088832
18432 19596 28.39806016546357
18433 19596 103.45486011537338
18440 18441 26.095827968886702
18442 19109 58.0049036362875
18447 18448 81.73561320986488
18447 19247 243.25974782788515
18448 18449 82.31735458826202
18449 18451 80.35412343499412
18450 18452 78.31577129402669
18453 18454 134.68203090486003
18460 18461 59.56652686689993
18468 19564 79.78354107707877
18469 19566 193.5516581361498
18470 18960 78.64483641249143
18471 18472 9.483020510440959
18471 18473 8.94344681263918
18472 18474 8.601360390869301
18473 18474 8.865917704473198
18475 18476 9.915508318424443
18475 18477 9.112486358701297
18476 18478 9.148815992514189
18477 18478 9.265852315653236
18479 18480 9.565921312470634
18479 18481 10.125716343877928
18480 18482 10.56873941749653
18481 18482 10.14687846240106
18485 18486 73.93364708766964
18487 19548 94.60720823295718
18487 19549 41.75379243557231
18487 20146 229.99658853493042
18488 19545 6.664734139576208
18488 19546 6.650946318148196
18489 19541 8.113816770512129
18489 19542 9.029263352722653
18490 19538 8.04233862699803
18490 19539 8.072503741524367
18491 18492 14.128961584047046
18491 19535 231.36149077719793
18493 18494 10.835056342762517
18493 18495 11.417830146801037
18494 18496 10.122890175932783
18495 18496 11.331617752183032
18496 18504 156.87128408059982
18497 18501 11.466767939743235
18497 18502 9.39276985510761
18498 18499 10.170674314012393
18498 18500 9.782813061846921
18499 18500 20.80581364501014
18499 18502 172.18895534616854
18501 18503 9.933269729473404
18502 18503 9.959330173185878
18504 18506 12.65131929763059
18504 18507 12.55215116341183
18505 18508 9.734253070571334
18505 18509 10.561900778794374
18506 18511 11.863629362031736
18507 18511 12.370752876854121
18508 18512 11.617305693232643
18509 18512 10.283989993043631
18510 18513 7.105295012381373
18510 18514 7.702947131386881
18511 18516 155.89717206056667
18512 18517 157.24848214248917
18513 18515 7.435662842897866
18514 18515 7.3757053529589784
18515 18522 160.19958668136516
18516 18518 11.724015134075106
18516 18519 11.784213642229197
18517 18520 9.45037601176312
18517 18521 9.655538585595197
18518 18523 11.842380274369075
18519 18523 12.73791234968698
18520 18524 9.681750937004429
18521 18524 9.214842476911938
18522 18525 8.740095218810616
18522 18526 9.230481694187516
18525 18527 8.185538543964615
18526 18527 8.416415765726017
18528 19530 8.518018429008448
18528 19531 8.99361047493623
18529 18530 8.187676905823928
18529 18531 7.154183530258912
18530 18532 8.21604677804416
18531 18532 6.89055098204408
18533 18534 7.0928849899119175
18533 18535 7.9356999073304735
18534 18536 7.101418946714745
18535 18536 8.318166009090938
18536 18537 160.52285710330335
18537 18538 7.862651143040225
18537 18539 7.598176721614033
18538 18540 7.548189829736721
18539 18540 7.798401318950537
18542 18543 18.387309193750077
18542 18544 18.909187026979176
18550 20146 18.90784242748079
18550 20147 8.33376217392931
18551 18552 49.27707623533842
18553 18554 24.68673432819458
18553 18555 30.083857027228525
18554 18555 5.480380356189431
18556 18557 23.303691030336473
18556 19842 18.77196953110275
18557 18935 21.01614026687983
18558 18935 12.74695183299596
18559 18576 63.63488905965044
18560 18563 5.851528770885508
18561 19026 166.9460677775356
18570 18571 48.098644180225136
18570 18572 46.5269411473063
18584 18585 57.54348968659463
18588 18589 44.67306738263157
18590 18830 57.83720584537639
18593 18594 81.48939637762605
18597 18598 29.860612324839977
18598 18599 6.739960980521827
18599 18600 33.38501000107948
18601 18980 25.233713879107494
18602 18798 18.525836522320525
18602 20112 8.181816866652605
18603 19193 162.32386551605097
18604 18605 20.640975894706564
18604 19300 43.557203024745775
18610 18825 63.94687742063752
18616 19501 17.716621294471707
18616 19502 28.657091113381906
18618 18619 46.12346938555625
18621 19388 72.12745756159632
18621 19389 119.0348444015147
18623 18624 90.51138385430531
18627 18630 73.58376713650466
18628 18629 57.61038373998094
18629 18630 50.54936129963877
18629 18631 23.543247706501333
18632 18633 65.54068730695921
18634 19587 89.85341499704191
18635 19588 88.20222478584023
18638 18994 79.22027162187015
18638 20130 6.978817778248145
18638 20133 6.544637185281402
18642 18643 61.21388884779457
18648 18649 29.04722472197423
18652 19189 132.87738838086815
18652 19198 686.7737897964046
18653 18654 12.000691723440074
18654 18655 73.45416216453856
18655 18656 9.268282726549053
18655 18657 9.324958777610629
18656 18658 8.593252246009117
18657 18658 8.549429662128903
18659 18660 6.581325428644895
18659 18661 6.529854750055683
18660 18662 6.597419117891866
18661 18662 6.6490846442535965
18663 18664 8.232654015920533
18663 18665 8.585613775805571
18664 18666 7.922899735599456
18665 18666 8.186049633748068
18665 19162 69.88310271146788
18667 18668 8.59361214510718
18667 18669 7.481299535166126
18668 18670 7.738009684134133
18668 19573 95.0522122434456
18669 18670 8.411284030628789
18671 18672 9.857612525066026
18671 18673 10.159144218539968
18672 18674 9.810665107996744
18673 18674 9.591377560037886
18675 18679 8.996255922033406
18675 18967 5.903661806779491
18676 18677 9.125262591497991
18678 18680 10.577001687815192
18678 18681 8.71491832012705
18678 18967 22.5178415451507
18679 18968 11.990626987035967
18680 18682 9.244351427950493
18681 18682 3.511782148382366
18681 18968 23.64036937042225
18683 18684 7.39979041552983
18683 18685 7.062005475164676
18684 18686 8.002412630546495
18685 18686 7.184463027474577
18687 18688 8.381917838621277
18687 18689 8.592320614405379
18688 18690 8.483540845662699
18689 18690 8.50273396196569
18691 18692 9.036109564350193
18691 18693 8.900147930518518
18692 18693 14.293214796818278
18694 18695 6.951376572890038
18694 18696 6.961242203764761
18695 18697 6.328457655334562
18696 18697 6.332200124446954
18699 18701 8.559263040901891
18699 18702 8.605575973601697
18700 18703 9.512045526146352
18700 18704 10.177740640883691
18701 18705 8.493478422284323
18702 18705 8.43703034098753
18703 18706 9.656808766507147
18704 18706 10.576642213907983
18707 18711 10.254529548776414
18707 18712 10.304607196801832
18708 18709 8.316891907655878
18708 18710 8.44600977071757
18709 18713 8.205790837760802
18709 20142 72.19532818801086
18710 18713 8.070997935669476
18711 18712 22.105005379816063
18714 18715 5.478782281789758
18714 18716 5.496235943317337
18715 18717 5.8170864196390015
18715 18720 156.9961112967974
18716 18717 5.804125801071446
18718 18719 8.711037638266465
18718 18720 9.300202724452777
18719 18721 8.904888833006268
18720 18721 9.074101268902456
18722 18723 9.398319666396853
18722 18724 9.366864970151433
18723 18725 9.254797178737482
18723 19769 54.381513728820195
18724 18725 9.209502074010588
18725 19957 98.77536146374291
18726 18727 6.891226651444215
18726 18728 6.950545905349807
18727 18729 6.631138023999557
18728 18729 6.5913944780727
18730 18731 8.007711400049507
18730 18732 8.010283900704344
18731 18733 8.433060006256103
18732 18733 7.845710058544132
18734 18735 6.987865553339157
18734 18736 7.101654961351351
18735 18737 7.02566693411979
18736 18737 6.902774526297479
18739 19402 77.8330661119202
18740 18741 104.3702724377183
18743 19603 91.07195720293801
18749 20021 16.388467078004616
18749 20022 10.801414230847518
18752 18753 35.46472063414752
18769 18770 9.881838422509759
18770 19150 36.32032001747925
18773 19860 28.008828924115203
18773 19861 27.726960586965596
18775 18776 24.877493230759427
18777 18778 9.020974034858803
18777 18779 66.48096926512316
18779 18780 8.818430984056842
18782 19243 310.1643919169519
18784 19104 25.763718896868752
18786 18814 100.44986050104453
18789 18830 42.004759339277335
18790 18791 122.63041408343406
18793 19865 37.20654058226944
18798 20112 11.845183366596821
18801 18804 505.44880573938036
18802 18803 374.35329034462484
18803 18804 52.0301165537359
18805 18806 53.098151004709685
18808 18809 99.43630585916975
18808 18813 120.72405007356774
18819 18820 7.2683170045946275
18819 18821 7.4378544689250905
18820 18822 7.004609275692611
18821 18822 7.781449848479958
18823 18824 9.921150896417812
18823 18825 9.878026159286835
18824 18826 10.825504292924693
18825 18826 11.270367483629997
18827 18829 7.346734568420714
18827 19283 7.661131500821059
18828 18829 7.371121867586318
18828 19283 7.22966236561453
18842 18843 96.14511411500203
18842 18846 27.430449015074075
18843 18845 62.29277212054962
18844 18845 158.11807216906826
18855 19272 78.61353650251641
18864 18865 9.5088525273704
18864 18866 10.930926149096262
18875 18876 50.54427883633147
18876 18878 31.051316130618318
18876 19786 64.72839022424236
18877 18878 53.33680284231936
18879 18880 52.75607046187636
18883 19137 62.36209677571259
18901 20115 35.5518983485307
18905 19278 58.35632492194678
18907 18908 19.40258774348094
18909 19252 724.5824437695616
18910 19622 31.47936628329327
18911 18912 7.056686509350625
18911 18913 7.276084689854751
18912 18914 7.0141160364201784
18913 18914 7.325759466050645
18915 18916 5.874602034759197
18915 18917 6.007960625094868
18916 18918 5.888271741105593
18917 18918 6.010187019171234
18920 18921 8.16174557667675
18920 18922 7.6290736773882335
18921 18925 7.994704896413633
18922 18923 145.7516659992674
18922 18925 7.978208992321554
18923 18924 15.3611190057845
18923 18926 8.113651428017857
18924 18926 8.408751971340546
18930 19023 7.695574976274697
18930 19024 55.894725935423025
18930 19025 57.24087973147234
18931 18932 11.410551983491098
18934 19602 132.91236174441931
18941 18942 15.403436601319765
18941 18943 14.747791044807506
18947 18948 231.3802664824641
18964 18965 10.882141581618363
18964 19324 76.7833984234392
18965 19929 177.3688926764565
18965 20048 69.97811437428496
18966 20044 87.20458217252704
18967 18968 8.218366961365223
18972 19209 61.06288620538952
18977 19431 56.67427648441175
18979 18980 15.769569526027738
18993 20132 7.085303296105487
18997 18998 13.507542456200191
18998 18999 6.2821787130361475
19002 19347 36.8560318491721
19005 19203 56.913607106978304
19008 19009 65.08102839768276
19011 19013 94.85500008213722
19011 20030 41.5281474726764
19011 20031 53.51124721054634
19012 20030 13.13331194099279
19012 20031 14.760295635459368
19017 19019 55.731316808617336
19018 19780 94.62818575343645
19021 19022 65.00145144189328
19023 19024 58.214903039953434
19023 19025 55.083865190900596
19027 19028 80.20411800363583
19030 19872 7.215088541513841
19032 19367 89.6946691240775
19033 20144 271.76407403328625
19034 19268 165.53698824290433
19040 19613 39.59840882375114
19051 20032 446.4155451480175
19053 19054 93.18402201180791
19054 19055 41.66151570206822
19057 19580 223.95741208941604
19059 19060 78.25910763830625
19066 19067 85.9750822838172
19076 19349 17.669189574978596
19076 19699 245.88055917203224
19076 19994 75.47954181065458
19079 19124 563.5754988563939
19085 19086 65.40926671259265
19087 20129 148.21507908795647
19088 19362 48.8608997311711
19091 19092 37.2029414908531
19095 19840 24.16349723232957
19095 19841 24.087454881139838
19105 19978 18.692393553321562
19106 19107 42.95440407200772
19107 19108 32.90615586669978
19111 19112 65.26798688671784
19116 19117 10.183406753288997
19117 20087 189.1071685369123
19121 19718 184.42706235618792
19122 19123 58.91366997498378
19123 19837 281.816803963644
19125 19251 976.664442194124
19126 19127 37.011169977678655
19128 19129 154.59090861822807
19130 19131 84.46006902840712
19132 19133 136.25820876608552
19147 19148 153.17808014900203
19152 19153 94.68262182043571
19158 20035 10.864989889765898
19159 20035 88.23605042935885
19160 19190 84.83720726743695
19162 19163 22.871893303396934
19163 19164 22.837051672963348
19166 19400 50.078327759805035
19167 19181 122.17611836280861
19169 19170 21.283629003524272
19172 19829 227.24781031681604
19173 19470 25.68193663218819
19177 19178 82.01803536847531
19182 19183 309.68320912316136
19182 19184 263.99619223207645
19182 19325 83.54508770025994
19184 19185 140.94212746000187
19185 19188 309.3266134938582
19186 19187 78.30423396206254
19186 19188 79.22433510411184
19189 19201 105.18565873661257
19190 19195 805.802410434638
19190 19282 10.240887707682482
19191 19192 45.46845758077712
19192 19194 491.9953653831849
19195 19196 28.583626390772686
19195 19197 12.86565851520451
19196 19197 31.073967885907436
19196 19198 110.30546234765387
19197 19199 107.5662468272579
19197 19282 796.7564300724662
19199 19230 189.17944992375723
19201 19206 180.2106751113551
19204 19236 26.241814778495772
19205 19236 10.466379860950912
19212 20040 289.5922474968464
19222 19223 55.126039572773415
19222 20029 51.421782939175245
19223 20029 64.5039633649992
19227 19229 21.28802763372915
19228 19229 19.67983337782399
19232 19233 45.145529991494996
19239 19243 235.32224733385843
19239 19248 580.3440380594066
19240 19242 1054.6814234666147
19241 19242 154.24828519114507
19241 19249 844.9403662409395
19243 19923 430.80185961084067
19245 19277 620.2514555811483
19246 19277 1233.6745367566723
19261 19262 24.127447642833406
19261 19263 28.7669778177794
19262 19264 29.246382238282692
19263 19264 23.981194068790685
19267 19268 18.09326578345307
19268 19279 60.76595668826101
19271 19644 34.99158262095695
19276 19423 42.66372830863847
19284 19291 79.7861127539513
19284 19417 79.44075942398541
19285 19286 77.97379109428796
19285 19291 158.25383269606928
19285 19440 158.9242306182454
19286 19288 158.14742858107348
19286 19450 159.34014161849615
19287 19449 154.85504941017533
19288 19289 157.93734179871558
19288 19291 78.24902020650858
19289 19290 78.5172872365479
19290 19291 157.89551655450876
19290 19292 157.59920303386656
19292 19293 158.30802472026042
19293 19294 77.6306955299576
19294 19295 80.70866665764083
19294 19423 79.51740874439476
19295 19424 79.27311253579401
19296 19648 36.97271121702715
19297 19298 9.987856653625796
19297 19761 40.98545310011886
19300 19301 99.42261199677468
19301 19732 83.78515404892168
19302 19303 3.4587406994306558
19302 19304 16.39080309321569
19304 19305 26.90148955490235
19311 19312 107.08134663858665
19311 20119 117.304937940894
19312 20121 118.76231282154345
19317 19318 97.05067905478447
19319 20073 47.37102372465903
19319 20111 41.71792801687599
19320 19321 79.42047815120657
19322 19334 25.221815640497212
19322 19795 25.447434967850228
19322 19796 21.283640617875548
19324 19928 99.96282888274307
19327 19354 679.7731730557161
19328 20089 288.866030488259
19329 20104 101.26318340883127
19329 20143 62.022993547188406
19340 19341 30.99777440025079
19342 19343 136.05403831817955
19343 19344 239.16578684802357
19346 19347 153.52297574221072
19350 19351 169.08454857572517
19353 19501 68.60282795327143
19355 19356 60.451508716982815
19355 19357 63.74355429312496
19364 19949 148.63097825932982
19365 19886 43.24653209128597
19368 19369 27.89073068851119
19368 19633 19.560037176681867
19370 19633 36.49236952205211
19376 19377 68.78940826791421
19378 19946 131.08225129119865
19380 20117 88.92290850977727
19384 19385 93.99240689659337
19389 19391 125.18920301685586
19390 19391 242.10305123588708
19390 19392 32.233266503215475
19392 19393 89.2221671946049
19394 19403 105.71765621998958
19396 20099 299.08129802300203
19397 19398 10.846563989338247
19397 19399 20.232345716349343
19398 19399 22.77529060468384
19404 19405 10.240803527106628
19404 19406 180.45197127226785
19407 19408 10.680383672955381
19407 19410 10.680518110507968
19408 19409 10.685248147637648
19409 19410 10.676724435446225
19411 19413 10.688241232734585
19411 19414 10.672622768058208
19412 19413 10.685083890954218
19412 19414 10.678807593529775
19417 19418 157.109565543962
19418 19419 78.94508128342783
19419 19420 79.19233041291515
19420 19421 158.5022748867769
19424 19425 80.05194628659271
19425 19426 78.1836934905018
19427 19430 72.31424249761773
19427 19431 30.847085339504563
19428 19429 65.90793595039143
19433 19434 80.90907706699566
19436 19437 73.46664699666657
19437 19438 90.25631013376693
19439 19441 70.84162597459144
19440 19450 77.70828884805854
19441 19442 55.53189661026713
19442 19443 6.220792904012248
19443 19444 46.85981452277737
19444 19445 50.51258868828489
19445 19446 27.196560706712674
19446 19447 21.094446994468882
19447 19448 78.28472807573284
19448 19449 15.26269651650215
19451 19452 11.723133282231313
19452 19453 58.17454585577378
19453 19454 32.64133603024486
19453 19848 56.88376529673512
19454 19455 79.29666991040817
19454 19847 61.569724872432474
19455 19456 82.21423544339112
19456 19457 79.25897458904193
19456 19731 75.49910182227337
19457 19593 75.77806768442682
19459 19460 79.74651483355395
19460 19461 78.74071838558791
19461 19462 78.7926815159927
19464 19465 78.42931774469015
19465 19466 83.70479808296359
19466 19467 78.90970569322013
19467 19468 80.61775477014515
19468 19469 79.34952217613039
19469 19470 79.10489299477521
19471 19472 20.00766245592637
19472 19473 60.92143908585867
19474 19488 169.20508960584226
19479 19480 78.67554589249588
19479 19858 5.739381229928486
19480 19481 79.68897982932161
19481 19482 38.30466374514459
19483 19484 30.77375338649916
19484 19485 28.465388830020117
19485 19486 32.781298914190444
19486 19487 130.7354569470353
19487 19488 34.755456376312495
19489 19506 79.39381242249087
19489 19507 78.05947410981443
19490 19491 78.91162582263165
19490 19609 78.7470729972765
19491 19492 79.42678163626564
19492 19493 77.97593661557936
19493 19494 79.87786140191658
19494 19495 78.43515694344119
19496 19497 79.68162435514184
19496 19608 79.67362026878233
19497 19498 138.78437460723433
19498 19499 142.7438078616937
19499 19500 142.92013957490167
19500 19501 141.4135682406904
19501 19502 22.034573198575877
19502 19503 62.45693877762988
19503 19607 77.47649869854351
19504 19607 75.70084662607837
19508 19509 170.61778875186872
19509 19510 79.18750188915601
19510 19511 79.02393737067281
19511 19512 78.89178893210091
19512 19513 79.08698225514668
19513 19514 78.94552464308306
19514 19515 82.32543884430183
19515 19516 81.83472883767631
19516 19517 79.59961368658317
19517 19636 78.34763286704347
19518 19519 81.95162912245476
19518 19636 82.97212852164017
19519 19520 78.47050558005857
19520 19521 78.79087161858887
19521 19522 31.008466434630535
19522 19523 48.06330499587804
19523 19524 28.337239105436375
19524 19525 50.69464407806786
19525 19526 25.292579796829617
19526 19612 54.20634216039181
19527 19528 75.35581549698114
19527 19611 76.76558530443181
19528 19610 73.17949193948078
19529 19530 76.37741438434168
19529 19610 42.244658024131766
19530 19531 15.284280941498091
19531 19532 82.35158606992808
19532 19533 95.72840708545128
19533 19534 33.28109096841462
19534 19535 60.96894354763411
19535 19536 94.87235188768459
19536 19537 14.722654106768086
19537 19538 75.49150622000612
19538 19539 12.981156284267948
19539 19540 89.47077681778899
19540 19541 90.69221469944746
19541 19542 14.579963950751596
19542 19543 71.6569599503771
19543 19544 17.235968232225417
19544 19545 90.34609317524244
19545 19546 13.141735757825463
19546 19547 55.72019942120959
19547 19548 34.548739713232514
19549 19550 47.102496925996576
19550 19551 62.47255351544201
19551 19552 79.1371801850646
19552 19609 80.46173441710938
19553 19668 7.829246724145535
19553 19669 27.89003362154954
19553 19670 21.625967281007426
19554 19555 78.98025142771796
19554 19558 159.71777783443892
19555 19556 83.07826608715938
19556 19557 7.755427697996469
19559 19583 43.29828534670579
19560 19561 112.09931372895724
19560 19566 305.7319693146667
19561 19562 106.334271442383
19562 19563 49.60511022500474
19562 19582 100.68683308510658
19569 19645 190.07772801907345
19570 19611 75.7066430138957
19570 19612 21.83675673058017
19582 19921 58.659476233221916
19584 19932 10.39919702496572
19586 19587 82.39853950752612
19587 19588 73.22377061456748
19593 19731 79.56657243179237
19593 19938 4.7616719235452
19594 19937 6.2092378032750375
19602 19842 136.88230868192412
19615 19616 29.1219170553776
19625 20107 76.34997559937793
19628 19629 23.40862125294258
19628 19630 22.760115606023028
19629 20013 169.23883273760927
19631 19632 35.810696407231404
19634 19980 25.455135652129275
19634 19981 29.38493684806832
19643 19941 65.93325985565036
19646 19647 112.01251115924534
19650 19651 29.141234531093883
19650 19652 33.826513072929245
19658 19887 38.23584233613288
19658 20124 205.98983597829044
19659 19660 23.74619827736872
19659 19661 24.08773666935233
19662 19663 20.982804687457527
19662 19664 21.659374878585055
19665 19666 27.200075426745343
19665 19667 28.837994391571087
19668 19669 28.466572522645038
19668 19670 22.487853984254613
19671 19672 29.62161689659492
19671 19673 28.753346404201306
19674 19675 21.726916936936128
19674 19676 25.699776821581928
19674 19978 21.616401731039918
19675 19676 47.263867984648876
19680 19681 36.52741971367095
19684 19685 33.59409533942225
19691 19692 306.6976946777113
19694 19696 35.832606836375675
19694 19697 35.58792637562589
19695 19696 34.40946447651136
19695 19697 30.893479680730824
19700 19701 75.21463042469674
19700 19702 24.93935894167059
19706 19707 151.33194154222383
19706 19783 133.29782360133316
19707 19781 45.39335686802455
19707 19782 30.86232791705652
19711 19887 67.45966329631705
19716 19717 59.1418510794985
19720 19721 29.923303105882365
19721 19722 36.50868779466818
19723 19758 232.17900013722016
19727 19728 75.74072128062213
19729 19730 149.96120555634448
19730 19732 91.29788329532178
19733 19734 45.46065700397102
19734 19735 18.56365140550603
19734 19736 13.717461840060057
19737 19772 45.259749497749354
19738 19739 37.27678432730549
19738 19740 43.671909021774326
19740 19741 38.6568297854642
19742 19743 31.272987549836294
19745 19915 105.43195657173152
19749 19750 67.72673322432115
19750 19929 140.76279401715905
19754 19755 15.747976014544442
19756 19757 71.03626301604994
19756 19832 117.83515834724997
19758 19832 58.87357461874333
19759 19760 116.13574036914152
19773 19774 85.5846286342608
19775 19776 81.3125470480531
19786 19787 53.034757767007264
19789 19832 246.00583412446738
19790 19791 91.64686150887832
19792 19822 100.44972635477357
19795 19796 34.53302303994367
19795 19797 5.552726007346935
19805 19806 9.159389579553038
19805 19808 8.583093401381491
19806 19807 9.130964493184615
19807 19808 8.464727364361135
19809 19811 7.565392793781245
19809 19812 7.716132190652114
19810 19811 7.040155707237492
19810 19812 7.173743728185206
19813 19814 8.657970469585969
19813 19815 8.672618815566816
19814 19816 9.3510128971004
19815 19816 9.204295720850302
19819 19820 15.994526279476466
19821 19871 66.80305991405842
19830 19831 45.43680289164742
19834 19835 166.17705283279935
19834 19902 191.07522505892535
19835 19950 255.24933306489248
19836 19837 153.23777309581084
19836 19894 70.82340149872968
19837 19838 50.45960562093039
19837 19839 52.06723184372698
19840 19844 206.95324660044116
19843 19845 118.11178639012962
19844 19845 32.88094430827035
19847 19848 11.302056157434498
19849 19850 146.44854022015417
19849 19853 104.18954630286935
19850 19851 76.29508184680294
19851 19854 77.5654148750499
19852 19854 124.38385530368338
19852 19855 25.57191995218009
19852 19857 38.49405792610064
19855 19856 150.4277875667475
19862 19864 27.90690460863636
19863 19864 28.858113334176373
19866 19868 21.57312421865352
19867 19868 19.179669410886234
19874 20045 11.108399801025083
19876 20114 96.11604367201137
19877 19878 24.999382714143444
19877 19879 20.376373351109194
19881 19883 16.202914883792886
19881 19884 16.208799862650377
19882 19883 16.846605992107726
19882 19884 17.03914480379556
19890 20051 10.077438249084732
19890 20057 88.9958727402864
19890 20058 160.26044137049377
19891 19892 89.92240241504922
19893 19894 29.887073122190472
19895 19897 10.652616219678267
19896 19897 10.657916759393382
19899 19904 97.54225100568895
19900 19901 32.63826674966393
19900 19904 178.99975606825603
19901 19905 126.62781823813879
19902 19905 67.80560606060159
19903 19948 374.0927086165633
19911 19912 14.591515545272978
19911 19913 18.08135706913775
19912 19913 12.368289789163665
19915 19916 67.29246617241664
19920 19922 35.81582331202636
19921 19922 39.745524702012105
19924 19930 78.58112702986172
19925 19926 14.121745859531167
19925 19927 29.263514221203792
19926 20088 30.774549253153758
19927 20088 13.931822583399844
19928 19929 12.253760196374719
19928 20071 145.73663298994433
19930 19931 10.446418544034353
19934 19935 82.1426395502846
19937 19938 79.18339989930674
19946 19947 18.22123114942205
19950 20028 243.3107573220609
19952 19953 10.352309239950085
19952 19954 189.92868863725045
19953 19955 186.52478187564174
19953 19956 169.81958784088684
19954 19955 11.076957223769254
19959 19960 14.698434355523794
19959 19961 16.95221115259587
19959 20008 16.2716917196629
19969 20088 52.473814208658276
19974 19975 26.12144560926236
19985 19986 14.658417511256033
19992 19993 39.55274524956068
19995 19996 24.087836803835952
19998 19999 7.539932518161308
20013 20014 17.81787349806347
20021 20022 5.826951755366171
20026 20027 22.190287330195346
20026 20123 14.35082809213754
20027 20123 33.04151956355778
20028 20123 26.05253176706762
20037 20038 16.319215328247118
20037 20040 191.9721614293149
20038 20039 195.19098171914536
20039 20040 17.248497772474547
20042 20045 82.34831413694758
20043 20044 84.22628580736
20043 20046 10.224841342332425
20046 20047 61.42421520568088
20049 20050 78.60271440302036
20049 20059 10.078361896362214
20050 20051 162.48863378691024
20050 20058 11.0642430126334
20052 20056 10.252687414610657
20053 20054 123.72558152800318
20053 20126 102.64307576260609
20054 20055 91.23647403914529
20055 20056 80.7576038903315
20056 20057 74.0933950059172
20058 20059 82.74501802472462
20060 20061 39.11105730839601
20061 20062 130.27857552912727
20061 20069 10.301150560802306
20062 20063 140.46559692813221
20062 20068 10.341216216039523
20063 20064 152.24503291018067
20064 20067 10.551609271850536
20065 20066 37.962431546072104
20066 20067 60.958297473635426
20068 20069 130.54387698600928
20070 20071 148.75665596079924
20072 20090 32.36928586299084
20072 20092 12.077392511369155
20073 20110 46.90225554752024
20080 20081 69.36226775171626
20085 20086 8.87854380530706
20090 20092 18.423590597984735
20094 20095 51.671016912149526
20095 20096 42.94330363453095
20099 20136 23.522663867126614
20100 20101 12.006499883863594
20104 20106 41.99523567641808
20104 20107 41.79467125788369
20105 20106 41.628923612837994
20105 20107 41.6200851241926
20108 20109 29.738213726305812
20110 20111 41.704179794992726
20119 20121 106.14429435286583
20119 20128 80.36402957941306
20120 20121 106.61324766029382
20121 20127 82.13726381885957
20125 20143 55.644794801196916
20127 20128 104.74757692426057
20130 20132 15.327700420315939
20130 20133 6.278996478679204
20131 20134 6.322602797749783
20131 20135 7.55509338645857
20133 20134 6.383794095147685
20134 20135 4.876735939172995
20140 20141 42.634915563271484
20140 20142 34.459665927170036
20146 20148 9.486428630798068
20147 20148 18.87289180418323
20151 20152 44.570946189351986
