0 1 193.0
0 21 2172.0
1 2 188.0
1 3 403.0
2 22 2177.0
3 4 2295.0
3 20 2007.0
4 7 1807.0
5 6 126.0
5 7 760.0
7 11 1642.0
8 9 96.0
8 10 2815.0
8 158 3507.0
10 150 720.0
10 171 1992.0
11 12 359.0
11 13 1254.0
13 14 5.0
13 15 3.0
13 16 8.0
14 18 1.0
14 19 1043.0
15 17 2.0
15 18 2.0
16 17 4.0
16 20 136.0
17 18 2.0
19 156 184.0
19 159 941.0
20 21 223.0
21 22 12.0
21 164 1372.0
22 165 1376.0
22 2966 3746.0
23 24 1546.0
24 25 356.0
24 69 493.0
25 26 126.0
25 71 1070.0
27 28 619.0
27 29 496.0
27 31 327.0
28 40 369.0
28 42 1025.0
29 30 3353.0
29 32 297.0
30 58 426.0
30 127 2466.0
31 33 93.0
31 40 689.0
32 33 11.0
32 35 359.0
33 34 405.0
34 36 413.0
34 46 292.0
35 36 95.0
35 37 504.0
36 57 824.0
37 38 140.0
37 56 789.0
38 39 105.0
40 41 37.0
40 42 480.0
40 47 639.0
42 45 126.0
43 44 69.0
43 50 613.0
43 52 1239.0
45 48 707.0
45 55 688.0
46 47 251.0
46 59 669.0
47 48 224.0
48 49 267.0
49 55 13.0
49 63 1076.0
50 51 1559.0
50 52 582.0
50 60 780.0
51 62 672.0
51 66 101.0
52 53 52.0
52 54 43.0
54 55 66.0
54 61 609.0
56 57 421.0
56 58 604.0
56 115 1138.0
57 59 775.0
57 116 893.0
58 113 1478.0
59 64 638.0
60 61 304.0
60 62 1675.0
61 65 1011.0
62 145 3207.0
63 64 260.0
63 122 661.0
64 116 995.0
64 121 636.0
65 120 380.0
65 128 1720.0
65 130 2728.0
67 68 93.0
67 129 570.0
69 70 641.0
69 72 415.0
70 71 272.0
70 77 760.0
71 76 764.0
72 86 834.0
72 126 2295.0
73 74 10.0
73 80 940.0
73 92 433.0
74 75 20.0
76 77 268.0
76 80 329.0
77 78 116.0
77 79 602.0
77 81 371.0
79 85 87.0
79 90 565.0
80 81 272.0
81 82 162.0
82 89 566.0
82 99 886.0
83 84 71.0
83 85 52.0
85 86 391.0
86 91 1041.0
87 88 22.0
87 89 296.0
87 97 541.0
89 90 11.0
90 91 502.0
91 133 2539.0
92 93 405.0
92 96 472.0
93 94 37.0
93 95 13.0
95 96 711.0
95 97 908.0
95 99 454.0
96 98 685.0
97 99 586.0
97 100 917.0
98 100 2098.0
98 102 137.0
100 101 57.0
102 103 1233.0
102 107 1717.0
103 104 2818.0
103 105 59.0
104 194 7839.0
104 197 3671.0
105 109 1224.0
105 197 2291.0
106 107 338.0
106 110 1343.0
106 208 2589.0
107 108 59.0
107 109 1397.0
109 199 1139.0
110 111 331.0
110 112 1771.0
112 133 46.0
112 210 2174.0
113 114 81.0
113 115 810.0
113 125 1089.0
115 117 510.0
115 124 882.0
116 117 37.0
117 118 132.0
117 123 848.0
119 120 315.0
119 121 341.0
119 123 570.0
120 122 148.0
121 122 26.0
123 124 504.0
124 125 643.0
125 127 586.0
126 127 196.0
126 132 2883.0
128 129 81.0
128 140 5343.0
129 138 5237.0
130 131 246.0
130 223 4220.0
132 133 247.0
132 134 1218.0
134 135 271.0
136 137 71.0
136 217 2947.0
138 139 13.0
138 140 13.0
138 181 2736.0
139 141 13.0
139 182 2717.0
139 185 821.0
140 141 14.0
141 186 817.0
142 143 57.0
142 144 70.0
144 145 494.0
145 151 7747.0
146 147 8.0
146 148 1438.0
148 149 281.0
148 150 1436.0
150 151 2088.0
151 152 1598.0
152 153 560.0
152 155 726.0
153 154 367.0
155 171 879.0
155 181 5935.0
156 157 133.0
156 164 432.0
158 159 810.0
158 171 4986.0
159 160 575.0
159 161 541.0
161 162 10.0
161 164 1082.0
161 166 783.0
162 163 792.0
162 165 1086.0
162 175 3677.0
163 166 13.0
163 169 4512.0
163 170 5106.0
164 165 15.0
165 2969 7985.0
166 167 344.0
166 168 4537.0
168 169 16.0
168 172 491.0
168 173 1039.0
169 170 4095.0
169 174 1062.0
170 189 989.0
170 2974 7543.0
171 172 109.0
172 173 768.0
173 174 14.0
173 181 6325.0
174 182 6339.0
174 187 3042.0
175 176 2212.0
175 177 609.0
177 178 108.0
179 180 355.0
179 187 2158.0
181 182 26.0
182 183 1019.0
183 184 573.0
183 312 3673.0
185 186 14.0
185 311 1245.0
186 223 535.0
186 224 1214.0
187 190 1101.0
188 189 11.0
189 190 1538.0
189 191 2549.0
190 335 3545.0
191 192 1214.0
191 335 3012.0
192 193 269.0
194 195 12526.0
194 726 4006.0
195 196 6837.0
195 726 10561.0
195 784 7089.0
195 790 6239.0
196 728 1794.0
196 732 3104.0
197 198 538.0
197 199 407.0
197 204 954.0
199 201 961.0
200 201 10.0
200 208 2230.0
200 229 1434.0
201 205 628.0
202 203 59.0
202 204 134.0
204 205 113.0
205 206 2817.0
206 207 1996.0
206 266 3105.0
207 237 10.0
207 240 1593.0
208 209 1036.0
208 213 1852.0
209 210 1187.0
209 215 1022.0
210 219 1343.0
211 212 47.0
211 227 802.0
211 228 844.0
213 214 186.0
213 228 959.0
214 221 1198.0
214 230 63.0
214 231 776.0
215 216 120.0
215 221 746.0
217 218 1592.0
217 219 41.0
218 222 91.0
219 220 1127.0
220 234 1234.0
220 241 1181.0
221 234 674.0
223 224 1058.0
223 225 497.0
224 311 27.0
224 315 632.0
225 226 521.0
225 315 1750.0
227 228 76.0
227 229 551.0
229 237 1423.0
231 232 28.0
231 233 1014.0
232 235 784.0
232 237 1045.0
233 234 110.0
233 238 1496.0
235 236 143.0
235 239 670.0
238 239 693.0
238 243 534.0
239 240 1035.0
240 264 1645.0
241 242 690.0
241 243 531.0
241 270 2292.0
242 245 182.0
243 244 157.0
246 247 14.0
246 248 14.0
246 249 1085.0
247 248 8.0
247 258 6.0
248 253 8.0
249 262 290.0
250 251 7.0
250 252 1475.0
250 255 10.0
251 255 6.0
251 257 6.0
252 263 3042.0
252 726 3489.0
253 254 5.0
253 255 7.0
254 256 6.0
254 257 9.0
256 257 11.0
256 260 6.0
258 259 13.0
258 261 5.0
259 260 16.0
259 261 11.0
259 727 1127.0
260 261 7.0
263 281 5370.0
263 727 2200.0
264 265 1866.0
264 272 1265.0
265 268 182.0
265 270 252.0
266 267 237.0
268 269 105.0
270 271 1048.0
271 273 434.0
271 276 1646.0
272 273 1122.0
272 277 1996.0
272 284 1604.0
273 274 72.0
274 275 102.0
276 283 1713.0
276 290 682.0
277 278 2062.0
277 287 1286.0
278 281 177.0
278 288 449.0
279 280 80.0
279 288 279.0
281 282 128.0
282 296 1475.0
282 738 1891.0
284 289 495.0
284 299 1679.0
285 286 166.0
285 289 143.0
287 288 1301.0
287 289 76.0
290 291 29.0
290 292 2884.0
290 306 2123.0
291 293 2874.0
291 307 2128.0
291 416 1441.0
292 293 13.0
292 315 4145.0
292 374 14.0
293 375 14.0
293 382 2099.0
294 295 206.0
294 299 1025.0
296 297 332.0
296 738 984.0
297 298 57.0
299 304 633.0
299 306 526.0
300 301 589.0
300 302 529.0
300 432 810.0
301 415 155.0
301 430 532.0
302 303 117.0
302 309 441.0
304 305 178.0
304 739 638.0
305 308 112.0
306 307 11.0
306 747 753.0
307 310 624.0
307 748 746.0
309 310 558.0
309 432 574.0
309 438 897.0
310 749 432.0
311 312 511.0
311 374 4749.0
312 314 723.0
313 314 3128.0
313 317 604.0
313 322 1913.0
314 316 264.0
316 318 1386.0
316 325 3541.0
317 328 3977.0
317 337 4397.0
318 319 1285.0
318 323 2570.0
319 320 237.0
319 322 955.0
320 321 176.0
322 331 2187.0
323 324 13.0
323 325 2072.0
323 331 1286.0
324 326 1283.0
324 327 2082.0
324 384 1735.0
325 327 10.0
325 374 507.0
326 331 13.0
326 332 1596.0
326 394 1416.0
327 375 503.0
327 378 1315.0
328 329 184.0
328 330 1050.0
328 343 1709.0
330 331 1598.0
330 332 19.0
330 346 2154.0
332 333 1054.0
332 347 2156.0
333 334 1486.0
333 398 1201.0
334 347 235.0
334 352 535.0
334 514 463.0
335 336 19.0
335 337 703.0
337 338 2299.0
337 342 1639.0
338 339 3336.0
338 353 2098.0
339 343 126.0
339 346 1779.0
340 341 26.0
340 342 822.0
342 343 854.0
344 345 311.0
344 356 1180.0
346 347 13.0
346 348 710.0
347 349 690.0
348 349 16.0
348 350 3129.0
348 367 2741.0
349 351 2749.0
349 352 104.0
350 364 702.0
350 366 108.0
351 367 12.0
351 370 1543.0
351 542 153.0
352 517 1378.0
353 354 952.0
353 355 467.0
354 362 1433.0
354 2974 7682.0
354 2985 2392.0
355 356 999.0
355 358 593.0
356 357 257.0
357 359 427.0
357 364 906.0
358 359 182.0
358 362 446.0
359 360 81.0
360 361 308.0
362 363 822.0
363 364 255.0
363 365 3122.0
365 2986 2579.0
365 2989 97.0
366 367 24.0
366 368 1591.0
367 369 1525.0
368 369 27.0
368 371 512.0
369 370 18.0
369 371 454.0
370 372 458.0
370 373 1649.0
371 372 22.0
371 2989 1742.0
372 2990 1723.0
372 3017 2013.0
373 543 327.0
373 545 411.0
374 375 13.0
375 383 2098.0
376 377 88.0
376 378 1193.0
378 388 1210.0
379 380 188.0
379 381 455.0
381 383 325.0
381 388 912.0
382 383 13.0
382 444 3067.0
383 426 1955.0
384 385 448.0
384 395 1495.0
385 386 92.0
385 387 1887.0
386 390 637.0
386 393 388.0
387 397 116.0
387 399 385.0
388 389 259.0
389 390 1048.0
389 417 424.0
390 418 589.0
391 392 102.0
391 393 759.0
391 421 426.0
392 418 197.0
393 410 264.0
394 395 171.0
394 397 314.0
395 396 695.0
397 398 1161.0
398 402 738.0
399 400 369.0
399 401 989.0
401 411 298.0
401 413 11.0
402 405 82.0
402 414 2104.0
403 404 197.0
403 405 394.0
405 406 2859.0
406 514 1831.0
406 523 167.0
407 408 69.0
407 409 95.0
409 410 437.0
409 458 991.0
410 455 411.0
411 412 159.0
413 414 990.0
413 464 1147.0
414 526 930.0
416 425 393.0
416 430 376.0
417 422 840.0
417 443 1278.0
418 419 203.0
419 420 189.0
419 422 254.0
420 421 221.0
420 428 459.0
421 455 405.0
422 429 1573.0
423 424 293.0
423 425 1260.0
425 435 612.0
426 442 739.0
426 451 1456.0
427 428 324.0
427 429 290.0
428 463 575.0
429 446 512.0
430 431 282.0
431 433 384.0
431 436 470.0
432 436 182.0
433 434 82.0
433 439 287.0
435 439 332.0
435 901 3039.0
436 437 709.0
437 438 1115.0
437 439 616.0
437 822 257.0
438 749 71.0
439 833 1196.0
440 441 76.0
440 445 1071.0
442 443 115.0
442 451 633.0
443 446 594.0
444 445 546.0
444 453 377.0
445 454 27.0
446 447 506.0
447 450 234.0
447 463 419.0
448 449 65.0
448 450 446.0
448 476 1509.0
450 471 350.0
451 452 34.0
452 453 10.0
452 839 1354.0
453 454 228.0
453 838 1171.0
454 838 1008.0
455 456 441.0
456 457 737.0
456 472 990.0
457 458 56.0
457 459 440.0
458 464 709.0
459 460 136.0
461 462 141.0
461 463 580.0
464 468 654.0
465 466 255.0
465 467 316.0
467 468 401.0
467 570 690.0
468 469 671.0
469 470 178.0
471 472 286.0
471 473 70.0
472 474 608.0
472 490 1633.0
474 475 532.0
474 478 454.0
475 488 660.0
475 495 418.0
476 477 104.0
476 478 1125.0
476 836 825.0
478 479 20.0
478 483 390.0
479 480 540.0
479 485 381.0
480 481 122.0
480 494 89.0
481 482 83.0
481 484 277.0
483 930 846.0
483 933 146.0
484 485 177.0
484 499 540.0
485 486 121.0
486 487 36.0
486 949 339.0
487 936 234.0
487 938 294.0
488 489 120.0
488 490 251.0
490 491 348.0
491 492 362.0
491 496 688.0
492 493 70.0
492 498 353.0
492 604 858.0
494 495 76.0
494 499 377.0
495 496 137.0
496 497 15.0
496 498 798.0
498 501 219.0
498 507 827.0
499 500 343.0
500 502 485.0
500 950 512.0
500 952 358.0
501 502 88.0
501 505 29.0
502 503 26.0
503 504 85.0
503 505 30.0
504 509 69.0
504 510 290.0
505 508 637.0
506 507 261.0
506 508 160.0
506 619 122.0
507 604 154.0
507 605 255.0
508 511 141.0
508 513 257.0
510 511 400.0
510 957 296.0
510 958 350.0
511 512 220.0
512 513 360.0
512 960 526.0
513 621 68.0
513 1178 360.0
514 519 1617.0
515 516 66.0
515 517 271.0
517 518 36.0
518 519 902.0
518 546 1397.0
519 522 784.0
520 521 139.0
520 522 810.0
522 527 918.0
523 574 1020.0
523 581 1096.0
524 525 100.0
524 526 160.0
526 572 904.0
526 573 648.0
527 528 69.0
527 546 867.0
528 529 299.0
528 535 542.0
529 533 331.0
529 537 472.0
530 531 187.0
530 532 338.0
530 533 361.0
532 581 289.0
532 585 692.0
533 583 485.0
534 535 324.0
534 536 79.0
535 555 602.0
536 537 281.0
536 554 645.0
537 538 288.0
537 584 442.0
538 539 102.0
538 540 528.0
539 541 54.0
539 591 763.0
540 557 392.0
540 565 654.0
540 657 604.0
541 584 346.0
541 586 151.0
542 545 551.0
542 546 1221.0
543 544 193.0
545 549 1230.0
546 550 911.0
547 548 218.0
547 549 444.0
549 558 931.0
550 551 352.0
550 552 1025.0
550 558 911.0
551 553 378.0
552 555 10.0
552 556 11.0
554 555 9.0
554 557 34.0
556 557 33.0
556 561 658.0
558 562 280.0
559 560 149.0
559 561 614.0
559 562 14.0
561 563 145.0
561 567 927.0
562 566 530.0
563 564 103.0
563 565 191.0
565 659 769.0
566 567 367.0
566 568 88.0
567 664 52.0
568 569 242.0
568 671 1128.0
570 571 467.0
570 600 914.0
571 572 49.0
571 575 344.0
572 573 607.0
573 574 280.0
574 577 463.0
575 576 173.0
577 578 331.0
577 593 558.0
578 579 24.0
578 601 1626.0
579 580 207.0
579 613 424.0
580 592 229.0
580 613 457.0
581 582 233.0
581 588 767.0
583 584 43.0
583 585 270.0
585 587 323.0
587 588 397.0
587 589 190.0
587 590 180.0
588 594 357.0
588 595 165.0
589 590 296.0
589 591 870.0
589 599 156.0
590 595 337.0
591 655 160.0
592 593 77.0
592 614 672.0
593 594 54.0
594 626 530.0
595 596 73.0
595 627 554.0
596 597 316.0
596 635 791.0
597 598 58.0
597 599 587.0
599 636 875.0
600 601 278.0
600 604 345.0
601 606 296.0
602 603 75.0
602 607 417.0
604 605 174.0
605 606 100.0
606 607 187.0
606 608 137.0
607 611 100.0
607 612 837.0
608 609 5.0
608 610 5.0
609 610 2.0
609 623 657.0
610 619 410.0
612 613 448.0
612 614 598.0
612 615 36.0
614 628 300.0
614 642 1188.0
615 616 163.0
615 617 236.0
616 617 220.0
616 1194 1359.0
617 618 767.0
618 645 125.0
619 620 190.0
620 621 164.0
620 623 327.0
621 622 49.0
623 1178 370.0
623 1190 705.0
624 625 46.0
624 626 137.0
624 628 385.0
626 627 43.0
627 629 616.0
628 629 461.0
629 630 178.0
629 647 384.0
630 631 253.0
630 635 351.0
631 641 14.0
631 648 405.0
631 649 416.0
632 633 60.0
632 634 179.0
632 635 210.0
632 636 143.0
634 637 322.0
634 640 224.0
635 640 279.0
636 637 222.0
637 638 340.0
638 639 57.0
638 679 912.0
640 641 3.0
642 643 45.0
642 644 308.0
643 645 507.0
643 1216 550.0
644 646 80.0
647 1216 817.0
647 1227 1249.0
648 649 152.0
648 654 498.0
649 650 74.0
649 652 507.0
650 651 98.0
650 690 706.0
652 653 20.0
652 654 175.0
653 692 56.0
653 1430 197.0
654 1228 482.0
655 656 979.0
655 657 459.0
656 658 192.0
657 659 673.0
659 660 170.0
660 661 56.0
660 664 534.0
661 662 375.0
661 663 348.0
662 663 235.0
662 680 1964.0
663 673 304.0
664 665 36.0
666 667 33.0
666 668 471.0
666 3023 563.0
666 3041 880.0
667 669 541.0
667 670 542.0
668 3021 503.0
668 3022 222.0
669 670 89.0
669 671 26.0
670 676 340.0
671 672 270.0
672 673 664.0
672 676 320.0
673 674 440.0
674 675 114.0
676 677 141.0
677 678 882.0
677 3046 1756.0
678 713 103.0
678 716 150.0
679 680 907.0
679 689 102.0
680 683 55.0
680 684 211.0
680 685 291.0
681 682 58.0
681 685 242.0
684 688 411.0
684 702 492.0
685 688 59.0
686 687 618.0
686 688 70.0
686 698 301.0
687 689 230.0
687 696 667.0
689 690 221.0
690 691 193.0
691 692 133.0
691 693 196.0
692 693 187.0
693 694 66.0
693 704 350.0
694 695 41.0
694 1430 195.0
694 1432 259.0
696 697 50.0
696 698 387.0
697 699 42.0
698 700 343.0
700 701 73.0
700 707 173.0
701 702 656.0
701 723 205.0
702 710 373.0
703 704 1344.0
703 705 35.0
703 706 1314.0
704 1432 266.0
704 1435 273.0
705 707 220.0
705 1447 369.0
706 1438 40.0
706 1449 179.0
707 724 273.0
708 709 35.0
708 710 226.0
710 722 333.0
711 712 199.0
711 716 166.0
711 722 467.0
712 721 54.0
713 714 216.0
713 717 415.0
714 715 102.0
716 718 342.0
717 718 330.0
717 3049 918.0
718 721 216.0
719 720 433.0
719 721 141.0
719 1499 796.0
720 722 164.0
720 725 276.0
723 724 6.0
723 725 9.0
724 725 5.0
726 728 3037.0
727 728 4496.0
727 735 6667.0
729 730 93.0
729 731 1785.0
731 732 3452.0
731 737 5419.0
732 783 13.0
732 787 4814.0
733 734 1530.0
733 735 431.0
734 746 913.0
735 736 1192.0
736 737 1733.0
736 757 1239.0
737 791 2392.0
738 739 92.0
739 740 336.0
740 741 306.0
740 747 519.0
741 742 90.0
743 744 53.0
743 745 838.0
744 746 1171.0
746 756 1000.0
747 748 9.0
747 758 2279.0
748 750 702.0
748 759 2277.0
749 750 245.0
749 751 481.0
750 751 495.0
750 754 989.0
751 755 373.0
752 753 71.0
752 754 559.0
754 755 1135.0
754 760 1294.0
755 827 41.0
756 757 139.0
756 758 959.0
757 777 1625.0
758 759 18.0
758 779 2002.0
759 760 402.0
759 781 1983.0
760 761 297.0
760 762 234.0
761 768 87.0
761 769 311.0
762 763 205.0
762 769 399.0
763 764 386.0
763 1050 1007.0
764 765 401.0
764 829 1494.0
765 766 73.0
765 767 412.0
766 860 493.0
767 857 932.0
767 1050 84.0
769 770 1538.0
770 771 973.0
770 782 305.0
771 772 170.0
771 773 56.0
773 774 1450.0
773 872 895.0
774 870 140.0
774 1051 396.0
775 776 174.0
775 777 435.0
777 778 1006.0
778 779 514.0
778 780 2655.0
779 781 27.0
779 806 2554.0
780 794 633.0
780 796 587.0
781 782 1052.0
781 804 2575.0
782 800 868.0
782 1073 960.0
785 786 96.0
785 795 2432.0
787 788 81.0
788 789 429.0
789 790 3589.0
789 810 5048.0
789 2674 1092.0
791 794 1450.0
791 795 1719.0
792 793 240.0
792 794 417.0
795 810 1863.0
796 797 2612.0
796 805 2273.0
797 810 500.0
797 2678 5259.0
798 799 135.0
798 800 774.0
800 801 1089.0
800 802 1289.0
801 1073 269.0
801 1074 60.0
802 803 70.0
802 2098 1980.0
803 804 1547.0
803 809 889.0
804 806 17.0
804 816 3124.0
805 806 131.0
805 813 3737.0
806 814 3145.0
807 808 252.0
807 809 473.0
809 817 2201.0
809 2101 1208.0
811 812 284.0
811 813 623.0
813 815 1902.0
814 815 2148.0
814 819 486.0
815 2677 312.0
816 817 1514.0
816 2195 487.0
817 2104 2051.0
817 2194 776.0
818 819 526.0
818 820 230.0
818 2677 1575.0
819 2195 9.0
819 2205 1303.0
820 821 302.0
820 2679 1197.0
822 823 150.0
822 824 764.0
824 825 363.0
824 826 804.0
824 844 656.0
825 833 218.0
825 834 337.0
826 828 20.0
826 832 722.0
827 828 513.0
827 829 466.0
828 862 383.0
828 863 722.0
829 857 978.0
830 831 29.0
830 832 73.0
830 844 763.0
832 863 283.0
832 878 683.0
833 849 1346.0
834 835 136.0
834 844 219.0
836 837 68.0
836 842 315.0
838 841 166.0
838 902 1549.0
839 840 75.0
839 841 64.0
840 841 100.0
840 843 6.0
842 843 78.0
842 930 901.0
843 929 379.0
844 845 260.0
845 846 391.0
845 847 171.0
846 851 150.0
846 878 268.0
847 848 282.0
847 851 367.0
848 849 272.0
848 850 114.0
849 855 210.0
850 854 254.0
850 881 343.0
851 852 90.0
851 879 285.0
852 853 55.0
852 854 188.0
854 881 91.0
854 884 279.0
855 856 101.0
855 897 368.0
857 858 21.0
857 859 498.0
858 860 260.0
859 861 67.0
859 862 630.0
859 874 912.0
862 873 980.0
863 864 313.0
863 866 412.0
864 865 363.0
864 867 297.0
865 878 50.0
865 880 155.0
865 890 406.0
866 869 250.0
866 873 592.0
867 868 133.0
867 890 315.0
868 869 176.0
868 877 455.0
870 871 330.0
870 872 390.0
871 874 103.0
871 876 264.0
872 1050 132.0
873 874 88.0
873 875 218.0
875 876 34.0
875 877 254.0
876 1053 548.0
877 912 348.0
878 879 153.0
879 880 18.0
879 882 274.0
880 883 275.0
880 891 428.0
881 885 277.0
881 895 135.0
882 883 16.0
882 884 41.0
883 886 57.0
884 885 18.0
885 888 46.0
886 887 136.0
886 888 67.0
887 893 282.0
887 914 280.0
888 889 123.0
889 894 251.0
889 903 273.0
889 915 505.0
890 891 150.0
890 912 501.0
891 892 194.0
892 893 109.0
892 913 449.0
893 914 38.0
894 895 59.0
894 905 478.0
895 896 126.0
897 898 77.0
897 900 108.0
898 899 54.0
898 900 96.0
899 901 82.0
899 907 333.0
900 906 353.0
901 902 93.0
902 911 312.0
902 984 870.0
903 904 248.0
903 905 240.0
904 906 85.0
904 908 213.0
904 918 368.0
905 906 81.0
906 907 355.0
907 909 96.0
907 911 18.0
908 910 198.0
908 911 253.0
908 992 444.0
909 910 415.0
910 920 289.0
912 913 198.0
912 1056 609.0
913 917 46.0
914 915 88.0
915 916 128.0
915 918 590.0
917 921 825.0
917 1057 348.0
918 919 96.0
919 920 244.0
919 921 163.0
920 923 73.0
921 922 72.0
922 923 123.0
922 924 1181.0
923 925 214.0
924 1060 206.0
924 1064 348.0
925 926 40.0
925 927 181.0
926 928 183.0
926 1062 503.0
927 928 97.0
927 993 441.0
928 1090 742.0
929 931 388.0
929 944 769.0
930 932 185.0
930 941 518.0
931 932 134.0
931 944 384.0
932 943 562.0
933 934 133.0
933 935 564.0
933 936 123.0
934 935 296.0
934 938 559.0
934 940 285.0
935 939 306.0
936 937 64.0
938 951 13.0
939 940 75.0
939 941 134.0
940 946 385.0
941 942 160.0
941 943 43.0
942 943 156.0
942 964 598.0
944 945 60.0
946 955 404.0
946 965 526.0
947 948 64.0
947 985 835.0
947 988 636.0
949 950 41.0
949 951 182.0
950 953 363.0
951 955 397.0
952 953 598.0
952 954 352.0
952 957 258.0
953 954 284.0
953 955 234.0
953 966 440.0
955 956 103.0
955 965 382.0
957 963 549.0
958 959 182.0
958 962 351.0
959 960 160.0
960 961 117.0
961 962 275.0
961 1179 341.0
962 963 138.0
963 970 669.0
963 976 25.0
964 971 523.0
964 989 627.0
965 966 308.0
966 970 248.0
967 968 90.0
967 969 215.0
967 1015 319.0
969 971 123.0
969 974 254.0
969 1013 234.0
970 971 198.0
970 972 163.0
971 973 245.0
972 973 149.0
972 980 402.0
973 974 70.0
973 978 220.0
974 975 47.0
974 1019 134.0
976 977 116.0
976 1184 717.0
977 981 505.0
977 983 760.0
978 979 84.0
978 1025 80.0
979 980 77.0
979 1023 77.0
980 1024 70.0
981 982 220.0
981 1026 167.0
982 983 1031.0
982 1028 166.0
982 1199 125.0
983 1196 84.0
983 1197 556.0
984 985 413.0
984 992 495.0
984 994 370.0
985 987 310.0
985 1000 294.0
986 987 295.0
986 988 142.0
986 990 265.0
987 990 317.0
988 989 277.0
988 1034 528.0
989 1014 126.0
989 1021 1034.0
990 991 44.0
990 1001 280.0
990 1034 481.0
992 993 250.0
993 997 341.0
993 999 423.0
994 995 78.0
994 1000 55.0
995 996 272.0
995 997 271.0
996 999 374.0
996 1003 192.0
997 998 73.0
999 1089 355.0
1000 1001 500.0
1001 1002 348.0
1001 1005 302.0
1002 1009 210.0
1002 1035 351.0
1003 1004 75.0
1003 1005 405.0
1005 1006 162.0
1005 1091 300.0
1006 1007 338.0
1006 1008 181.0
1007 1012 109.0
1007 1091 165.0
1007 1094 413.0
1008 1009 132.0
1008 1113 486.0
1009 1111 478.0
1010 1011 60.0
1010 1012 180.0
1012 1092 152.0
1013 1015 208.0
1013 1017 83.0
1014 1015 23.0
1014 1016 151.0
1014 1021 393.0
1016 1017 114.0
1016 1021 230.0
1017 1018 97.0
1018 1019 199.0
1018 1021 360.0
1019 1020 118.0
1019 1025 240.0
1021 1022 84.0
1023 1024 96.0
1023 1025 87.0
1024 1026 194.0
1024 1041 859.0
1026 1027 173.0
1027 1028 142.0
1027 1031 196.0
1028 1029 115.0
1028 1030 150.0
1029 1030 243.0
1029 1199 177.0
1029 1287 82.0
1029 1299 998.0
1030 1031 38.0
1031 1288 273.0
1032 1033 42.0
1032 1293 93.0
1034 1035 318.0
1035 1037 440.0
1035 1038 552.0
1036 1037 190.0
1036 1116 154.0
1037 1114 158.0
1038 1039 167.0
1038 1045 504.0
1039 1040 59.0
1041 1042 72.0
1041 1043 101.0
1043 1044 273.0
1043 1045 134.0
1044 1046 340.0
1044 1309 340.0
1045 1046 445.0
1045 1122 543.0
1046 1047 28.0
1047 1048 107.0
1047 1313 82.0
1047 1667 411.0
1048 1049 652.0
1048 1123 475.0
1049 1126 140.0
1049 1137 691.0
1051 1052 91.0
1053 1054 91.0
1053 1055 197.0
1055 1056 90.0
1055 1072 1638.0
1056 1058 340.0
1057 1058 302.0
1057 1060 675.0
1058 1059 71.0
1060 1061 125.0
1062 1063 71.0
1062 1082 424.0
1064 1065 339.0
1064 1076 876.0
1065 1066 30.0
1067 1068 109.0
1067 1069 143.0
1069 1073 827.0
1069 1075 922.0
1070 1071 44.0
1070 1072 527.0
1072 2099 1082.0
1074 1075 178.0
1074 2096 345.0
1075 2098 1100.0
1076 1077 34.0
1076 1081 772.0
1078 1079 83.0
1078 1100 927.0
1080 1081 499.0
1080 1082 2132.0
1080 1084 542.0
1081 1083 423.0
1082 1090 261.0
1082 1100 259.0
1083 1148 495.0
1083 2099 278.0
1084 1085 101.0
1084 1147 561.0
1086 1087 199.0
1086 1090 20.0
1087 1088 202.0
1088 1089 22.0
1089 1097 552.0
1090 1101 497.0
1091 1094 489.0
1092 1093 141.0
1092 1098 233.0
1093 1113 81.0
1093 1117 19.0
1094 1095 148.0
1095 1096 1.0
1095 1097 14.0
1097 1103 411.0
1097 1109 666.0
1098 1099 51.0
1100 1102 374.0
1101 1102 42.0
1101 1105 212.0
1102 1106 227.0
1103 1104 93.0
1103 1105 4.0
1105 1106 97.0
1105 1107 382.0
1106 1108 338.0
1107 1108 168.0
1107 1109 594.0
1107 1139 268.0
1108 1144 676.0
1109 1110 244.0
1109 1130 244.0
1110 1117 644.0
1110 1128 440.0
1111 1112 16.0
1111 1113 18.0
1112 1114 200.0
1112 1117 93.0
1114 1115 108.0
1115 1116 105.0
1115 1119 356.0
1116 1118 311.0
1117 1120 688.0
1118 1119 122.0
1118 1122 339.0
1119 1121 374.0
1119 1124 408.0
1120 1121 178.0
1120 1128 225.0
1121 1134 556.0
1122 1124 448.0
1123 1126 178.0
1123 1136 825.0
1124 1125 107.0
1124 1135 677.0
1126 1127 89.0
1128 1129 58.0
1130 1131 226.0
1130 1134 801.0
1131 1132 488.0
1131 1140 22.0
1131 1142 118.0
1132 1133 87.0
1132 1134 633.0
1134 1135 337.0
1135 1136 110.0
1136 1137 200.0
1136 1160 466.0
1137 1138 92.0
1137 1162 438.0
1138 1679 440.0
1138 1684 637.0
1139 1143 488.0
1139 1145 456.0
1140 1141 169.0
1142 1143 47.0
1142 1154 610.0
1143 1145 597.0
1144 1145 184.0
1144 1149 1358.0
1144 1153 643.0
1145 1146 119.0
1147 1148 1269.0
1147 1149 457.0
1148 2105 2173.0
1149 1150 100.0
1150 1153 487.0
1150 2114 641.0
1151 1152 549.0
1151 1153 579.0
1151 1154 99.0
1152 1155 336.0
1152 1157 164.0
1152 1158 101.0
1154 1159 1075.0
1155 1156 338.0
1155 1161 1125.0
1156 2113 87.0
1156 2116 490.0
1158 2113 279.0
1158 2114 130.0
1159 1160 554.0
1159 1161 83.0
1160 1162 235.0
1160 1170 572.0
1161 2116 1496.0
1162 1163 249.0
1162 1164 94.0
1163 1166 76.0
1163 1167 72.0
1164 1165 114.0
1164 1686 717.0
1166 1168 110.0
1166 1169 171.0
1168 1169 100.0
1168 1170 300.0
1168 1823 260.0
1169 1686 607.0
1169 1817 309.0
1170 1173 280.0
1170 1176 426.0
1171 1172 41.0
1171 1173 126.0
1171 1174 104.0
1172 1174 141.0
1172 1175 247.0
1173 1175 174.0
1173 1823 278.0
1173 1824 33.0
1174 1177 200.0
1175 1825 191.0
1176 1177 70.0
1176 2124 531.0
1177 2129 466.0
1178 1179 130.0
1178 1180 160.0
1179 1180 224.0
1180 1181 300.0
1181 1182 65.0
1181 1188 284.0
1182 1187 116.0
1183 1184 20.0
1183 1185 92.0
1183 1187 871.0
1184 1185 72.0
1185 1186 617.0
1186 1189 149.0
1186 1193 135.0
1186 1197 190.0
1187 1189 313.0
1188 1189 129.0
1188 1190 134.0
1189 1191 153.0
1190 1192 48.0
1191 1192 24.0
1191 1193 184.0
1192 1195 375.0
1193 1201 207.0
1194 1195 78.0
1194 1205 1420.0
1195 1204 172.0
1197 1198 73.0
1197 1201 140.0
1199 1200 1123.0
1200 1215 162.0
1200 1305 122.0
1200 1306 371.0
1201 1202 341.0
1201 1210 222.0
1202 1203 36.0
1202 1204 30.0
1203 1206 158.0
1203 1211 694.0
1204 1205 1513.0
1204 1207 298.0
1205 1217 32.0
1206 1208 320.0
1206 1214 759.0
1207 1208 29.0
1207 1209 95.0
1208 1209 95.0
1209 1238 1401.0
1210 1211 209.0
1210 1212 261.0
1211 1212 94.0
1211 1213 85.0
1212 1215 730.0
1214 1215 491.0
1214 1303 403.0
1215 1301 248.0
1216 1217 204.0
1217 1236 458.0
1217 1261 367.0
1218 1219 43.0
1218 1220 51.0
1218 1221 89.0
1218 1223 144.0
1220 1222 91.0
1220 1225 152.0
1221 1222 50.0
1221 1223 77.0
1221 1264 138.0
1222 1230 154.0
1222 1233 367.0
1223 1261 207.0
1224 1225 89.0
1224 1226 178.0
1224 1231 147.0
1225 1229 38.0
1225 1230 92.0
1226 1227 39.0
1226 1235 196.0
1227 1228 131.0
1228 1431 193.0
1228 1441 234.0
1229 1231 37.0
1229 1232 92.0
1230 1232 34.0
1230 1233 401.0
1231 1234 93.0
1231 1235 137.0
1232 1234 39.0
1232 1274 374.0
1233 1269 56.0
1233 1270 64.0
1233 1274 170.0
1234 1273 331.0
1235 1271 156.0
1235 1441 178.0
1236 1237 231.0
1236 1238 73.0
1237 1262 85.0
1237 1263 95.0
1237 1268 229.0
1238 1242 368.0
1238 1251 127.0
1238 1278 231.0
1239 1240 138.0
1239 1241 126.0
1241 1244 21.0
1241 1303 295.0
1242 1243 143.0
1242 1246 173.0
1243 1247 24.0
1243 1248 119.0
1244 1245 51.0
1244 1246 101.0
1245 1247 106.0
1245 1304 438.0
1246 1247 102.0
1248 1249 209.0
1248 1250 577.0
1248 1349 213.0
1249 1251 211.0
1249 1253 121.0
1250 1308 305.0
1250 1357 467.0
1251 1252 118.0
1251 1256 143.0
1252 1257 75.0
1252 1260 128.0
1252 1278 134.0
1253 1254 41.0
1254 1255 82.0
1254 1349 174.0
1255 1256 77.0
1255 1259 118.0
1255 1350 224.0
1256 1257 50.0
1257 1258 23.0
1258 1259 78.0
1258 1260 102.0
1259 1353 274.0
1260 1377 460.0
1261 1262 47.0
1262 1263 154.0
1263 1266 199.0
1264 1265 51.0
1264 1269 225.0
1266 1267 101.0
1266 1268 77.0
1266 1269 141.0
1267 1270 177.0
1267 1277 47.0
1267 1279 85.0
1268 1277 73.0
1268 1278 36.0
1270 1284 261.0
1271 1272 45.0
1271 1275 218.0
1273 1274 200.0
1273 1275 161.0
1273 1283 199.0
1274 1284 226.0
1275 1276 159.0
1275 1280 162.0
1276 1441 319.0
1276 1462 227.0
1276 1472 189.0
1277 1278 62.0
1277 1279 94.0
1279 1365 241.0
1280 1281 54.0
1280 1282 50.0
1281 1285 52.0
1281 1472 121.0
1282 1283 136.0
1282 1285 52.0
1283 1284 285.0
1283 1372 234.0
1284 1286 273.0
1284 1370 187.0
1285 1473 88.0
1286 1365 207.0
1286 1366 197.0
1286 1367 184.0
1286 1370 109.0
1288 1289 73.0
1288 1292 204.0
1289 1290 180.0
1289 1297 433.0
1290 1291 69.0
1290 1292 68.0
1290 1296 252.0
1290 1298 198.0
1292 1293 124.0
1292 1294 199.0
1293 1309 201.0
1294 1295 79.0
1294 1298 68.0
1294 1309 128.0
1295 1310 55.0
1295 1311 215.0
1296 1297 147.0
1296 1298 107.0
1296 1314 312.0
1297 1315 315.0
1299 1300 60.0
1299 1305 256.0
1300 1315 117.0
1300 1323 366.0
1301 1302 87.0
1303 1304 215.0
1304 1307 401.0
1305 1320 462.0
1306 1307 213.0
1306 1322 309.0
1307 1308 156.0
1307 1325 317.0
1308 1330 350.0
1308 1390 229.0
1309 1312 297.0
1311 1312 133.0
1311 1314 261.0
1312 1313 234.0
1312 1316 404.0
1312 1319 737.0
1313 1316 433.0
1314 1315 161.0
1315 1332 530.0
1316 1668 94.0
1317 1318 94.0
1317 1319 88.0
1317 1668 278.0
1319 1338 390.0
1320 1321 45.0
1320 1322 144.0
1320 1323 118.0
1322 1324 156.0
1323 1324 214.0
1324 1326 165.0
1325 1326 34.0
1325 1329 240.0
1326 1327 254.0
1327 1333 64.0
1327 1335 16.0
1328 1329 110.0
1328 1330 109.0
1328 1345 92.0
1329 1335 126.0
1330 1331 132.0
1331 1390 260.0
1331 1394 134.0
1332 1333 165.0
1332 1334 179.0
1333 1334 56.0
1334 1336 17.0
1334 1337 26.0
1335 1336 105.0
1336 1337 25.0
1336 1339 62.0
1337 1338 92.0
1338 1341 133.0
1338 1342 612.0
1339 1340 63.0
1339 1344 87.0
1340 1341 121.0
1340 1344 69.0
1341 1343 613.0
1341 1347 652.0
1342 1668 415.0
1342 1672 122.0
1343 1672 71.0
1343 1676 55.0
1344 1345 203.0
1345 1346 162.0
1345 1347 179.0
1346 1394 171.0
1346 1406 206.0
1347 1348 60.0
1349 1350 82.0
1349 1351 394.0
1350 1352 387.0
1351 1352 141.0
1351 1355 105.0
1352 1358 110.0
1353 1354 43.0
1353 1359 233.0
1355 1356 47.0
1355 1357 266.0
1357 1391 59.0
1358 1360 213.0
1358 1393 193.0
1359 1364 91.0
1359 1377 202.0
1360 1361 100.0
1360 1364 225.0
1361 1362 50.0
1361 1363 229.0
1361 1397 152.0
1363 1364 89.0
1363 1380 157.0
1365 1367 143.0
1366 1369 110.0
1366 1378 185.0
1366 1379 187.0
1367 1368 105.0
1368 1377 125.0
1368 1378 94.0
1369 1371 95.0
1369 1374 54.0
1370 1371 98.0
1371 1372 351.0
1372 1373 171.0
1372 1376 301.0
1373 1473 93.0
1373 1474 157.0
1373 3352 211.0
1374 1375 48.0
1374 1376 332.0
1376 1540 28.0
1376 3352 198.0
1377 1382 327.0
1377 1384 435.0
1378 1379 198.0
1379 1384 145.0
1379 1540 543.0
1380 1381 73.0
1380 1382 134.0
1381 1400 317.0
1381 1425 327.0
1382 1383 54.0
1382 1418 190.0
1382 1420 335.0
1384 1385 314.0
1384 1418 35.0
1385 1386 285.0
1385 1549 225.0
1386 1540 136.0
1386 1547 26.0
1386 1552 121.0
1387 1388 43.0
1387 1389 191.0
1387 1549 186.0
1389 1418 192.0
1389 1422 125.0
1389 1558 400.0
1390 1391 38.0
1391 1392 107.0
1391 1394 280.0
1392 1393 154.0
1392 1402 305.0
1393 1396 212.0
1393 1397 169.0
1394 1395 32.0
1396 1402 163.0
1396 1407 167.0
1397 1398 206.0
1397 1413 283.0
1398 1399 182.0
1398 1400 275.0
1399 1413 156.0
1399 1416 137.0
1400 1401 33.0
1400 1417 137.0
1402 1403 49.0
1402 1404 130.0
1403 1404 114.0
1403 1405 73.0
1404 1406 61.0
1405 1406 180.0
1405 1409 57.0
1407 1408 10.0
1407 1412 117.0
1407 1413 200.0
1409 1410 68.0
1409 1411 130.0
1410 1411 124.0
1410 1675 487.0
1411 1412 18.0
1412 1415 262.0
1412 1715 245.0
1413 1414 42.0
1415 1416 47.0
1415 1718 247.0
1416 1417 213.0
1417 1424 30.0
1418 1419 130.0
1419 1421 144.0
1419 1422 194.0
1420 1421 18.0
1420 1425 234.0
1421 1423 213.0
1422 1423 68.0
1423 1426 216.0
1423 1594 437.0
1424 1425 115.0
1424 1734 334.0
1425 1428 412.0
1426 1427 83.0
1426 1428 478.0
1426 1429 478.0
1428 1735 147.0
1428 1736 64.0
1429 1594 32.0
1429 1595 77.0
1430 1431 347.0
1431 1432 219.0
1431 1433 198.0
1431 1439 182.0
1432 1433 116.0
1433 1434 184.0
1433 1435 394.0
1434 1437 143.0
1434 1439 204.0
1434 1440 78.0
1435 1436 56.0
1436 1437 339.0
1436 1438 105.0
1437 1443 236.0
1438 1443 298.0
1438 1446 182.0
1439 1442 100.0
1441 1442 207.0
1442 1444 421.0
1442 1462 242.0
1443 1444 70.0
1444 1445 246.0
1444 1463 90.0
1445 1446 205.0
1445 1454 175.0
1445 1467 158.0
1446 1451 43.0
1446 1452 23.0
1447 1448 34.0
1449 1450 461.0
1449 1452 48.0
1450 1455 172.0
1450 1458 411.0
1452 1453 33.0
1453 1454 186.0
1453 1455 329.0
1454 1456 229.0
1454 1481 213.0
1455 1456 83.0
1455 1457 333.0
1456 1457 355.0
1457 1461 184.0
1457 1488 64.0
1457 1500 278.0
1458 1459 40.0
1458 1460 724.0
1459 1461 80.0
1459 1499 962.0
1460 1498 61.0
1461 1500 286.0
1462 1463 400.0
1462 1464 198.0
1463 1467 217.0
1463 1470 306.0
1464 1465 178.0
1464 1466 182.0
1464 1472 229.0
1465 1474 230.0
1465 1475 268.0
1465 1546 414.0
1466 1468 103.0
1466 1469 128.0
1467 1471 216.0
1467 1482 270.0
1469 1470 24.0
1469 1475 46.0
1470 1471 72.0
1471 1478 64.0
1472 1474 203.0
1473 1476 41.0
1474 2391 220.0
1475 1477 41.0
1477 1480 93.0
1477 1546 477.0
1478 1479 60.0
1478 1483 348.0
1479 1480 17.0
1479 1492 344.0
1480 1493 472.0
1481 1482 39.0
1481 1484 22.0
1482 1483 16.0
1483 1485 42.0
1484 1486 34.0
1484 1488 539.0
1485 1486 6.0
1485 1487 104.0
1486 1489 299.0
1487 1490 73.0
1487 1494 323.0
1488 1489 358.0
1489 1495 344.0
1490 1491 72.0
1490 1492 190.0
1492 1493 282.0
1492 1497 182.0
1493 1572 77.0
1494 1495 51.0
1494 1497 43.0
1495 1496 55.0
1496 1497 80.0
1496 1572 371.0
1499 1501 414.0
1500 1509 599.0
1501 1528 502.0
1501 1529 593.0
1502 1503 50.0
1502 1504 96.0
1502 1510 388.0
1503 1506 27.0
1503 1507 202.0
1504 1505 52.0
1504 1575 744.0
1505 1506 28.0
1505 1513 230.0
1506 1508 163.0
1507 1508 155.0
1507 1515 178.0
1508 1513 176.0
1508 1581 456.0
1509 1510 247.0
1509 1512 288.0
1510 1511 15.0
1511 1515 197.0
1511 1522 545.0
1512 1525 283.0
1512 1537 521.0
1513 1514 350.0
1514 1575 202.0
1514 1576 89.0
1514 1577 189.0
1514 1579 216.0
1515 1516 6.0
1516 1517 109.0
1516 1520 183.0
1517 1518 26.0
1517 1627 212.0
1518 1519 112.0
1518 1521 156.0
1520 1521 112.0
1520 1522 369.0
1521 1625 107.0
1521 1629 132.0
1522 1637 66.0
1523 1524 100.0
1523 1525 69.0
1523 1526 160.0
1525 1527 128.0
1526 1527 41.0
1526 1528 243.0
1527 1531 328.0
1528 1531 75.0
1529 1530 661.0
1529 1531 75.0
1529 1532 265.0
1530 3049 809.0
1530 3076 488.0
1531 1534 268.0
1532 1533 243.0
1532 1534 18.0
1532 3080 477.0
1533 1535 12.0
1533 1641 415.0
1533 3082 812.0
1534 1535 242.0
1534 1536 360.0
1535 1536 347.0
1535 1640 413.0
1536 1537 146.0
1537 1646 425.0
1538 1539 31.0
1538 1540 138.0
1538 1544 141.0
1539 1544 119.0
1539 3352 128.0
1541 1542 60.0
1541 1543 15.0
1541 1546 203.0
1542 1543 50.0
1542 1544 16.0
1542 1545 383.0
1543 2391 146.0
1544 1552 272.0
1545 1553 393.0
1545 1566 20.0
1546 1566 169.0
1546 1572 482.0
1547 1548 11.0
1547 1549 68.0
1547 1550 18.0
1548 1554 125.0
1548 1556 245.0
1549 1558 204.0
1550 1551 103.0
1550 1553 102.0
1551 1552 11.0
1551 1553 10.0
1553 1561 182.0
1554 1555 35.0
1554 1556 112.0
1555 1557 104.0
1555 1558 77.0
1556 1598 108.0
1557 1595 109.0
1557 1598 58.0
1558 1594 32.0
1559 1560 26.0
1559 1561 43.0
1559 1563 107.0
1560 1562 61.0
1560 1597 48.0
1561 1562 73.0
1562 1598 11.0
1563 1564 61.0
1563 1570 258.0
1564 1565 255.0
1564 1597 130.0
1565 1570 72.0
1565 1571 425.0
1566 1567 90.0
1566 1568 475.0
1567 1569 73.0
1567 1570 76.0
1568 1571 112.0
1568 1572 142.0
1568 1574 60.0
1571 1584 29.0
1573 1574 150.0
1573 1575 345.0
1573 1580 74.0
1574 1582 74.0
1575 1578 207.0
1577 1579 169.0
1577 1581 359.0
1578 1579 58.0
1578 1580 332.0
1578 1590 82.0
1580 1583 79.0
1581 1591 65.0
1581 1628 169.0
1582 1583 182.0
1582 1584 81.0
1583 1587 64.0
1584 1585 61.0
1584 1586 58.0
1585 1586 69.0
1585 1588 22.0
1586 1587 117.0
1587 1590 421.0
1588 1589 1089.0
1588 1610 542.0
1589 1602 184.0
1589 1617 241.0
1590 1591 558.0
1590 1592 224.0
1591 1630 164.0
1591 1633 283.0
1592 1593 82.0
1592 1606 650.0
1593 1634 351.0
1593 1647 260.0
1595 1596 485.0
1596 1599 193.0
1596 1601 791.0
1597 1604 464.0
1598 1966 1339.0
1599 1600 51.0
1601 1735 217.0
1601 1737 178.0
1601 1739 219.0
1602 1603 396.0
1602 1621 188.0
1602 1969 160.0
1603 1754 666.0
1604 1966 808.0
1605 1606 133.0
1605 1607 381.0
1605 1623 468.0
1606 1608 60.0
1607 1609 64.0
1607 1610 25.0
1609 1614 228.0
1609 1615 16.0
1610 1611 8.0
1611 1612 60.0
1611 1613 205.0
1612 1615 18.0
1612 1617 212.0
1613 1617 19.0
1613 1618 41.0
1614 1622 17.0
1614 1623 16.0
1615 1616 156.0
1616 1620 150.0
1616 1622 170.0
1616 1974 415.0
1617 1619 65.0
1619 1620 128.0
1619 1621 108.0
1620 1621 121.0
1622 1624 29.0
1623 1624 24.0
1624 1656 411.0
1625 1626 44.0
1625 1627 38.0
1626 1628 36.0
1626 1629 166.0
1627 1628 38.0
1628 1630 63.0
1629 1636 294.0
1630 1631 194.0
1631 1632 259.0
1631 1635 338.0
1632 1636 49.0
1632 1638 46.0
1633 1634 53.0
1633 1635 344.0
1633 1649 310.0
1634 1647 283.0
1635 1644 180.0
1635 1651 317.0
1636 1637 10.0
1637 1639 70.0
1638 1639 48.0
1638 1644 316.0
1639 1645 315.0
1640 1641 12.0
1640 1646 398.0
1640 1663 815.0
1641 1642 93.0
1642 1643 536.0
1642 3102 669.0
1643 3098 77.0
1643 3099 73.0
1644 1645 115.0
1644 1661 446.0
1645 1646 224.0
1645 1662 478.0
1646 1663 878.0
1647 1648 145.0
1648 1649 188.0
1648 1656 399.0
1648 1660 408.0
1649 1650 129.0
1650 1651 165.0
1650 1653 214.0
1651 1652 64.0
1651 1655 228.0
1653 1654 229.0
1653 1655 98.0
1654 1662 115.0
1654 2016 687.0
1655 1661 99.0
1656 1658 37.0
1657 1658 125.0
1657 1659 529.0
1657 1972 272.0
1658 1660 219.0
1659 1972 373.0
1659 1974 92.0
1660 2012 237.0
1660 2016 402.0
1661 1662 93.0
1663 2022 887.0
1663 3111 1456.0
1664 1665 123.0
1664 1666 368.0
1664 1667 311.0
1664 1668 205.0
1666 1667 215.0
1666 1669 126.0
1669 1670 164.0
1669 1679 384.0
1670 1671 381.0
1670 1683 260.0
1671 1672 167.0
1671 1685 306.0
1673 1674 70.0
1673 1675 110.0
1675 1701 381.0
1675 1723 84.0
1676 1677 203.0
1676 1696 640.0
1677 1678 85.0
1679 1680 39.0
1680 1681 150.0
1680 1682 351.0
1682 1683 287.0
1682 1684 41.0
1683 1685 74.0
1684 1687 47.0
1685 1687 299.0
1686 1687 83.0
1687 1688 314.0
1688 1689 69.0
1688 1692 70.0
1688 1694 404.0
1689 1690 19.0
1689 1815 329.0
1690 1691 40.0
1690 1818 351.0
1691 1692 17.0
1691 1820 377.0
1692 1822 484.0
1693 1694 37.0
1693 1695 277.0
1693 1703 225.0
1694 1829 685.0
1695 1696 170.0
1695 1703 157.0
1696 1702 177.0
1697 1698 84.0
1697 1699 121.0
1697 1759 381.0
1699 1702 118.0
1699 1724 393.0
1700 1701 250.0
1700 1702 15.0
1702 1707 243.0
1703 1704 118.0
1704 1705 60.0
1704 1706 90.0
1706 1707 85.0
1706 1829 593.0
1707 1708 111.0
1708 1709 487.0
1708 1830 425.0
1709 1710 113.0
1709 1711 222.0
1709 1759 244.0
1711 1766 176.0
1711 1832 279.0
1712 1713 97.0
1712 1714 147.0
1712 1723 226.0
1714 1715 261.0
1714 1716 56.0
1714 1726 259.0
1715 1718 312.0
1716 1717 308.0
1716 1727 249.0
1717 1718 283.0
1717 1720 22.0
1718 1719 46.0
1718 1734 278.0
1720 1721 143.0
1720 1722 89.0
1721 1730 95.0
1721 1735 361.0
1721 1741 255.0
1722 1727 135.0
1722 1730 127.0
1723 1724 244.0
1724 1725 98.0
1724 1726 263.0
1725 1753 59.0
1725 1755 89.0
1726 1728 138.0
1726 1733 228.0
1727 1728 83.0
1727 1732 115.0
1728 1729 90.0
1729 1731 133.0
1730 1732 134.0
1731 1732 89.0
1731 1733 214.0
1732 1756 314.0
1733 1757 275.0
1734 1735 132.0
1735 1739 219.0
1737 1738 182.0
1737 1967 398.0
1738 1746 46.0
1738 1747 175.0
1739 1740 23.0
1739 1742 90.0
1740 1741 257.0
1740 1743 76.0
1741 1745 164.0
1741 1783 323.0
1742 1743 53.0
1742 1748 197.0
1742 1752 396.0
1743 1744 220.0
1744 1749 92.0
1744 1785 172.0
1745 1756 83.0
1745 1782 81.0
1747 1752 107.0
1747 1793 318.0
1747 1967 258.0
1748 1749 59.0
1748 1750 51.0
1750 1751 107.0
1750 1752 98.0
1750 1792 298.0
1751 1785 140.0
1751 1796 196.0
1754 1982 397.0
1754 1983 184.0
1754 1985 143.0
1754 1987 111.0
1754 1988 134.0
1755 1757 387.0
1755 1760 408.0
1756 1758 182.0
1756 1786 230.0
1757 1772 122.0
1758 1770 168.0
1758 1774 149.0
1759 1761 153.0
1760 1761 92.0
1760 1764 109.0
1761 1762 73.0
1762 1763 30.0
1762 1764 21.0
1763 1764 28.0
1763 1766 48.0
1763 1767 46.0
1764 1765 133.0
1766 1767 33.0
1766 1888 181.0
1767 1768 185.0
1768 1769 51.0
1768 1772 268.0
1769 1776 75.0
1769 1889 338.0
1770 1771 82.0
1770 1772 72.0
1771 1772 61.0
1771 1773 95.0
1771 1774 232.0
1771 1776 191.0
1773 1777 188.0
1773 1779 87.0
1774 1775 67.0
1774 1781 155.0
1774 1786 191.0
1776 1777 71.0
1777 1778 84.0
1777 1891 396.0
1778 1779 186.0
1778 1896 144.0
1778 1897 76.0
1779 1780 69.0
1780 1781 187.0
1780 1897 184.0
1780 1900 99.0
1781 1802 20.0
1783 1784 66.0
1783 1786 266.0
1784 1785 69.0
1784 1790 16.0
1786 1787 80.0
1787 1788 41.0
1787 1789 58.0
1788 1791 60.0
1788 1801 82.0
1789 1801 11.0
1789 1802 155.0
1790 1791 152.0
1790 1798 181.0
1791 1803 192.0
1792 1793 147.0
1792 1796 89.0
1792 1800 165.0
1793 1794 92.0
1793 1795 172.0
1794 1800 146.0
1794 1990 376.0
1795 1979 111.0
1795 1981 51.0
1796 1797 65.0
1796 1798 171.0
1798 1799 12.0
1799 1803 176.0
1799 1807 148.0
1800 1807 178.0
1801 1804 185.0
1802 1804 84.0
1803 1808 156.0
1804 1805 62.0
1804 1900 165.0
1805 1806 133.0
1805 1921 149.0
1806 1900 81.0
1806 1920 83.0
1806 1921 188.0
1807 1812 168.0
1808 1809 294.0
1808 1810 155.0
1809 1919 7.0
1809 1922 89.0
1810 1811 65.0
1810 1812 170.0
1810 1923 269.0
1810 1927 154.0
1812 1813 20.0
1813 1814 132.0
1813 1990 310.0
1814 1927 170.0
1814 2027 168.0
1815 1816 44.0
1815 1817 180.0
1817 1818 260.0
1817 1823 205.0
1818 1819 446.0
1818 1821 192.0
1819 1825 30.0
1819 1844 421.0
1819 1850 471.0
1820 1821 74.0
1820 1822 250.0
1821 1826 269.0
1822 1828 133.0
1822 1833 235.0
1825 1845 407.0
1826 1827 46.0
1826 1842 267.0
1829 1833 111.0
1830 1831 106.0
1830 1832 219.0
1830 1833 266.0
1831 1838 75.0
1831 1841 201.0
1832 1839 306.0
1833 1835 285.0
1833 1837 357.0
1834 1835 76.0
1834 1836 174.0
1834 1872 403.0
1835 1837 199.0
1836 1841 7.0
1836 1869 264.0
1837 1843 132.0
1837 1862 10.0
1839 1840 139.0
1839 1841 239.0
1839 1901 120.0
1840 1869 212.0
1840 1902 113.0
1840 1908 92.0
1842 1843 138.0
1842 1844 97.0
1843 1863 15.0
1844 1863 157.0
1845 1846 147.0
1845 1847 283.0
1845 1848 265.0
1847 1855 156.0
1847 2129 228.0
1847 2312 246.0
1848 1849 57.0
1848 1850 77.0
1849 1855 297.0
1849 1856 72.0
1850 1851 157.0
1850 1852 65.0
1852 1853 60.0
1852 1854 355.0
1853 1856 69.0
1853 1857 55.0
1854 1860 93.0
1854 1863 118.0
1855 2312 244.0
1855 2316 391.0
1856 2314 146.0
1857 1858 338.0
1857 1859 186.0
1858 2314 134.0
1858 2316 322.0
1859 1860 299.0
1859 1861 731.0
1859 1874 200.0
1860 1864 102.0
1860 1865 48.0
1861 2318 299.0
1861 2324 417.0
1862 1866 227.0
1862 1873 472.0
1863 1865 160.0
1865 1874 321.0
1866 1867 91.0
1866 1876 343.0
1867 1868 76.0
1867 1871 252.0
1869 1870 109.0
1869 1872 321.0
1869 1882 148.0
1871 1872 50.0
1871 1877 176.0
1872 1879 207.0
1873 1875 122.0
1873 1883 183.0
1874 1875 106.0
1874 2322 308.0
1875 2320 253.0
1876 1877 62.0
1876 1883 78.0
1877 1878 125.0
1878 1883 79.0
1878 1884 79.0
1879 1880 73.0
1879 1884 96.0
1880 1881 47.0
1880 1882 383.0
1881 1885 46.0
1881 1939 378.0
1882 1908 223.0
1882 1938 84.0
1884 1887 97.0
1885 1886 126.0
1885 1950 95.0
1886 1887 38.0
1886 2328 404.0
1887 2323 375.0
1888 1889 70.0
1888 1890 85.0
1889 1891 76.0
1890 1901 203.0
1890 1903 96.0
1891 1892 81.0
1892 1895 89.0
1892 1903 89.0
1892 1904 202.0
1893 1894 81.0
1893 1895 92.0
1893 1896 237.0
1894 1897 380.0
1894 1906 92.0
1894 1914 69.0
1895 1905 207.0
1895 1906 83.0
1896 1898 54.0
1897 1899 68.0
1899 1900 187.0
1899 1915 368.0
1901 1902 65.0
1902 1904 72.0
1904 1905 88.0
1904 1908 112.0
1905 1909 85.0
1905 1910 104.0
1906 1907 61.0
1906 1909 204.0
1907 1912 205.0
1907 1914 104.0
1908 1910 57.0
1909 1911 104.0
1909 1912 64.0
1910 1911 88.0
1911 1913 66.0
1911 1936 84.0
1911 1938 214.0
1912 1913 101.0
1913 1937 50.0
1914 1915 8.0
1915 1918 250.0
1916 1917 122.0
1916 1918 242.0
1916 1919 411.0
1917 1924 359.0
1917 1928 95.0
1917 1929 157.0
1918 1945 209.0
1919 1921 42.0
1922 1923 92.0
1922 1924 94.0
1922 1925 139.0
1923 1925 90.0
1924 1925 86.0
1925 1926 86.0
1926 1927 312.0
1926 1931 161.0
1929 1930 260.0
1929 1931 410.0
1929 1959 344.0
1930 1946 239.0
1930 1949 338.0
1931 1932 81.0
1932 1933 120.0
1932 1934 171.0
1934 1935 348.0
1934 2027 309.0
1935 1960 572.0
1935 2051 196.0
1937 1939 165.0
1937 1940 216.0
1938 1939 66.0
1940 1941 16.0
1940 1945 255.0
1941 1942 252.0
1941 1943 50.0
1942 1946 42.0
1942 1947 247.0
1943 1944 213.0
1943 1953 192.0
1944 1950 402.0
1944 1951 230.0
1945 1946 47.0
1947 1948 70.0
1947 1949 160.0
1947 1955 132.0
1948 1953 155.0
1948 1954 75.0
1949 1955 164.0
1949 1958 167.0
1949 1959 327.0
1950 2348 342.0
1951 1952 112.0
1951 1953 174.0
1951 1957 136.0
1953 1956 136.0
1955 1956 195.0
1955 2353 475.0
1956 1957 179.0
1956 2350 239.0
1957 2348 262.0
1957 2349 236.0
1959 1960 57.0
1959 1962 440.0
1960 1961 233.0
1961 1962 370.0
1962 1963 510.0
1962 2051 633.0
1962 2359 609.0
1963 2353 98.0
1963 2356 456.0
1964 1965 262.0
1964 2359 413.0
1965 2054 42.0
1965 2055 82.0
1966 1967 31.0
1966 1968 112.0
1968 1979 321.0
1968 1982 396.0
1969 1970 273.0
1969 1971 245.0
1970 1974 230.0
1970 1976 103.0
1971 1975 244.0
1971 1983 351.0
1972 1973 60.0
1972 2013 208.0
1975 1976 179.0
1975 1996 83.0
1976 1977 132.0
1977 1978 71.0
1977 2015 523.0
1978 1997 119.0
1978 2001 16.0
1978 2023 922.0
1979 1980 15.0
1979 1989 433.0
1980 1982 145.0
1980 1985 538.0
1983 1984 22.0
1984 1987 130.0
1984 1996 343.0
1984 1998 228.0
1985 1986 138.0
1985 1992 257.0
1985 1994 184.0
1987 1988 38.0
1987 1998 271.0
1988 1995 116.0
1989 1990 58.0
1989 1991 24.0
1989 2027 313.0
1991 1992 284.0
1991 1993 192.0
1991 2029 392.0
1992 1993 92.0
1993 1994 351.0
1993 2030 286.0
1994 1995 173.0
1994 2008 358.0
1995 2004 133.0
1996 1997 134.0
1997 2000 219.0
1998 1999 32.0
1999 2000 177.0
1999 2004 124.0
1999 2006 197.0
2000 2002 198.0
2001 2002 348.0
2001 2003 396.0
2002 2005 15.0
2002 2006 140.0
2003 2011 246.0
2003 2039 619.0
2004 2007 186.0
2005 2010 190.0
2006 2007 99.0
2007 2008 205.0
2007 2036 280.0
2008 2009 357.0
2008 2037 338.0
2009 2030 348.0
2009 2032 175.0
2010 2011 110.0
2011 2036 321.0
2012 2013 536.0
2012 2018 492.0
2013 2015 46.0
2014 2015 13.0
2014 2017 359.0
2016 2021 509.0
2017 2023 339.0
2018 2019 173.0
2018 2024 599.0
2019 2020 173.0
2019 2021 49.0
2021 2022 631.0
2022 2025 515.0
2023 2024 951.0
2024 2025 724.0
2025 2026 1061.0
2026 2090 194.0
2026 2092 409.0
2026 2463 1404.0
2027 2031 581.0
2028 2029 75.0
2028 2030 46.0
2029 2032 283.0
2031 2032 261.0
2031 2049 259.0
2031 2052 228.0
2032 2035 330.0
2033 2034 78.0
2033 2035 71.0
2033 2052 315.0
2035 2061 490.0
2036 2039 213.0
2037 2038 83.0
2037 2040 245.0
2039 2040 303.0
2039 2041 288.0
2040 2043 198.0
2040 2061 334.0
2041 2042 260.0
2041 2075 230.0
2042 2043 43.0
2042 2045 70.0
2043 2044 51.0
2044 2045 48.0
2044 2046 93.0
2045 2067 216.0
2046 2066 225.0
2046 2068 342.0
2047 2048 137.0
2047 2049 41.0
2047 2050 44.0
2049 2050 72.0
2050 2051 135.0
2051 2054 223.0
2052 2053 338.0
2053 2059 177.0
2053 2072 355.0
2055 2056 169.0
2055 2057 161.0
2056 2411 116.0
2056 2421 404.0
2057 2058 197.0
2057 2411 175.0
2058 2059 289.0
2058 2413 236.0
2058 2419 329.0
2059 2060 209.0
2060 2418 172.0
2061 2062 87.0
2062 2063 21.0
2062 2066 60.0
2063 2064 8.0
2063 2072 479.0
2064 2065 231.0
2065 2071 275.0
2066 2068 289.0
2067 2069 352.0
2067 2075 299.0
2067 2078 208.0
2068 2069 26.0
2069 2070 13.0
2070 2071 332.0
2070 2073 314.0
2071 2074 297.0
2071 2424 160.0
2072 2418 207.0
2072 2425 383.0
2073 2074 54.0
2073 2086 227.0
2074 2451 240.0
2075 2076 286.0
2076 2077 50.0
2076 2082 209.0
2078 2079 30.0
2078 2080 125.0
2079 2083 422.0
2079 2085 311.0
2080 2081 102.0
2080 2086 340.0
2082 2083 33.0
2082 2090 633.0
2083 2084 156.0
2084 2085 264.0
2084 2088 330.0
2085 2087 323.0
2086 2087 306.0
2086 2450 100.0
2087 2452 102.0
2087 2458 456.0
2088 2089 120.0
2088 2091 314.0
2089 2093 131.0
2089 2457 489.0
2090 2091 181.0
2091 2095 288.0
2092 3120 410.0
2092 3127 2698.0
2093 2094 84.0
2093 2095 179.0
2095 2462 548.0
2096 2097 280.0
2098 2099 243.0
2099 2100 1020.0
2100 2101 978.0
2100 2104 1696.0
2101 2102 911.0
2102 2103 179.0
2104 2105 675.0
2104 2107 834.0
2105 2106 1358.0
2106 2111 184.0
2106 2115 179.0
2107 2108 496.0
2107 2109 609.0
2107 2110 525.0
2108 2117 1257.0
2108 2158 304.0
2109 2194 1562.0
2109 2196 651.0
2110 2158 326.0
2110 2197 230.0
2110 2214 653.0
2111 2112 189.0
2113 2119 988.0
2114 2115 718.0
2115 2119 431.0
2116 2120 1314.0
2116 2121 413.0
2116 2128 1078.0
2117 2118 170.0
2117 2119 401.0
2119 2120 377.0
2120 2162 741.0
2122 2123 59.0
2122 2125 133.0
2124 2125 72.0
2124 2126 137.0
2125 2127 93.0
2125 2131 230.0
2126 2129 358.0
2126 2130 170.0
2127 2128 212.0
2127 2134 218.0
2128 2132 124.0
2129 2313 379.0
2130 2131 162.0
2130 2139 303.0
2131 2134 111.0
2131 2141 302.0
2132 2133 360.0
2132 2136 117.0
2133 2138 87.0
2133 2143 694.0
2134 2135 120.0
2134 2136 314.0
2134 2140 305.0
2136 2137 328.0
2136 2138 360.0
2137 2140 222.0
2137 2146 124.0
2138 2142 79.0
2138 2148 287.0
2139 2141 174.0
2139 2151 258.0
2139 2313 194.0
2140 2141 177.0
2141 2149 253.0
2143 2144 161.0
2143 2162 301.0
2144 2145 411.0
2144 2163 595.0
2145 2148 218.0
2145 2166 384.0
2146 2147 89.0
2146 2155 229.0
2147 2148 136.0
2147 2154 161.0
2148 2154 112.0
2149 2150 86.0
2149 2151 197.0
2149 2152 97.0
2150 2157 630.0
2150 2319 204.0
2150 2332 536.0
2151 2319 72.0
2152 2153 58.0
2152 2156 472.0
2154 2155 109.0
2154 2166 279.0
2155 2156 101.0
2155 2169 329.0
2156 2157 192.0
2157 2170 251.0
2158 2159 81.0
2160 2161 1299.0
2160 2214 168.0
2160 2215 764.0
2161 2162 471.0
2161 2177 579.0
2162 2181 968.0
2163 2164 25.0
2163 2165 502.0
2164 2166 412.0
2164 2171 164.0
2165 2167 49.0
2165 2180 128.0
2166 2168 98.0
2166 2169 160.0
2169 2170 28.0
2170 2171 456.0
2171 2172 396.0
2171 2173 236.0
2172 2180 180.0
2172 2183 43.0
2173 2175 493.0
2173 2183 515.0
2173 2189 395.0
2174 2175 52.0
2174 2189 386.0
2174 2335 480.0
2175 2176 142.0
2177 2178 79.0
2177 2179 586.0
2179 2181 31.0
2179 2182 45.0
2180 2181 75.0
2182 2183 219.0
2182 2186 424.0
2184 2185 507.0
2184 2186 11.0
2184 2246 144.0
2185 2244 12.0
2185 2247 272.0
2186 2187 535.0
2187 2188 101.0
2187 2193 482.0
2189 2190 137.0
2189 2193 488.0
2190 2191 277.0
2190 2365 313.0
2190 2376 553.0
2191 2192 53.0
2191 2193 456.0
2191 2378 319.0
2193 2255 318.0
2194 2195 1640.0
2194 2206 587.0
2195 2204 1295.0
2196 2197 189.0
2196 2200 863.0
2197 2214 643.0
2198 2199 104.0
2198 2200 181.0
2200 2201 622.0
2201 2202 115.0
2201 2206 607.0
2202 2203 97.0
2204 2205 11.0
2204 2210 1543.0
2204 2687 1904.0
2205 2691 1894.0
2206 2207 708.0
2207 2208 350.0
2207 2211 457.0
2208 2209 153.0
2210 2211 328.0
2210 2212 617.0
2211 2272 1393.0
2212 2213 179.0
2212 2686 572.0
2215 2216 132.0
2215 2244 752.0
2216 2217 217.0
2216 2220 125.0
2217 2218 111.0
2217 2219 376.0
2218 2220 274.0
2218 2224 140.0
2218 2233 356.0
2219 2226 466.0
2219 2233 142.0
2220 2221 177.0
2221 2222 144.0
2221 2236 277.0
2222 2223 74.0
2222 2224 217.0
2224 2230 359.0
2224 2235 271.0
2225 2226 444.0
2225 2227 203.0
2225 2231 214.0
2226 2227 211.0
2227 2228 156.0
2227 2233 485.0
2228 2229 19.0
2228 2230 496.0
2228 2231 246.0
2229 2232 76.0
2229 2273 312.0
2230 2233 136.0
2230 2234 87.0
2230 2237 287.0
2231 2274 329.0
2235 2236 453.0
2235 2237 369.0
2235 2240 260.0
2236 2247 218.0
2236 2251 174.0
2237 2239 270.0
2237 2273 514.0
2238 2239 24.0
2238 2240 387.0
2238 2241 40.0
2239 2243 101.0
2239 2275 511.0
2240 2258 220.0
2240 2262 313.0
2241 2242 60.0
2243 2285 481.0
2243 2294 373.0
2244 2245 71.0
2246 2247 290.0
2246 2248 155.0
2247 2249 166.0
2248 2249 287.0
2248 2253 421.0
2249 2250 61.0
2249 2252 233.0
2249 2254 220.0
2251 2252 22.0
2251 2258 251.0
2252 2260 250.0
2253 2254 68.0
2253 2255 878.0
2254 2260 246.0
2255 2534 692.0
2256 2257 286.0
2256 2265 584.0
2256 2555 930.0
2257 2534 165.0
2257 2537 508.0
2258 2259 104.0
2260 2261 424.0
2261 2262 16.0
2261 2263 319.0
2262 2294 395.0
2263 2264 151.0
2265 2266 180.0
2265 2296 487.0
2266 2267 535.0
2266 2594 178.0
2267 2557 562.0
2267 2598 185.0
2268 2269 308.0
2268 2270 341.0
2270 2271 11.0
2270 2272 375.0
2271 2274 237.0
2271 2279 377.0
2272 2287 890.0
2272 2289 687.0
2273 2274 245.0
2273 2275 192.0
2274 2278 170.0
2275 2276 42.0
2276 2277 72.0
2276 2281 198.0
2278 2279 369.0
2278 2280 260.0
2279 2282 325.0
2280 2281 13.0
2280 2282 357.0
2281 2283 128.0
2282 2288 98.0
2282 2289 825.0
2283 2284 645.0
2283 2285 207.0
2284 2286 528.0
2284 2292 614.0
2284 2298 84.0
2285 2286 387.0
2286 2294 169.0
2286 2295 803.0
2287 2685 250.0
2287 2688 593.0
2289 2293 92.0
2290 2291 106.0
2290 2292 118.0
2290 2293 694.0
2292 2705 451.0
2293 2705 655.0
2293 2706 782.0
2295 2296 520.0
2295 2301 619.0
2296 2297 276.0
2296 2599 522.0
2297 2306 243.0
2297 2308 597.0
2299 2300 119.0
2299 2301 342.0
2299 2720 737.0
2301 2304 188.0
2302 2303 86.0
2302 2304 162.0
2304 2305 328.0
2305 2308 16.0
2305 2721 689.0
2306 2307 87.0
2306 2311 448.0
2308 2311 176.0
2309 2310 66.0
2309 2311 143.0
2309 2724 395.0
2311 2605 734.0
2312 2313 93.0
2312 2318 308.0
2314 2315 54.0
2316 2317 60.0
2316 2318 70.0
2318 2319 241.0
2320 2321 76.0
2320 2322 144.0
2321 2323 136.0
2321 2326 238.0
2322 2326 159.0
2323 2327 253.0
2323 2329 229.0
2324 2325 71.0
2324 2326 274.0
2326 2327 149.0
2327 2330 113.0
2328 2329 19.0
2328 2343 558.0
2328 2352 1112.0
2329 2331 280.0
2330 2331 111.0
2330 2340 418.0
2331 2341 311.0
2331 2343 351.0
2332 2333 67.0
2332 2335 519.0
2334 2335 743.0
2334 2336 82.0
2334 2337 130.0
2336 2337 195.0
2336 2339 284.0
2337 2338 455.0
2337 2367 617.0
2338 2346 14.0
2338 2372 439.0
2339 2340 76.0
2339 2344 249.0
2340 2341 211.0
2341 2342 44.0
2341 2343 273.0
2342 2344 44.0
2343 2345 61.0
2344 2345 298.0
2344 2346 333.0
2345 2347 223.0
2345 2388 1111.0
2346 2347 454.0
2347 2375 467.0
2348 2351 244.0
2349 2350 175.0
2349 2351 162.0
2350 2353 223.0
2350 2354 524.0
2351 2352 365.0
2352 2361 767.0
2354 2355 99.0
2356 2357 403.0
2356 2360 483.0
2357 2358 25.0
2357 2359 48.0
2358 2360 485.0
2358 2422 76.0
2359 2421 14.0
2360 2363 379.0
2361 2362 118.0
2361 2392 683.0
2362 2363 697.0
2362 2389 353.0
2363 2364 416.0
2363 2394 237.0
2364 2435 324.0
2364 2436 697.0
2365 2366 83.0
2365 2367 521.0
2367 2368 122.0
2368 2369 384.0
2368 2376 198.0
2369 2370 93.0
2369 2371 273.0
2371 2372 119.0
2371 2382 470.0
2372 2373 343.0
2373 2374 59.0
2373 2375 339.0
2375 2384 484.0
2376 2377 92.0
2376 2381 662.0
2377 2378 177.0
2377 2379 729.0
2378 2534 627.0
2379 2380 107.0
2379 2540 47.0
2381 2382 70.0
2381 2541 602.0
2382 2383 443.0
2383 2384 232.0
2383 2542 656.0
2384 2385 848.0
2384 2401 401.0
2385 2388 325.0
2385 2392 24.0
2385 2394 1050.0
2386 2387 46.0
2386 2388 159.0
2389 2390 32.0
2390 2393 290.0
2391 3352 157.0
2392 2393 13.0
2392 2576 1641.0
2393 2405 734.0
2393 2578 1629.0
2394 2395 39.0
2394 2439 341.0
2395 2396 160.0
2395 2397 540.0
2396 2399 253.0
2396 2400 286.0
2397 2398 137.0
2397 2399 364.0
2397 2405 308.0
2399 2400 301.0
2399 2406 239.0
2400 2491 304.0
2400 2492 139.0
2400 2493 319.0
2401 2402 269.0
2401 2403 32.0
2402 2404 47.0
2402 2574 851.0
2403 2543 306.0
2403 2571 316.0
2405 2406 508.0
2406 2407 206.0
2406 2410 245.0
2407 2497 275.0
2407 2500 249.0
2408 2409 94.0
2408 2410 454.0
2408 2579 768.0
2410 2502 365.0
2410 2505 784.0
2411 2412 123.0
2411 2413 201.0
2411 2417 349.0
2413 2414 147.0
2414 2415 85.0
2414 2416 35.0
2415 2420 57.0
2415 2426 467.0
2416 2417 297.0
2416 2423 70.0
2417 2422 96.0
2417 2433 405.0
2418 2419 130.0
2419 2426 292.0
2420 2423 54.0
2420 2431 373.0
2421 2422 24.0
2423 2435 354.0
2424 2425 14.0
2424 2432 586.0
2425 2427 132.0
2426 2427 267.0
2426 2429 245.0
2427 2428 308.0
2428 2429 302.0
2428 2440 274.0
2429 2430 103.0
2429 2431 314.0
2431 2435 424.0
2431 2436 245.0
2432 2441 598.0
2432 2454 178.0
2432 2471 500.0
2433 2434 53.0
2433 2435 78.0
2436 2442 467.0
2437 2438 127.0
2437 2439 764.0
2437 2446 387.0
2439 2491 12.0
2440 2441 82.0
2440 2444 44.0
2441 2442 11.0
2442 2443 1033.0
2442 2446 381.0
2443 2463 579.0
2443 2472 38.0
2443 2473 84.0
2444 2445 95.0
2446 2447 471.0
2446 2494 596.0
2447 2448 98.0
2447 2449 257.0
2449 2477 194.0
2449 2478 967.0
2450 2451 60.0
2450 2452 262.0
2451 2455 295.0
2452 2453 223.0
2452 2456 338.0
2453 2455 185.0
2453 2459 184.0
2454 2455 78.0
2454 2459 221.0
2456 2458 171.0
2456 2464 254.0
2457 2458 98.0
2457 2462 235.0
2458 2461 177.0
2459 2460 174.0
2460 2466 165.0
2460 2471 151.0
2461 2462 105.0
2461 2463 55.0
2461 2467 395.0
2463 2485 737.0
2464 2465 45.0
2464 2466 121.0
2466 2467 136.0
2467 2472 189.0
2468 2469 173.0
2468 2470 413.0
2468 3123 506.0
2469 2482 143.0
2469 2485 350.0
2470 3123 254.0
2470 3124 288.0
2470 3173 134.0
2471 2472 127.0
2473 2476 184.0
2473 2478 290.0
2474 2475 61.0
2474 2476 106.0
2474 2481 420.0
2476 2480 232.0
2477 2494 1100.0
2477 2525 783.0
2478 2479 90.0
2479 2480 51.0
2479 2516 543.0
2480 2481 76.0
2481 2512 284.0
2482 2483 315.0
2482 2484 501.0
2482 2490 361.0
2483 2486 57.0
2483 2487 64.0
2484 3173 63.0
2484 3174 89.0
2485 2486 132.0
2485 2488 527.0
2486 2489 235.0
2488 2489 706.0
2488 2512 162.0
2489 2490 342.0
2490 3188 143.0
2491 2493 573.0
2493 2497 153.0
2493 2498 354.0
2494 2495 318.0
2495 2496 80.0
2495 2501 165.0
2497 2498 304.0
2497 2499 162.0
2498 2501 215.0
2499 2500 231.0
2499 2504 432.0
2500 2502 46.0
2501 2504 429.0
2501 2508 544.0
2502 2503 62.0
2504 2505 671.0
2504 2506 11.0
2505 2579 698.0
2505 2631 166.0
2506 2507 52.0
2508 2525 760.0
2508 2635 540.0
2509 2510 58.0
2509 2511 503.0
2511 2516 59.0
2511 2517 83.0
2511 2529 883.0
2512 2513 70.0
2513 2514 195.0
2513 2516 116.0
2513 2517 104.0
2514 2515 32.0
2514 2520 656.0
2515 2518 223.0
2515 2521 319.0
2517 2518 199.0
2518 2519 311.0
2519 2521 28.0
2519 2523 85.0
2520 2522 163.0
2520 3217 405.0
2521 2522 177.0
2521 2524 223.0
2522 2524 136.0
2524 3219 220.0
2525 2526 386.0
2526 2527 44.0
2526 2528 1888.0
2528 2635 49.0
2528 2639 413.0
2529 2530 140.0
2529 2642 533.0
2530 2531 384.0
2530 2644 325.0
2531 2532 138.0
2531 3234 208.0
2532 2533 177.0
2532 2644 233.0
2532 3236 246.0
2533 2646 195.0
2533 3279 81.0
2534 2535 481.0
2535 2536 297.0
2535 2537 161.0
2536 2538 109.0
2536 2540 320.0
2537 2539 383.0
2538 2539 241.0
2538 2547 635.0
2539 2553 163.0
2540 2541 22.0
2541 2542 483.0
2542 2546 173.0
2543 2544 63.0
2543 2545 159.0
2545 2546 204.0
2545 2571 267.0
2546 2547 207.0
2547 2548 48.0
2548 2549 326.0
2548 2550 182.0
2550 2551 132.0
2550 2562 377.0
2551 2552 176.0
2551 2558 151.0
2552 2560 120.0
2552 2572 166.0
2553 2554 56.0
2553 2555 161.0
2555 2556 334.0
2556 2557 167.0
2556 2562 477.0
2557 2601 283.0
2558 2559 28.0
2558 2560 183.0
2559 2561 66.0
2559 2563 173.0
2560 2564 220.0
2562 2563 148.0
2562 2568 319.0
2563 2564 170.0
2564 2580 148.0
2565 2566 43.0
2565 2567 6.0
2565 2601 489.0
2567 2568 145.0
2567 2569 144.0
2568 2569 26.0
2568 2570 310.0
2569 2570 309.0
2569 2602 496.0
2570 2586 160.0
2571 2572 343.0
2572 2573 155.0
2573 2574 224.0
2573 2580 183.0
2574 2575 78.0
2574 2581 191.0
2576 2577 309.0
2576 2578 14.0
2576 2617 789.0
2577 2581 384.0
2577 2582 7.0
2578 2579 372.0
2578 2618 787.0
2579 2587 226.0
2580 2581 216.0
2580 2586 342.0
2581 2583 250.0
2583 2584 66.0
2583 2585 108.0
2585 2586 332.0
2585 2612 530.0
2586 2614 649.0
2587 2588 104.0
2587 2591 529.0
2587 2631 784.0
2589 2590 53.0
2589 2591 59.0
2589 2592 75.0
2591 2618 275.0
2592 2593 996.0
2592 2621 626.0
2593 2637 231.0
2593 2641 431.0
2594 2595 441.0
2594 2596 262.0
2595 2598 52.0
2595 2601 586.0
2596 2597 43.0
2596 2600 488.0
2599 2600 183.0
2599 2605 441.0
2600 2609 1172.0
2601 2603 552.0
2602 2603 304.0
2602 2623 862.0
2603 2604 65.0
2605 2606 659.0
2605 2725 1078.0
2606 2607 71.0
2606 2608 575.0
2608 2609 171.0
2608 2611 443.0
2608 2626 348.0
2609 2622 507.0
2610 2611 318.0
2610 2626 111.0
2611 2802 717.0
2612 2613 504.0
2612 2617 482.0
2613 2615 636.0
2613 2630 179.0
2614 2615 559.0
2614 2623 305.0
2615 2616 96.0
2617 2618 11.0
2617 2619 625.0
2618 2620 626.0
2619 2620 13.0
2619 2630 526.0
2619 2813 1331.0
2620 2621 333.0
2620 2832 1331.0
2621 2656 391.0
2621 2660 659.0
2622 2623 37.0
2622 2624 242.0
2622 2627 170.0
2624 2625 417.0
2624 2630 698.0
2625 2628 107.0
2625 2629 752.0
2626 2627 149.0
2627 2802 628.0
2629 2630 619.0
2629 2807 236.0
2631 2632 47.0
2632 2633 224.0
2632 2637 600.0
2633 2634 179.0
2633 2635 562.0
2634 2636 56.0
2634 2639 406.0
2637 2638 406.0
2638 2639 257.0
2638 2640 208.0
2641 2656 830.0
2641 2657 458.0
2642 2643 197.0
2642 2647 364.0
2644 2645 253.0
2645 2646 236.0
2645 2647 647.0
2645 3289 834.0
2646 3280 191.0
2646 3291 721.0
2647 2648 264.0
2647 2654 846.0
2648 2649 37.0
2648 3290 1717.0
2649 2650 89.0
2651 2652 67.0
2651 2653 752.0
2651 2654 295.0
2653 2655 187.0
2653 2657 636.0
2654 2655 500.0
2655 2664 311.0
2656 2660 696.0
2657 2658 141.0
2658 2659 155.0
2658 2665 241.0
2659 2662 280.0
2659 2669 683.0
2660 2661 82.0
2662 2663 69.0
2664 2665 262.0
2664 2667 799.0
2665 2666 86.0
2667 2668 533.0
2667 2669 467.0
2668 2670 113.0
2669 2672 711.0
2671 2672 465.0
2671 2673 1766.0
2671 2841 703.0
2672 2840 98.0
2673 3290 400.0
2673 3293 415.0
2673 3302 551.0
2674 2675 655.0
2674 2680 5831.0
2675 2676 61.0
2677 2678 4821.0
2678 2680 4421.0
2680 2684 7875.0
2681 2682 2106.0
2681 2683 1504.0
2681 2753 2027.0
2682 2684 2905.0
2682 2758 3085.0
2682 2761 2674.0
2683 2684 2188.0
2685 2686 170.0
2685 2692 533.0
2686 2687 429.0
2687 2691 20.0
2687 2692 233.0
2688 2689 84.0
2690 2691 1017.0
2690 2698 306.0
2690 2753 2424.0
2691 2693 248.0
2692 2693 18.0
2692 2708 1074.0
2693 2700 826.0
2693 2709 1073.0
2694 2695 79.0
2694 2696 609.0
2696 2697 433.0
2696 2753 581.0
2698 2699 141.0
2698 2701 437.0
2700 2701 181.0
2700 2702 837.0
2701 2755 1418.0
2702 2703 63.0
2702 2704 1315.0
2704 2709 692.0
2704 2735 400.0
2705 2712 281.0
2706 2707 199.0
2706 2710 927.0
2708 2709 12.0
2708 2713 489.0
2709 2715 486.0
2710 2711 158.0
2710 2712 750.0
2711 2717 124.0
2711 2739 220.0
2712 2720 566.0
2713 2714 12.0
2713 2715 13.0
2714 2716 13.0
2714 2739 449.0
2715 2716 12.0
2715 2735 561.0
2716 2736 564.0
2716 2740 454.0
2717 2718 308.0
2717 2719 307.0
2719 2727 300.0
2719 2728 586.0
2720 2721 372.0
2720 2727 750.0
2721 2722 36.0
2722 2723 560.0
2722 2726 455.0
2723 2724 26.0
2723 2733 758.0
2724 2725 332.0
2725 2796 694.0
2726 2727 439.0
2726 2728 338.0
2726 2730 426.0
2728 2729 16.0
2729 2732 475.0
2729 2747 410.0
2730 2731 80.0
2730 2732 363.0
2730 2733 420.0
2732 2734 513.0
2733 2734 204.0
2734 2797 657.0
2735 2736 12.0
2735 2764 1691.0
2736 2737 233.0
2736 2765 1691.0
2737 2738 207.0
2737 2745 1141.0
2738 2741 65.0
2739 2740 13.0
2739 2747 935.0
2740 2748 932.0
2740 2749 753.0
2742 2743 121.0
2743 2744 49.0
2743 2750 142.0
2745 2746 207.0
2745 2768 982.0
2746 2750 460.0
2746 2752 337.0
2747 2748 8.0
2747 2818 1844.0
2748 2751 320.0
2748 2781 1842.0
2749 2750 242.0
2749 2751 360.0
2751 2752 596.0
2752 2776 616.0
2753 2754 554.0
2754 2755 1341.0
2754 2756 314.0
2755 2758 195.0
2756 2757 81.0
2758 2764 1710.0
2759 2760 141.0
2759 2761 522.0
2761 2762 702.0
2762 2763 13.0
2762 2764 852.0
2762 2912 6839.0
2763 2765 851.0
2763 2771 658.0
2763 2915 6818.0
2764 2765 13.0
2765 2769 683.0
2766 2767 116.0
2766 2769 516.0
2768 2772 148.0
2768 2778 413.0
2769 2770 240.0
2770 2771 602.0
2770 2772 785.0
2771 2782 324.0
2772 2773 163.0
2773 2774 72.0
2775 2776 398.0
2775 2777 1170.0
2775 2779 224.0
2776 2778 140.0
2777 2781 1033.0
2777 2868 719.0
2778 2789 1669.0
2779 2780 78.0
2781 2818 17.0
2781 2822 650.0
2782 2783 328.0
2784 2785 69.0
2784 2786 154.0
2786 2787 371.0
2786 2896 852.0
2787 2789 206.0
2787 2902 1632.0
2788 2789 445.0
2788 2790 3093.0
2788 2791 442.0
2790 2825 579.0
2790 2869 471.0
2790 2870 640.0
2791 2792 135.0
2793 2794 165.0
2793 2795 326.0
2793 2796 1626.0
2793 2803 154.0
2795 2799 634.0
2795 2814 180.0
2796 2797 348.0
2796 2798 292.0
2797 2798 362.0
2797 2800 66.0
2798 2799 466.0
2799 2801 884.0
2801 2817 862.0
2801 2818 1123.0
2802 2803 228.0
2803 2814 339.0
2804 2805 63.0
2804 2806 365.0
2806 2807 490.0
2806 2812 341.0
2807 2811 419.0
2808 2809 106.0
2808 2810 231.0
2810 2811 405.0
2810 2813 438.0
2811 2812 461.0
2811 2816 341.0
2812 2815 677.0
2813 2832 14.0
2813 2845 991.0
2814 2815 102.0
2815 2817 558.0
2816 2830 627.0
2816 2844 951.0
2817 2826 336.0
2818 2821 650.0
2819 2820 109.0
2819 2821 601.0
2819 2831 485.0
2821 2822 16.0
2821 2824 475.0
2822 2823 557.0
2822 2825 480.0
2823 2867 163.0
2823 2868 189.0
2823 2869 239.0
2824 2825 18.0
2824 2875 356.0
2825 2871 358.0
2826 2827 779.0
2826 2831 333.0
2827 2828 33.0
2827 2830 586.0
2828 2829 243.0
2830 2876 1168.0
2831 2875 680.0
2832 2833 1097.0
2832 2839 988.0
2833 2836 1030.0
2833 2837 777.0
2834 2835 172.0
2834 2836 646.0
2836 2840 583.0
2837 2838 212.0
2837 2839 208.0
2837 2846 827.0
2839 2845 14.0
2839 2846 680.0
2840 2843 839.0
2841 2842 99.0
2841 3329 582.0
2843 2855 445.0
2843 2858 552.0
2844 2845 616.0
2844 2848 840.0
2845 2847 683.0
2846 2847 13.0
2846 2853 532.0
2847 2848 520.0
2847 2851 530.0
2848 2849 129.0
2848 2850 567.0
2850 2876 683.0
2850 2883 216.0
2851 2852 20.0
2851 2853 15.0
2851 2883 1252.0
2852 2854 15.0
2852 2857 1261.0
2852 2889 1757.0
2853 2854 19.0
2853 2855 1632.0
2854 2856 1625.0
2854 2890 1764.0
2855 2856 16.0
2855 2860 1553.0
2856 2861 1560.0
2856 2862 147.0
2857 2878 652.0
2857 2883 17.0
2857 2884 679.0
2858 2859 138.0
2860 2861 17.0
2860 3298 1658.0
2861 3299 1653.0
2861 3335 690.0
2862 2863 1424.0
2862 2866 969.0
2863 3335 712.0
2863 3336 243.0
2864 2865 128.0
2864 2886 275.0
2866 2886 391.0
2866 2888 611.0
2868 2869 203.0
2870 2871 757.0
2870 2874 581.0
2870 2881 1011.0
2871 2875 16.0
2871 2878 1221.0
2872 2873 140.0
2872 2874 305.0
2874 2924 1667.0
2875 2877 1223.0
2876 2877 16.0
2877 2878 18.0
2877 2883 646.0
2878 2882 1059.0
2879 2880 167.0
2879 2881 813.0
2881 2882 802.0
2882 2931 2992.0
2884 2885 116.0
2886 2887 1849.0
2887 2890 387.0
2887 2893 1726.0
2888 2894 2069.0
2888 3345 2274.0
2889 2890 11.0
2889 2931 2157.0
2890 2932 2193.0
2891 2892 142.0
2891 2893 279.0
2893 2933 781.0
2894 2895 31.0
2894 3345 579.0
2895 2933 500.0
2895 3350 859.0
2896 2897 421.0
2896 2903 3007.0
2897 2898 55.0
2899 2900 72.0
2899 2901 270.0
2901 2902 1122.0
2901 2924 2584.0
2902 2908 635.0
2903 2904 599.0
2903 2917 2159.0
2904 2905 206.0
2904 2920 1114.0
2905 2906 278.0
2905 2908 930.0
2906 2907 38.0
2908 2909 499.0
2909 2910 636.0
2909 2920 903.0
2910 2911 567.0
2910 2929 1349.0
2911 2918 514.0
2911 2922 930.0
2912 2913 2533.0
2912 2914 11663.0
2913 2915 2500.0
2913 2950 1647.0
2914 2915 11651.0
2914 2946 12711.0
2914 2950 10677.0
2914 2964 2489.0
2916 2917 2203.0
2917 2950 1616.0
2918 2919 55.0
2920 2921 216.0
2921 2922 933.0
2921 2950 2822.0
2922 2923 466.0
2923 2930 1249.0
2923 2946 1776.0
2924 2927 596.0
2925 2926 42.0
2925 2927 1003.0
2925 2929 1098.0
2926 2928 44.0
2927 2945 3010.0
2929 2930 764.0
2930 2943 725.0
2931 2932 33.0
2931 2941 1701.0
2932 2934 1297.0
2932 2939 1657.0
2933 2934 3098.0
2934 2939 674.0
2935 2936 152.0
2935 2937 159.0
2937 2938 781.0
2937 2947 2226.0
2938 2941 27.0
2938 2942 133.0
2939 2940 146.0
2939 2941 12.0
2940 2942 15.0
2940 2955 3177.0
2941 2942 132.0
2942 2953 3188.0
2943 2944 95.0
2945 2946 142.0
2945 2947 970.0
2946 2952 3803.0
2947 2948 263.0
2948 2949 139.0
2950 2951 275.0
2952 2953 2015.0
2952 2957 574.0
2953 2954 1276.0
2953 2955 11.0
2954 2960 1887.0
2955 2956 1302.0
2956 2960 1875.0
2957 2958 535.0
2957 2962 4742.0
2958 2959 215.0
2960 3350 6009.0
2961 2962 2764.0
2962 2963 172.0
2964 2965 3816.0
2966 2967 682.0
2966 2970 7772.0
2967 2968 414.0
2969 2972 5243.0
2969 2974 6419.0
2970 2971 6589.0
2970 2972 4068.0
2971 2973 5414.0
2971 2981 995.0
2972 2973 3440.0
2972 2977 4459.0
2973 2977 3398.0
2974 2975 5024.0
2975 2976 845.0
2975 2978 3834.0
2977 2978 2538.0
2978 2979 1332.0
2978 2997 1707.0
2979 2980 291.0
2979 2998 2577.0
2982 2983 5407.0
2982 3070 2023.0
2983 2984 6296.0
2984 3071 2534.0
2985 2986 1268.0
2985 2994 7243.0
2986 2987 355.0
2987 2988 182.0
2989 2990 11.0
2989 3031 3535.0
2990 3017 977.0
2990 3032 3515.0
2991 2992 356.0
2991 2993 2190.0
2993 2995 1126.0
2993 3000 917.0
2994 2995 735.0
2994 2996 2370.0
2995 3005 401.0
2996 3035 552.0
2996 3038 493.0
2997 2998 3845.0
2997 3000 3264.0
2998 2999 683.0
2999 3011 2462.0
2999 3070 1353.0
3000 3001 1656.0
3001 3002 558.0
3001 3003 1083.0
3002 3004 219.0
3003 3005 1806.0
3003 3009 2750.0
3003 3010 872.0
3005 3006 523.0
3006 3007 370.0
3006 3010 1958.0
3007 3008 195.0
3009 3012 187.0
3009 3015 483.0
3010 3068 1960.0
3011 3012 1368.0
3011 3070 3400.0
3012 3013 250.0
3013 3014 2005.0
3013 3015 874.0
3013 3072 6762.0
3015 3016 4898.0
3016 3067 4431.0
3016 3069 3197.0
3017 3020 1237.0
3018 3019 579.0
3018 3020 784.0
3020 3027 696.0
3022 3023 38.0
3022 3025 212.0
3023 3024 1490.0
3024 3027 695.0
3024 3028 295.0
3025 3026 185.0
3027 3029 491.0
3028 3032 1149.0
3028 3033 361.0
3029 3030 101.0
3031 3032 11.0
3031 3036 1713.0
3031 3057 1507.0
3032 3058 1513.0
3033 3034 563.0
3036 3037 727.0
3036 3038 62.0
3037 3057 1203.0
3037 3059 2938.0
3038 3039 1206.0
3039 3040 221.0
3041 3042 229.0
3041 3043 1883.0
3043 3047 602.0
3043 3078 1659.0
3044 3045 1072.0
3044 3051 632.0
3044 3058 881.0
3045 3052 214.0
3045 3054 396.0
3046 3047 92.0
3046 3050 697.0
3047 3048 88.0
3047 3050 703.0
3049 3083 1431.0
3050 3077 1200.0
3051 3056 781.0
3051 3063 230.0
3052 3053 166.0
3052 3055 568.0
3054 3079 1135.0
3054 3091 942.0
3055 3056 781.0
3055 3091 448.0
3056 3096 1221.0
3057 3058 12.0
3057 3066 2327.0
3058 3065 2318.0
3059 3060 2005.0
3059 3061 761.0
3060 3066 1395.0
3060 3067 1200.0
3061 3062 489.0
3063 3064 324.0
3065 3066 11.0
3065 3097 1339.0
3065 3106 2172.0
3066 3105 2140.0
3067 3105 2342.0
3067 3110 3258.0
3069 3110 2498.0
3069 3160 796.0
3070 3071 491.0
3071 3072 1044.0
3072 3073 290.0
3073 3074 53.0
3074 3075 102.0
3076 3080 350.0
3076 3082 436.0
3077 3078 145.0
3077 3083 710.0
3078 3079 737.0
3079 3087 971.0
3079 3092 1642.0
3080 3081 114.0
3082 3084 35.0
3083 3084 16.0
3084 3085 207.0
3085 3086 33.0
3085 3098 362.0
3087 3088 610.0
3087 3089 651.0
3088 3098 99.0
3088 3100 53.0
3088 3101 130.0
3089 3090 325.0
3091 3092 755.0
3092 3093 2323.0
3092 3094 674.0
3093 3101 1279.0
3093 3104 340.0
3093 3112 310.0
3094 3095 344.0
3094 3096 192.0
3096 3097 218.0
3097 3107 2524.0
3099 3100 49.0
3099 3102 327.0
3100 3101 173.0
3102 3103 66.0
3102 3111 1130.0
3104 3111 258.0
3104 3112 386.0
3105 3106 30.0
3105 3135 1444.0
3106 3134 1419.0
3107 3108 2614.0
3107 3109 2045.0
3107 3130 538.0
3108 3109 564.0
3108 3112 583.0
3109 3115 179.0
3110 3143 1058.0
3111 3113 355.0
3113 3114 84.0
3115 3116 814.0
3115 3132 1026.0
3116 3117 61.0
3118 3119 49.0
3118 3146 1098.0
3120 3121 90.0
3120 3122 156.0
3121 3122 75.0
3121 3123 340.0
3122 3124 320.0
3124 3175 88.0
3125 3126 169.0
3125 3175 765.0
3125 3182 940.0
3125 3208 1374.0
3126 3177 341.0
3126 3180 554.0
3127 3146 1096.0
3127 3150 1463.0
3128 3129 125.0
3128 3209 212.0
3130 3131 163.0
3132 3133 634.0
3132 3134 964.0
3134 3135 14.0
3134 3136 137.0
3135 3137 141.0
3135 3138 264.0
3136 3137 14.0
3136 3149 1182.0
3137 3138 143.0
3137 3159 1713.0
3138 3139 1318.0
3138 3140 1528.0
3139 3140 158.0
3139 3141 1079.0
3140 3144 136.0
3141 3142 207.0
3143 3144 1068.0
3143 3162 3802.0
3144 3145 902.0
3144 3168 1311.0
3145 3166 509.0
3145 3325 7650.0
3146 3154 1119.0
3147 3148 437.0
3147 3149 413.0
3147 3154 386.0
3149 3158 525.0
3150 3151 336.0
3150 3153 646.0
3151 3152 105.0
3151 3210 597.0
3153 3157 628.0
3153 3212 827.0
3154 3158 605.0
3155 3156 94.0
3155 3157 235.0
3157 3256 971.0
3158 3159 11.0
3158 3256 501.0
3159 3257 503.0
3159 3313 2991.0
3160 3161 171.0
3162 3163 919.0
3162 3164 3422.0
3163 3165 320.0
3166 3167 188.0
3168 3169 294.0
3168 3317 4177.0
3169 3170 331.0
3171 3172 408.0
3171 3317 1204.0
3173 3176 146.0
3175 3176 163.0
3176 3186 443.0
3177 3178 74.0
3177 3179 75.0
3179 3181 762.0
3179 3186 604.0
3180 3181 236.0
3180 3184 586.0
3181 3198 126.0
3181 3199 109.0
3182 3183 127.0
3182 3184 180.0
3182 3208 465.0
3182 3211 724.0
3184 3185 64.0
3184 3213 179.0
3185 3199 730.0
3185 3201 293.0
3185 3207 154.0
3186 3187 97.0
3187 3188 104.0
3187 3189 84.0
3187 3190 344.0
3188 3189 59.0
3189 3191 302.0
3189 3217 535.0
3190 3191 157.0
3190 3198 178.0
3191 3192 19.0
3191 3194 145.0
3192 3193 155.0
3192 3218 674.0
3193 3195 90.0
3193 3196 128.0
3194 3196 141.0
3194 3198 175.0
3194 3203 215.0
3196 3197 381.0
3196 3203 138.0
3197 3218 230.0
3197 3223 225.0
3197 3225 275.0
3198 3200 135.0
3199 3202 455.0
3200 3204 290.0
3200 3205 456.0
3201 3202 279.0
3202 3206 111.0
3203 3204 140.0
3204 3225 382.0
3205 3206 171.0
3205 3229 477.0
3205 3230 579.0
3206 3207 871.0
3207 3213 81.0
3208 3209 431.0
3209 3210 1023.0
3209 3211 491.0
3210 3212 417.0
3211 3214 98.0
3212 3215 1212.0
3213 3214 585.0
3214 3215 39.0
3215 3216 251.0
3215 3230 1089.0
3215 3243 1014.0
3217 3218 105.0
3217 3219 386.0
3218 3220 407.0
3219 3220 76.0
3219 3232 424.0
3220 3221 72.0
3220 3222 68.0
3222 3223 293.0
3222 3233 584.0
3223 3224 288.0
3224 3225 114.0
3224 3227 37.0
3225 3226 177.0
3226 3227 169.0
3226 3229 92.0
3227 3228 373.0
3228 3231 119.0
3229 3230 630.0
3230 3240 882.0
3230 3245 473.0
3232 3234 415.0
3232 3238 760.0
3233 3238 491.0
3233 3240 496.0
3234 3235 303.0
3234 3236 102.0
3235 3237 120.0
3235 3238 358.0
3235 3242 469.0
3236 3237 304.0
3236 3280 334.0
3237 3239 211.0
3237 3281 231.0
3238 3239 246.0
3238 3241 269.0
3240 3241 322.0
3240 3251 760.0
3241 3242 196.0
3242 3282 288.0
3243 3244 83.0
3243 3245 13.0
3245 3246 273.0
3245 3253 1296.0
3246 3247 45.0
3248 3249 147.0
3248 3250 205.0
3250 3253 520.0
3250 3255 385.0
3251 3255 689.0
3251 3295 434.0
3252 3253 67.0
3252 3254 1237.0
3252 3273 376.0
3254 3260 208.0
3254 3269 799.0
3255 3274 663.0
3255 3288 966.0
3256 3257 18.0
3256 3261 819.0
3257 3262 812.0
3257 3263 798.0
3258 3259 15.0
3258 3261 9.0
3258 3269 913.0
3259 3262 10.0
3259 3264 368.0
3259 3270 919.0
3261 3262 15.0
3262 3263 366.0
3263 3264 13.0
3263 3265 2347.0
3264 3266 2349.0
3264 3275 1951.0
3265 3266 14.0
3265 3267 1299.0
3265 3315 786.0
3266 3268 1906.0
3266 3316 791.0
3267 3311 118.0
3267 3314 265.0
3268 3277 2093.0
3268 3278 5097.0
3269 3270 14.0
3269 3273 697.0
3270 3275 690.0
3271 3272 329.0
3271 3305 1027.0
3273 3274 812.0
3273 3275 20.0
3274 3276 22.0
3274 3298 2904.0
3275 3276 812.0
3276 3299 2922.0
3276 3300 279.0
3277 3307 132.0
3277 3320 2369.0
3278 3316 239.0
3278 3322 6035.0
3280 3281 274.0
3280 3285 596.0
3281 3282 126.0
3282 3283 157.0
3283 3284 131.0
3283 3285 516.0
3285 3291 238.0
3285 3294 459.0
3286 3287 322.0
3286 3288 309.0
3286 3294 886.0
3287 3301 241.0
3288 3295 300.0
3289 3290 39.0
3289 3291 419.0
3291 3292 75.0
3291 3293 455.0
3293 3294 301.0
3295 3296 228.0
3296 3297 110.0
3298 3299 22.0
3298 3302 1244.0
3299 3331 291.0
3300 3305 1199.0
3300 3306 1124.0
3302 3303 1014.0
3303 3304 128.0
3303 3330 930.0
3305 3307 768.0
3306 3308 664.0
3306 3310 1028.0
3307 3310 1883.0
3308 3309 222.0
3310 3331 4023.0
3310 3346 1272.0
3311 3312 314.0
3311 3313 547.0
3313 3315 666.0
3315 3316 15.0
3315 3327 7266.0
3316 3328 7256.0
3317 3318 2613.0
3318 3319 2742.0
3319 3325 3381.0
3319 3327 2272.0
3319 3328 2304.0
3320 3321 648.0
3322 3323 3840.0
3322 3324 1008.0
3323 3348 6066.0
3325 3326 1615.0
3331 3332 1706.0
3331 3333 1186.0
3332 3334 393.0
3332 3335 10.0
3333 3339 1308.0
3333 3342 1440.0
3334 3338 199.0
3336 3337 29.0
3336 3339 2298.0
3337 3338 744.0
3339 3340 153.0
3340 3341 242.0
3342 3343 29.0
3342 3344 20.0
3343 3344 10.0
3343 3345 5096.0
3344 3348 2353.0
3346 3347 318.0
3348 3349 852.0
3350 3351 719.0
