0 6704 0.904
1 30670 0.257
2 30671 0.123
3 6690 0.068
4 30662 0.103
5 30672 0.068
6 30660 0.033
7 30673 0.029
8 28775 0.066
9 27550 0.044
10 30612 0.023
11 27549 0.107
12 6704 0.069
13 27544 0.068
14 27546 0.047
15 27553 0.138
16 30674 0.034
17 27551 0.051
18 30966 0.034
19 30659 0.03
20 30663 0.041
21 30836 0.059
22 27542 0.218
23 6708 0.043
24 30837 0.039
25 30018 0.03
26 27553 0.111
27 29626 0.014
27 30251 0.015
28 30244 0.016
29 30246 0.015
30 30252 0.02
31 30247 0.029
32 30254 0.018
33 30249 0.02
34 29627 0.024
34 29628 0.056
35 30256 0.022
36 28271 0.068
37 29331 0.034
37 29474 0.033
38 29986 0.024
39 29987 0.037
39 30339 0.033
40 29978 0.034
41 29978 0.063
41 29988 0.029
42 29978 0.039
42 29988 0.029
43 29959 0.026
43 29960 0.014
44 29958 0.035
44 30019 0.042
45 29979 0.029
46 29990 0.042
46 30021 0.017
47 30020 0.023
48 29993 0.028
49 29991 0.013
49 29992 0.051
50 28509 0.027
51 6768 0.03
52 30022 0.059
52 30023 0.032
53 29963 0.02
54 6819 0.031
55 29951 0.041
55 30279 0.017
56 30153 0.034
57 29952 0.027
57 29954 0.018
58 29953 0.019
58 30025 0.037
59 27556 0.03
60 29955 0.044
61 29956 0.072
61 30024 0.021
62 30180 0.025
63 29957 0.068
63 30258 0.018
64 29944 0.048
64 29945 0.043
64 30274 0.033
65 29295 0.041
66 29949 0.07
66 29950 0.051
67 29947 0.058
67 30181 0.038
68 30179 0.021
69 27533 0.034
70 29946 0.035
70 30280 0.025
71 29948 0.03
72 30271 0.024
73 29307 0.019
74 29048 0.017
74 30272 0.033
75 30026 0.04
75 30281 0.015
76 29629 0.022
76 30027 0.019
76 30301 0.017
77 29961 0.029
77 29962 0.035
77 30029 0.025
78 30028 0.031
78 30302 0.054
79 28529 0.088
79 29051 0.129
80 6689 0.152
80 6714 0.043
80 29050 0.038
81 28154 0.023
82 6709 0.083
82 6738 0.033
83 29253 0.042
84 28541 0.037
84 29246 0.042
84 29248 0.042
85 29964 0.02
85 29965 0.082
85 30130 0.074
86 6758 0.054
86 6767 0.05
87 29966 0.035
88 29052 0.064
88 29967 0.033
89 6786 0.032
90 30151 0.026
91 27557 0.028
92 6849 0.035
93 30152 0.023
94 29943 0.064
95 30148 0.035
96 30030 0.04
96 30265 0.033
97 29630 0.015
97 30177 0.028
98 27536 0.021
99 27741 0.026
100 27535 0.033
100 27539 0.044
100 29045 0.039
100 29046 0.043
101 29307 0.044
101 30278 0.036
102 29317 0.028
103 29631 0.015
103 30031 0.023
104 29632 0.022
104 29633 0.041
105 29635 0.032
105 29637 0.039
106 29329 0.019
107 29315 0.045
107 29634 0.046
108 29638 0.035
108 29639 0.072
108 30032 0.03
109 29641 0.014
109 30311 0.045
110 29640 0.033
110 30015 0.014
111 28172 0.025
112 30174 0.021
113 30173 0.022
114 27536 0.035
115 29642 0.02
115 29643 0.019
116 29646 0.038
116 30033 0.017
117 29655 0.023
118 29644 0.024
118 29645 0.015
118 30282 0.023
119 29647 0.016
119 29648 0.018
120 29054 0.021
121 29650 0.015
121 29651 0.031
122 29649 0.025
122 29652 0.033
123 29653 0.024
123 30034 0.016
124 29654 0.02
124 30035 0.02
125 30282 0.025
126 29291 0.023
127 29657 0.023
127 30203 0.028
128 29298 0.037
128 30036 0.036
129 29656 0.04
129 29658 0.031
129 29660 0.018
130 29661 0.015
130 29662 0.042
131 30037 0.021
131 30038 0.041
131 30284 0.072
132 29663 0.028
132 30014 0.014
133 29665 0.027
133 30285 0.02
134 29666 0.02
134 30286 0.017
135 29667 0.017
135 29669 0.026
135 30017 0.02
136 29668 0.036
136 30287 0.017
137 29670 0.015
137 29671 0.015
138 29672 0.018
138 29673 0.033
139 29677 0.07
139 30316 0.005
140 29674 0.017
140 29675 0.043
140 29676 0.023
141 28534 0.022
142 30137 0.017
143 29707 0.016
143 29968 0.034
143 29969 0.026
144 29678 0.12
144 30012 0.018
145 28811 0.015
145 29683 0.024
146 29679 0.087
146 30013 0.037
147 29684 0.015
147 29685 0.017
148 29680 0.016
148 29682 0.016
149 28171 0.017
149 29693 0.07
150 29686 0.02
150 29687 0.035
151 27495 0.04
152 29688 0.021
152 29689 0.026
153 28551 0.027
154 29690 0.019
154 29692 0.093
154 30169 0.031
155 29694 0.018
155 29695 0.018
156 29699 0.018
156 29700 0.04
157 29691 0.026
158 29701 0.076
158 29702 0.02
159 29299 0.033
160 30239 0.058
161 29696 0.079
161 29697 0.018
161 30168 0.038
162 29698 0.026
162 30192 0.031
163 6854 0.032
164 29703 0.045
164 29706 0.016
165 29704 0.014
165 29705 0.037
166 29306 0.049
166 30312 0.016
167 30039 0.022
167 30288 0.022
168 29971 0.015
168 29972 0.019
169 29973 0.023
169 30237 0.036
170 29708 0.019
170 29709 0.02
170 29710 0.049
170 29712 0.045
171 6940 0.025
172 29711 0.024
173 29713 0.034
173 29714 0.035
173 29778 0.046
174 28530 0.056
174 29057 0.014
174 29058 0.078
175 29212 0.026
176 29715 0.022
176 29716 0.033
176 29718 0.035
177 29717 0.049
177 30040 0.024
177 30093 0.044
178 30085 0.02
179 30110 0.024
180 29719 0.018
180 29720 0.018
181 6726 0.019
182 29724 0.041
182 29725 0.016
182 29726 0.036
183 29721 0.02
183 29722 0.02
183 29723 0.072
184 29226 0.025
185 29727 0.028
185 30110 0.02
186 29240 0.015
187 30118 0.018
188 28547 0.02
189 29728 0.03
189 30120 0.024
190 30268 0.021
191 30041 0.019
192 29729 0.014
192 29733 0.04
193 29730 0.017
193 29731 0.014
193 29732 0.031
194 29734 0.019
194 29735 0.016
194 29736 0.034
195 29737 0.016
195 29738 0.034
196 28547 0.07
196 28551 0.054
197 28150 0.058
197 29470 0.02
197 29739 0.04
198 29740 0.024
198 29741 0.017
199 29742 0.049
199 30289 0.017
200 29257 0.032
200 29743 0.017
201 29744 0.02
201 29745 0.029
202 29289 0.051
202 29746 0.025
202 29747 0.025
203 29748 0.025
203 29749 0.045
203 29750 0.036
204 29751 0.015
204 29752 0.021
204 29753 0.024
205 29756 0.028
205 29757 0.092
206 29285 0.047
207 29754 0.015
207 29755 0.037
208 29758 0.025
208 29759 0.063
208 30291 0.023
209 29760 0.031
209 29761 0.02
209 29762 0.022
210 29763 0.035
211 29764 0.024
211 29765 0.022
211 29766 0.031
212 29767 0.018
212 29768 0.03
213 29770 0.039
213 29771 0.015
214 30043 0.034
214 30433 0.04
215 29773 0.045
215 30045 0.017
216 29772 0.065
216 29774 0.047
216 30044 0.041
217 29775 0.072
217 29777 0.068
218 29779 0.046
218 29780 0.057
219 29782 0.068
219 30317 0.05
219 30318 0.049
220 29784 0.054
220 30207 0.063
221 29785 0.048
221 29786 0.052
221 29985 0.059
222 6986 0.188
223 28522 0.17
224 27531 0.117
225 27529 0.142
226 28579 0.157
227 28520 0.109
227 29621 0.08
228 29218 0.035
229 30046 0.023
229 30292 0.02
230 29788 0.02
230 29789 0.044
231 29791 0.027
231 29793 0.082
231 30112 0.042
232 29790 0.031
232 29792 0.052
233 29794 0.033
233 29795 0.028
233 30273 0.033
234 29801 0.02
234 30047 0.03
235 29796 0.053
235 29797 0.02
236 29798 0.018
236 29799 0.043
237 29792 0.023
238 29806 0.031
238 30049 0.021
239 29800 0.017
239 30048 0.05
240 29802 0.021
240 29803 0.037
240 30293 0.02
241 29804 0.043
241 30338 0.02
242 29808 0.019
242 29809 0.06
242 29810 0.073
242 30050 0.035
243 29805 0.048
243 29806 0.044
243 29807 0.028
244 6777 0.037
245 6804 0.03
246 29813 0.023
247 28553 0.026
248 29811 0.021
248 29812 0.04
249 28554 0.027
250 27594 0.047
251 6804 0.072
251 29984 0.027
252 30277 0.022
252 30313 0.064
253 30314 0.097
253 30337 0.017
254 29983 0.033
254 30142 0.058
255 6794 0.077
255 29982 0.039
256 29285 0.037
256 29975 0.052
256 29976 0.048
257 29977 0.079
257 30276 0.02
258 30051 0.102
258 30188 0.019
259 29980 0.042
259 29981 0.06
260 29974 0.072
260 30319 0.017
261 29279 0.025
262 29305 0.027
262 30187 0.031
263 29818 0.026
263 30193 0.034
264 29814 0.111
264 29815 0.02
264 29816 0.028
264 29817 0.028
265 29311 0.042
266 29223 0.09
267 29819 0.039
267 29820 0.036
267 29821 0.04
267 29828 0.019
268 29822 0.028
268 30052 0.06
269 29825 0.037
269 29826 0.062
269 29827 0.023
270 29823 0.032
270 29824 0.053
271 29829 0.026
271 29830 0.019
271 29831 0.018
271 30294 0.022
272 29835 0.035
272 30053 0.016
273 29834 0.025
273 30054 0.015
274 29833 0.016
274 29838 0.101
275 29832 0.015
275 29837 0.095
276 30055 0.021
276 30263 0.017
277 29841 0.017
277 29842 0.021
277 29843 0.045
278 29839 0.018
278 29844 0.032
279 29845 0.085
279 29846 0.017
280 29254 0.041
280 29840 0.022
281 29847 0.02
281 29848 0.042
282 29851 0.04
282 29854 0.094
282 30296 0.036
283 29852 0.024
283 29853 0.024
283 29855 0.063
284 30056 0.019
284 30057 0.036
285 29850 0.076
285 30295 0.035
286 29857 0.034
286 29858 0.052
286 29859 0.032
287 29856 0.034
287 30306 0.015
288 29276 0.037
289 29860 0.036
289 29861 0.027
289 29862 0.072
290 29863 0.025
290 29864 0.09
291 30162 0.03
292 29865 0.018
292 29866 0.038
292 29868 0.033
293 29867 0.022
293 30259 0.042
294 29870 0.032
294 29871 0.024
295 29869 0.028
295 30190 0.036
296 6876 0.086
297 29332 0.086
297 29335 0.065
298 6949 0.126
299 29336 0.024
299 29337 0.037
300 6985 0.052
301 6697 0.061
302 6697 0.064
302 29872 0.06
303 30106 0.029
304 29873 0.023
304 29874 0.032
305 29235 0.025
306 29875 0.025
306 30106 0.029
307 29237 0.032
307 29876 0.023
308 29222 0.065
308 29879 0.048
308 30058 0.043
309 29881 0.039
309 30059 0.024
310 29877 0.037
310 30107 0.034
311 29878 0.025
311 29880 0.037
311 30116 0.046
312 29882 0.031
312 29883 0.035
312 30315 0.05
313 30107 0.034
313 30108 0.037
314 30134 0.043
314 30135 0.037
315 29884 0.029
315 29885 0.044
315 30060 0.056
316 29887 0.03
316 29888 0.104
317 30158 0.023
318 28148 0.042
318 29886 0.031
319 29274 0.035
319 29889 0.026
320 29891 0.017
320 29892 0.036
321 29890 0.03
321 29893 0.043
322 29894 0.019
322 29898 0.043
323 29895 0.049
323 29896 0.027
324 29283 0.03
325 30157 0.019
326 29899 0.019
326 29900 0.02
326 29903 0.016
327 29897 0.028
327 29901 0.043
327 29902 0.045
328 6865 0.134
328 6948 0.124
329 29327 0.086
329 29334 0.083
330 6948 0.041
331 29320 0.043
332 29904 0.058
332 29905 0.016
332 30061 0.022
333 30083 0.05
334 29906 0.048
334 29907 0.042
335 29913 0.025
336 29214 0.041
337 29908 0.026
338 29255 0.046
339 29914 0.017
339 29915 0.052
340 29910 0.037
340 29912 0.069
341 29909 0.049
341 29911 0.035
342 6731 0.024
343 29263 0.039
343 30016 0.024
344 29916 0.054
344 30320 0.038
345 29917 0.038
345 29918 0.033
346 29255 0.025
347 29263 0.029
348 6825 0.059
348 29919 0.029
349 29271 0.069
349 29471 0.063
350 29271 0.035
351 6775 0.06
351 28161 0.05
352 29920 0.065
352 30062 0.027
353 29921 0.025
353 29994 0.068
354 28163 0.016
355 6763 0.109
355 6808 0.109
355 29997 0.014
355 30063 0.096
355 30064 0.107
356 29995 0.034
356 29996 0.104
357 29272 0.027
357 29275 0.039
358 6851 0.088
358 29923 0.039
359 29271 0.031
360 29922 0.033
360 30065 0.042
361 6816 0.055
361 30297 0.032
362 27582 0.047
362 30066 0.061
362 30068 0.048
363 29924 0.033
363 30186 0.032
364 30067 0.03
364 30176 0.032
365 29288 0.067
365 29925 0.03
365 30298 0.052
366 30146 0.022
367 29269 0.039
367 30299 0.024
368 29927 0.038
368 30303 0.066
369 29926 0.022
369 30300 0.02
370 29928 0.033
370 29932 0.024
371 29933 0.023
371 30069 0.023
372 30184 0.03
373 29935 0.018
373 29936 0.017
374 29938 0.017
374 29939 0.055
375 6878 0.055
375 29940 0.055
376 30846 0.027
377 29941 0.017
378 29942 0.03
379 6691 0.049
380 29061 0.044
380 29241 0.033
381 27509 0.047
381 29241 0.062
382 6763 0.107
382 6764 0.097
382 6803 0.114
383 6808 0.063
384 30838 0.021
385 29286 0.061
386 30839 0.059
387 6839 0.099
388 6860 0.072
389 29062 0.077
389 29216 0.077
390 29063 0.034
390 29216 0.054
391 6736 0.06
391 29063 0.06
392 6764 0.084
392 29260 0.031
393 29064 0.039
393 29258 0.038
394 6848 0.048
395 6748 0.065
396 29251 0.029
397 29249 0.104
397 29261 0.071
398 27589 0.049
398 29259 0.067
399 27728 0.105
399 30990 0.018
400 28596 0.107
401 30834 0.066
402 6660 0.06
403 28558 0.096
404 8352 0.068
405 6684 0.068
406 27587 0.057
407 6741 0.054
408 6712 0.056
409 27588 0.029
410 29466 0.056
411 27733 0.089
411 28598 0.26
411 29620 0.165
412 28597 0.025
413 6636 0.215
413 6698 0.231
414 6636 0.121
415 6644 0.033
416 8926 0.19
417 7075 0.168
418 29346 0.047
419 8918 0.101
419 29344 0.108
420 7132 0.165
421 30872 0.021
422 7026 0.035
423 7014 0.069
424 30610 0.044
425 7023 0.039
426 30609 0.049
427 7056 0.032
428 7050 0.045
429 29345 0.134
430 7018 0.021
431 7010 0.014
432 6979 0.028
433 7062 0.026
434 27492 0.115
435 30871 0.013
436 30873 0.022
437 7051 0.017
438 8929 0.113
439 7114 0.061
440 7102 0.23
441 7159 0.08
442 27591 0.061
443 11287 0.14
444 30605 0.033
445 30606 0.033
446 30867 0.022
447 30608 0.041
448 6992 0.118
449 6930 0.083
450 28514 0.025
451 28513 0.059
452 30607 0.021
453 30675 0.045
454 30847 0.065
455 30866 0.031
456 30853 0.022
457 7012 0.042
458 30851 0.019
459 30874 0.045
460 7034 0.028
461 7909 0.078
462 6834 0.076
463 6832 0.028
464 11287 0.086
464 11302 0.162
465 30602 0.046
466 30601 0.132
467 30600 0.038
468 29333 0.061
469 7843 0.045
470 27511 0.078
471 30861 0.023
472 11289 0.029
473 6970 0.106
474 30604 0.047
475 30896 0.049
476 7060 0.079
477 7099 0.135
477 29339 0.182
478 8867 0.034
479 30890 0.07
480 30843 0.048
481 30891 0.055
482 6810 0.094
483 8798 0.028
484 30892 0.035
485 30676 0.038
486 6995 0.053
487 8869 0.078
488 6956 0.056
489 30875 0.082
490 30863 0.075
491 11285 0.11
492 30864 0.049
493 30854 0.039
494 30856 0.02
495 30603 0.055
496 8868 0.05
497 30862 0.049
498 7154 0.179
499 7189 0.079
500 20628 0.034
501 7154 0.233
502 20623 0.27
503 20626 0.069
503 29343 0.174
504 31190 0.32
505 27738 0.041
506 30820 0.037
507 27735 0.075
508 27737 0.079
509 28046 0.091
509 28505 0.192
509 30517 0.131
510 30823 0.063
511 14084 0.072
512 30934 0.089
513 6510 0.047
514 14085 0.064
515 28502 0.089
516 30525 0.025
517 30518 0.055
518 30821 0.047
519 30524 0.116
520 16467 0.136
521 16468 0.153
522 30657 0.096
523 16470 0.062
524 30677 0.071
525 28181 0.073
526 6343 0.097
526 30972 0.324
527 28180 0.057
528 6484 0.131
529 27630 0.135
530 30656 0.081
531 30808 0.039
532 30809 0.056
533 30812 0.062
534 30658 0.05
535 6574 0.046
536 6556 0.035
537 6535 0.05
538 6526 0.027
539 28500 0.086
540 6539 0.067
541 6553 0.06
542 6575 0.047
543 6427 0.071
544 30522 0.066
545 30678 0.047
546 30913 0.123
547 16471 0.069
548 30523 0.057
549 27635 0.068
550 6596 0.082
551 6578 0.181
552 6570 0.063
553 30829 0.052
554 30914 0.061
555 30830 0.042
556 28241 0.06
557 6658 0.105
558 6611 0.076
559 30833 0.084
560 6354 0.132
561 6389 0.125
562 6380 0.069
563 30802 0.065
564 30801 0.1
565 6431 0.112
566 30807 0.06
567 16477 0.099
568 13035 0.066
569 27636 0.103
570 27633 0.041
571 6471 0.068
572 6430 0.097
573 6585 0.054
574 30655 0.055
575 28517 0.111
576 6546 0.139
577 30654 0.07
578 30814 0.066
579 6541 0.067
580 30811 0.067
581 6547 0.066
582 6669 0.074
583 28516 0.019
584 13024 0.282
585 6399 0.125
586 30800 0.038
587 6430 0.382
587 6478 0.547
587 8350 0.35
588 30350 0.09
589 30832 0.041
590 30822 0.042
591 8727 0.068
592 6610 0.037
593 30884 0.088
594 30827 0.076
595 8728 0.105
596 28243 0.08
597 30826 0.046
598 29208 0.077
599 6609 0.036
600 30828 0.068
601 30653 0.102
602 30806 0.121
603 6425 0.061
604 30637 0.044
605 6444 0.053
606 30636 0.064
607 13053 0.024
608 30899 0.05
609 30635 0.032
610 30679 0.013
611 6429 0.064
612 30816 0.063
613 6486 0.071
614 6487 0.049
615 30817 0.075
616 6571 0.168
617 30591 0.077
618 11291 0.089
619 30590 0.113
620 8785 0.146
621 11246 0.075
621 30389 0.073
622 30894 0.061
623 30589 0.09
624 11244 0.081
625 6761 0.064
626 30886 0.053
627 30597 0.048
628 30885 0.037
629 30596 0.058
630 11251 0.073
631 30593 0.061
632 30592 0.05
633 8729 0.13
634 8785 0.164
635 6760 0.081
636 30840 0.049
637 11277 0.022
638 30397 0.081
639 8789 0.114
640 30858 0.045
641 30598 0.053
642 30857 0.043
643 30887 0.048
644 30595 0.045
645 6405 0.065
646 6417 0.056
647 13049 0.134
647 30354 0.063
648 29206 0.123
649 11236 0.311
650 29382 0.147
651 6792 0.135
652 11122 0.151
653 30849 0.045
654 30594 0.035
655 30680 0.103
656 30848 0.064
657 6911 0.059
658 6941 0.07
659 6387 0.221
659 11190 0.263
660 6464 0.099
661 13049 0.104
662 6518 0.191
663 11230 0.147
664 11221 0.234
665 11109 0.144
666 11113 0.163
667 11197 0.112
668 11195 0.126
669 11205 0.17
670 11214 0.185
671 11103 0.113
672 11119 0.252
673 6436 0.396
674 6678 0.283
675 11098 0.192
676 6436 0.353
677 10890 0.184
678 10864 0.372
679 11127 0.137
680 10874 0.196
681 10879 0.177
682 28903 0.794
683 28793 0.036
684 30503 0.043
685 30479 0.057
686 30502 0.095
687 30459 0.037
688 30461 0.035
689 30458 0.048
690 16456 0.092
691 16456 0.218
692 30923 0.057
693 30526 0.062
694 30932 0.065
695 30632 0.095
696 6381 0.08
697 16447 0.07
698 6375 0.126
699 16451 0.053
700 30664 0.054
701 30527 0.038
702 16445 0.079
703 16439 0.116
704 16440 0.072
705 16440 0.08
706 30925 0.053
707 30627 0.064
708 16455 0.102
709 16459 0.09
710 16463 0.072
711 30556 0.049
712 30554 0.037
713 16457 0.042
714 6307 0.085
715 30628 0.09
716 6327 0.089
717 30629 0.039
718 6308 0.096
719 6383 0.084
720 30633 0.061
721 30681 0.099
722 14079 0.056
723 30928 0.074
724 30930 0.114
725 16444 0.097
726 30907 0.329
727 30772 0.084
728 6287 0.102
729 30933 0.105
730 30529 0.073
731 14082 0.221
732 8732 0.197
733 6374 0.153
734 6183 0.228
735 30766 0.058
736 6223 0.08
737 6170 0.088
738 30881 0.13
739 6228 0.067
740 8530 0.061
741 8532 0.075
742 30879 0.061
743 30771 0.062
744 30797 0.075
745 30796 0.069
746 16495 0.062
747 8690 0.09
748 30882 0.122
749 30634 0.07
750 16486 0.045
751 30537 0.061
752 30650 0.07
753 6222 0.166
754 30539 0.081
755 30649 0.175
756 30788 0.097
757 6315 0.096
758 30533 0.036
759 30798 0.056
760 30652 0.039
761 30758 0.133
762 28904 0.195
763 15541 0.149
764 30757 0.243
765 30756 0.145
766 13992 0.107
767 6299 0.084
768 30651 0.113
769 30783 0.063
770 6353 0.091
771 8861 0.11
772 6282 0.089
773 30785 0.07
774 30904 0.093
775 15542 0.214
776 15541 0.111
777 6105 0.144
778 30920 0.066
779 30769 0.07
780 6237 0.193
781 13056 0.259
782 30774 0.082
783 13059 0.075
784 30767 0.036
785 14004 0.131
786 6243 0.055
787 6218 0.079
788 6236 0.251
789 30775 0.067
790 30905 0.036
791 30780 0.068
792 30779 0.079
793 6334 0.087
794 30784 0.063
795 30789 0.043
796 6311 0.065
797 8822 0.186
798 6281 0.125
799 8859 0.214
800 27599 0.056
801 6099 0.104
802 15549 0.157
803 13999 0.089
804 30648 0.071
805 30889 0.112
806 15546 0.121
807 30778 0.033
808 30782 0.13
809 30786 0.077
810 30643 0.056
811 30759 0.091
812 6158 0.123
813 13072 0.096
814 16517 0.053
815 27640 0.096
816 6214 0.066
817 13061 0.104
818 13060 0.126
819 30647 0.053
820 30646 0.169
821 13063 0.145
822 13064 0.054
823 8774 0.084
824 13077 0.092
825 13019 0.096
826 6305 0.101
827 30776 0.083
828 13012 0.132
829 6338 0.055
830 30793 0.1
831 6371 0.07
832 13013 0.111
833 6013 0.156
834 30577 0.069
835 6060 0.165
836 30553 0.055
837 6136 0.034
838 30552 0.045
839 20635 0.063
840 30762 0.108
841 6185 0.08
842 6184 0.144
843 13065 0.042
844 13067 0.036
845 30768 0.051
846 30760 0.018
847 30765 0.054
848 6266 0.058
849 30578 0.073
850 30579 0.057
851 30790 0.028
852 30587 0.062
853 30763 0.122
854 13043 0.094
855 6317 0.167
856 30638 0.131
857 28611 0.043
858 13029 0.062
859 30588 0.087
860 13021 0.081
861 30805 0.066
862 13022 0.051
863 6335 0.081
864 13020 0.079
865 6037 0.066
866 6115 0.168
867 28000 0.223
868 6267 0.168
869 6361 0.244
869 6386 0.339
870 28246 0.211
871 5967 0.274
872 16603 0.193
873 16584 0.287
874 6206 0.266
874 28001 0.24
875 6249 0.367
875 15738 0.309
876 6321 0.143
877 27996 0.148
878 11189 0.257
878 30520 0.114
879 6046 0.214
880 29196 0.068
881 5945 0.074
882 30407 0.108
883 14745 0.051
884 6342 0.261
885 6318 0.111
886 6076 0.201
887 16592 0.15
888 29197 0.091
889 6265 0.184
890 30384 0.289
890 30385 0.114
891 6216 0.233
892 29204 0.194
893 10821 0.256
894 10867 0.247
895 10822 0.266
896 10832 0.106
897 10844 0.219
898 10608 0.118
899 7904 0.086
900 6619 0.263
901 10837 0.433
902 29341 0.444
903 6452 0.916
904 6573 0.378
905 10344 0.079
906 10354 0.139
907 10540 0.158
908 7107 0.137
908 10539 0.222
909 10331 0.314
910 7091 0.605
911 10446 0.343
912 10337 0.264
913 10217 0.669
914 6475 1.722
915 6781 0.5
916 11033 0.33
917 10797 0.102
918 11032 0.143
919 7465 0.277
920 26145 0.088
921 26139 0.106
922 7329 0.115
923 7225 0.223
924 7257 0.113
925 26131 0.125
926 11048 0.25
926 11146 0.309
927 7450 0.533
928 7130 0.094
929 7210 0.113
930 7220 0.062
931 11082 0.276
932 11084 0.392
933 11067 0.082
934 7106 0.143
935 7167 0.176
936 7204 0.186
937 7196 0.171
938 7263 0.196
939 11085 0.289
940 10952 0.132
941 7233 0.2
942 29351 0.171
943 10988 0.189
944 10790 0.336
945 10766 0.24
946 11037 0.337
947 7510 0.281
948 7477 0.322
949 7513 0.264
950 7352 0.347
951 7432 0.229
952 10421 0.198
953 7457 0.236
954 10410 0.255
955 7300 0.173
956 31403 0.082
956 31404 0.083
957 7262 0.282
958 28193 0.042
959 7317 0.149
960 29353 0.252
961 7421 0.303
962 7426 0.322
963 8333 0.377
964 10916 0.163
965 7447 0.186
966 7358 0.224
967 7423 0.215
968 10633 0.228
969 7101 0.701
969 7202 0.71
969 7205 1.03
969 29350 0.68
970 6991 0.242
971 31245 0.143
972 7202 0.406
972 10682 0.305
973 10737 0.304
974 10719 0.33
975 10701 0.238
976 29349 0.413
977 10680 0.202
978 7293 0.262
979 29352 0.239
980 10641 0.198
980 10642 0.128
981 28705 0.129
982 29347 0.273
982 31208 0.42
982 31219 0.28
983 30217 0.157
984 10667 0.076
985 10623 0.204
986 10628 0.249
987 10620 0.449
988 31242 0.174
989 10595 0.16
990 10570 0.216
991 7274 0.213
992 7360 0.179
993 31205 0.367
994 7365 0.172
995 8331 0.129
996 10395 0.504
997 28910 0.615
998 10373 0.176
999 10384 0.139
1000 31241 0.151
1001 31250 0.091
1002 10507 0.127
1003 10450 0.281
1004 10530 0.478
1005 31239 0.213
1006 10454 0.082
1007 10369 0.251
1008 31214 0.389
1009 10489 0.068
1010 10517 0.087
1011 10467 0.116
1012 10445 0.187
1012 29065 0.197
1013 29338 0.523
1013 29340 0.227
1014 7188 0.276
1015 8361 0.276
1015 29066 0.321
1016 10437 0.178
1017 10441 0.102
1018 10193 0.27
1018 28698 0.316
1019 10329 0.148
1020 29391 0.325
1021 29390 0.213
1022 31230 0.564
1023 29457 0.242
1024 30383 0.283
1025 27411 0.217
1026 5725 0.17
1027 8144 0.137
1028 26327 0.211
1029 26349 0.234
1030 6058 0.075
1031 26375 0.066
1032 27372 0.18
1033 27358 0.556
1033 27378 0.313
1034 6026 0.271
1034 27381 0.285
1034 29194 0.282
1035 7903 0.125
1036 8149 0.226
1036 13853 0.494
1037 13840 0.215
1038 13844 0.33
1038 13861 0.295
1039 25690 0.226
1039 27364 0.109
1040 26167 0.137
1040 27409 0.446
1041 27345 0.175
1042 27367 0.434
1042 30412 0.162
1043 26160 0.105
1044 27392 0.17
1045 27276 0.205
1045 27278 0.197
1046 8198 0.433
1046 28391 0.103
1047 27336 0.209
1048 13880 0.124
1049 28396 0.097
1049 30410 0.088
1050 11141 0.264
1051 20604 0.258
1052 27420 0.362
1053 8321 0.33
1054 20618 0.285
1055 20596 0.341
1055 27327 0.146
1056 8200 0.071
1057 29191 0.173
1057 29192 0.504
1058 10129 0.324
1058 10134 0.151
1059 5975 0.452
1060 9946 0.343
1060 9968 0.133
1061 9964 0.227
1061 29388 0.235
1062 8317 0.187
1063 9952 0.207
1064 8305 0.482
1064 9911 0.565
1065 29179 0.212
1066 13501 0.076
1067 27445 0.064
1068 5577 0.555
1068 27450 0.198
1069 5301 0.073
1070 8191 0.419
1070 13480 0.392
1071 11536 0.289
1072 11576 0.2
1072 28866 0.25
1073 11621 0.17
1074 8156 0.057
1075 11682 0.172
1076 11529 0.186
1077 11607 0.096
1078 11582 0.222
1078 11636 0.231
1079 8190 0.093
1080 11687 0.166
1081 8262 0.213
1082 11555 0.202
1083 11560 0.05
1084 11585 0.139
1085 11660 0.125
1085 11661 0.074
1086 11729 0.11
1087 11730 0.059
1088 5689 0.066
1089 5136 0.152
1090 11549 0.331
1091 5332 0.094
1092 11334 0.31
1093 11349 0.262
1094 10162 0.333
1095 10171 0.247
1096 5091 0.31
1097 27324 0.119
1098 27431 0.155
1099 30394 0.104
1100 28034 0.162
1101 27308 0.124
1102 8209 0.074
1103 8280 0.149
1103 30373 0.314
1104 28041 0.071
1105 5765 0.274
1106 8303 0.207
1107 20581 0.212
1108 13782 0.288
1109 13790 0.454
1109 29187 0.4
1110 5975 0.489
1111 11372 0.287
1112 11410 0.27
1113 11414 0.315
1114 5723 0.271
1115 10155 0.235
1116 11399 0.116
1117 14666 0.227
1118 5698 0.411
1118 13785 0.185
1119 11365 0.142
1120 9926 0.264
1121 14673 0.22
1122 9994 0.168
1123 7877 0.453
1124 9875 0.253
1125 9985 0.132
1125 9987 0.125
1126 9854 0.15
1127 9774 0.203
1128 9885 0.346
1129 8295 0.459
1130 28688 0.533
1131 9447 0.453
1132 8296 0.244
1133 9665 0.283
1133 29181 0.229
1134 5781 0.35
1135 5388 0.51
1136 5460 0.289
1136 5539 0.292
1137 9754 0.118
1138 5460 0.183
1138 5566 0.215
1138 9743 0.362
1139 9700 0.233
1139 9704 0.313
1140 29189 0.459
1141 5626 0.226
1142 9655 0.301
1142 9658 0.183
1142 9686 0.553
1143 5389 0.383
1144 8283 0.129
1144 29461 0.125
1145 29180 0.29
1145 29387 0.171
1146 9614 0.215
1147 8219 0.106
1148 6171 0.242
1149 9377 0.367
1150 9603 0.211
1151 9681 0.158
1152 30216 0.066
1153 29367 0.212
1154 9627 0.359
1155 9508 0.411
1155 28889 0.423
1156 6017 0.354
1157 8323 0.191
1158 28683 0.18
1158 29386 0.248
1159 9579 0.242
1160 28891 0.221
1161 9420 0.1
1161 9421 0.137
1162 5671 0.643
1162 9559 0.544
1163 28887 0.257
1164 9492 0.123
1165 9415 0.215
1166 9412 0.203
1167 32936 0.406
1168 10002 0.123
1169 9322 0.305
1170 9325 0.414
1171 4562 0.988
1172 9287 0.283
1172 9294 0.32
1173 9305 0.446
1174 9230 0.445
1175 10054 0.297
1176 10031 0.18
1176 10032 0.291
1177 30215 0.066
1178 9214 0.146
1179 28676 0.341
1180 29385 0.429
1181 9819 0.254
1182 9815 0.084
1183 9192 0.247
1184 9232 0.512
1185 4881 0.527
1185 9234 0.862
1186 9198 0.401
1187 9806 0.231
1188 9145 0.543
1188 9156 0.296
1189 8268 0.15
1190 5282 0.206
1191 29368 1.077
1192 5162 0.352
1193 9105 0.254
1193 29155 0.619
1194 9138 0.321
1195 9169 0.23
1196 8267 0.32
1197 8346 0.841
1198 28660 0.288
1199 9083 0.363
1199 9161 0.452
1200 9122 0.328
1201 28647 0.715
1202 28645 0.267
1203 9056 0.125
1204 9334 0.501
1205 4760 0.369
1205 30398 0.206
1206 30077 0.047
1207 30214 0.137
1208 28632 0.675
1209 8969 0.443
1210 8947 0.084
1211 5639 0.305
1212 14054 0.138
1212 14056 0.21
1213 14707 0.27
1214 5554 0.064
1215 14722 0.189
1215 30380 0.165
1216 5385 0.226
1217 26381 0.092
1218 28349 0.106
1219 14725 0.167
1220 14733 0.174
1221 5878 0.199
1222 14439 0.27
1222 14444 0.177
1223 14734 0.316
1224 5526 0.101
1225 29623 0.091
1226 5597 0.118
1227 16529 0.077
1228 14427 0.246
1229 14417 0.036
1230 14583 0.04
1231 14531 0.242
1231 30376 0.209
1232 16533 0.532
1232 26367 0.267
1233 16572 0.279
1233 16576 0.175
1234 14354 0.139
1235 30878 0.074
1236 5400 0.194
1236 30370 0.172
1237 5598 0.539
1237 14604 0.473
1237 14610 0.497
1238 29182 0.3
1239 5988 0.255
1240 26185 0.204
1241 5256 0.269
1242 14412 0.102
1243 14554 0.324
1244 5756 0.325
1245 30220 0.092
1246 26304 0.263
1246 29406 0.295
1247 5239 0.198
1248 8154 0.126
1248 14367 0.249
1248 14505 0.099
1249 14401 0.093
1250 13639 0.322
1251 14563 0.094
1252 14630 0.192
1253 13409 0.157
1254 13394 0.298
1255 5166 0.424
1255 8181 0.255
1256 5410 0.641
1256 14591 0.195
1257 13433 0.119
1258 13496 0.286
1259 13366 0.161
1260 8182 0.522
1261 8452 0.393
1262 14768 0.353
1263 5093 0.384
1263 13600 0.528
1263 29161 0.485
1264 8766 0.093
1265 5185 0.259
1266 5093 0.355
1267 5085 0.346
1267 29407 0.311
1268 13568 0.339
1269 4834 0.349
1270 4993 0.201
1271 14490 0.367
1272 14454 0.181
1273 26886 0.11
1274 5006 0.104
1275 5045 0.095
1276 26306 0.158
1277 13728 0.208
1278 13564 0.072
1279 26175 0.158
1280 5011 0.155
1281 13543 0.103
1282 13559 0.246
1283 8167 0.238
1284 13244 0.417
1285 4631 0.263
1286 28843 0.2
1287 29152 0.293
1288 13690 0.149
1288 13696 0.073
1289 8762 0.332
1290 29151 0.435
1290 29153 0.54
1291 12604 0.161
1291 12608 0.309
1292 4703 0.195
1293 8736 0.128
1293 30366 0.386
1294 4897 0.245
1295 4945 0.382
1296 12624 0.357
1297 4734 0.615
1297 12630 0.609
1297 12641 0.104
1298 13688 0.105
1299 4675 0.315
1300 8031 0.25
1301 13677 0.061
1302 12580 0.188
1302 29357 0.258
1303 13321 0.24
1303 13326 0.137
1304 4960 0.191
1305 12592 0.199
1306 4713 0.265
1307 30367 0.155
1307 30391 0.159
1308 8016 0.248
1309 12556 0.817
1310 29365 0.369
1311 13225 0.334
1312 4834 0.34
1312 13217 0.343
1313 13227 0.194
1314 4810 0.335
1315 4607 0.23
1316 4811 0.438
1317 4609 0.517
1318 13086 0.231
1318 13098 0.225
1319 13232 0.593
1319 13744 0.358
1320 13100 0.294
1321 13096 0.483
1322 8132 0.133
1323 13141 0.309
1323 13143 0.307
1324 13234 0.239
1325 29405 0.236
1326 29150 0.712
1326 29366 0.478
1327 13154 0.147
1328 4896 0.182
1328 13148 0.398
1329 13255 0.175
1330 8135 0.202
1331 13178 0.145
1332 28859 0.201
1333 5018 0.281
1334 10291 0.091
1335 10299 0.078
1335 29392 0.076
1336 8212 0.302
1337 4953 0.335
1338 5025 0.238
1339 10276 0.283
1340 10094 0.266
1341 11477 0.289
1342 4781 0.332
1343 4232 0.477
1344 12001 0.211
1345 7998 0.281
1346 12222 0.185
1347 8003 0.259
1348 4303 0.342
1349 4546 0.439
1349 28370 0.573
1350 4204 0.392
1351 11777 0.542
1351 12018 0.567
1352 4304 0.333
1352 12244 0.22
1353 12712 0.11
1354 30075 0.097
1355 11754 0.264
1355 11766 0.191
1356 8001 0.382
1357 12262 0.286
1357 30346 0.269
1358 29403 0.066
1359 12708 0.075
1360 4475 0.412
1360 30399 0.314
1361 4540 0.158
1362 11773 0.282
1362 29139 0.677
1363 7953 0.151
1364 7952 0.309
1364 12265 0.29
1365 29434 0.161
1366 12723 0.319
1367 12264 0.34
1367 29146 0.307
1368 8013 0.405
1369 4530 0.325
1370 4183 0.346
1371 11919 0.236
1372 11922 0.284
1373 4305 0.307
1373 29400 0.213
1374 29402 0.257
1375 29144 0.463
1376 12357 0.404
1377 4164 0.257
1378 4187 0.319
1379 11936 0.26
1380 8004 0.099
1381 12349 0.157
1382 7964 0.145
1383 12373 0.174
1384 11915 0.37
1385 12383 0.29
1386 11880 0.265
1387 12088 0.119
1388 11951 0.423
1389 4300 0.366
1389 29358 0.461
1390 29359 0.322
1390 30392 0.435
1391 29401 0.322
1392 12090 0.217
1393 3904 0.491
1394 12080 0.352
1395 19395 0.665
1396 29127 0.317
1397 12074 0.119
1397 16930 0.308
1398 3874 0.665
1399 4138 0.458
1400 12014 0.211
1401 12015 0.084
1402 19420 0.351
1403 12031 0.389
1403 29396 0.224
1404 4111 0.209
1405 32777 0.119
1406 29395 0.248
1406 29397 0.164
1407 12493 0.265
1408 7985 0.338
1409 12048 0.21
1410 7990 0.195
1411 19401 0.571
1411 29433 0.599
1412 19455 0.298
1413 7982 0.361
1414 19445 0.296
1415 11968 0.257
1416 11794 0.222
1417 11814 0.164
1418 29132 0.184
1419 12477 0.18
1420 8040 0.285
1421 11805 0.308
1421 29356 0.157
1422 11823 0.367
1423 29363 0.229
1424 29361 0.223
1425 11832 0.308
1425 11838 0.228
1426 20484 0.215
1427 22822 0.281
1428 8105 0.272
1429 12539 0.28
1430 8068 0.394
1431 12141 0.423
1432 12157 0.283
1432 28714 0.329
1433 12173 0.278
1434 29143 0.35
1435 29398 0.371
1436 12121 0.363
1437 12189 0.16
1438 12188 0.206
1438 27831 0.146
1438 30333 0.181
1439 12174 0.228
1439 12186 0.411
1440 12535 0.396
1440 30345 0.675
1441 27799 0.36
1441 27815 0.342
1442 4160 0.283
1443 12186 0.289
1443 30344 0.184
1444 4398 0.256
1445 4410 0.45
1446 4052 0.447
1447 4212 0.22
1448 27839 0.11
1449 30266 0.059
1450 12288 0.328
1450 12291 0.397
1451 29619 0.513
1452 12205 0.315
1452 12207 0.254
1453 22849 0.251
1454 8067 0.325
1455 22886 0.455
1455 29071 0.632
1456 22920 0.304
1457 12303 0.237
1458 12302 0.424
1459 8070 0.318
1460 8126 0.425
1461 12300 0.317
1462 28120 0.301
1463 4076 0.238
1464 12317 0.338
1465 22892 0.258
1465 29439 0.65
1466 20490 0.265
1467 28126 0.17
1468 22907 0.126
1469 4237 0.304
1470 12326 0.138
1471 8101 0.268
1472 20509 0.607
1472 20515 0.529
1473 11154 0.282
1473 12331 0.203
1474 12332 0.123
1475 11151 0.211
1476 29394 0.065
1477 10013 0.138
1478 4223 3.371
1478 4396 0.406
1479 8057 0.967
1480 19495 0.332
1481 19496 0.101
1482 27778 0.465
1483 19504 0.358
1484 29095 1.196
1485 29119 0.525
1485 29364 0.187
1486 28185 0.599
1487 22824 0.344
1487 29362 0.589
1488 3770 0.828
1489 29116 0.609
1490 12508 0.384
1491 12398 0.293
1491 27812 0.171
1492 3884 0.644
1493 12513 0.252
1494 3685 1.1
1495 12519 0.178
1496 3561 0.617
1497 3876 0.424
1498 8088 0.455
1499 29467 0.28
1500 19566 0.439
1501 19581 0.32
1502 29094 1.655
1503 29383 1.184
1504 27851 0.469
1505 19573 0.396
1506 29121 0.668
1507 22953 0.953
1508 29118 0.494
1509 19547 0.64
1510 12466 0.411
1510 12470 0.385
1511 3845 0.39
1512 12457 0.278
1513 12432 0.202
1514 4043 0.319
1514 22897 0.387
1515 8064 0.35
1516 3978 0.765
1516 8083 0.509
1516 12452 0.738
1517 4032 0.242
1517 29122 0.516
1518 3923 1.078
1518 12442 1.153
1519 22946 0.851
1520 20523 0.616
1520 29124 0.76
1521 19718 0.085
1522 26851 0.494
1523 8434 0.902
1524 29082 0.196
1525 19723 0.159
1526 19826 0.867
1527 19701 0.383
1527 30355 0.107
1528 19692 0.138
1528 30334 0.142
1529 29435 0.111
1530 29110 0.589
1531 3942 0.179
1532 19824 0.154
1533 29083 0.098
1534 4014 0.254
1534 4033 0.305
1535 20012 0.533
1536 19749 0.346
1536 30364 0.464
1537 19678 0.388
1538 29108 0.354
1539 19799 0.218
1539 19802 0.279
1540 19790 0.164
1540 19804 0.469
1541 19965 0.052
1542 19930 0.071
1543 19784 0.245
1544 19834 0.132
1545 19999 0.262
1546 19991 0.089
1547 19975 0.097
1548 19876 0.181
1548 19879 0.336
1549 19954 0.201
1550 19859 0.226
1551 19868 0.114
1551 19883 0.142
1552 20010 0.706
1553 20052 0.291
1554 30225 0.102
1555 3903 0.137
1556 19905 0.236
1557 20044 0.115
1558 20114 0.699
1558 30362 0.499
1559 19892 0.027
1560 20054 0.526
1561 20057 0.318
1562 3726 0.915
1563 20066 0.08
1564 19924 0.154
1565 20136 0.252
1566 3829 0.123
1567 20110 0.214
1567 20124 0.291
1568 20076 0.248
1569 20098 0.254
1570 26826 0.279
1571 3764 0.078
1572 3769 0.054
1573 20192 0.06
1574 20155 0.025
1575 20139 0.251
1576 28005 0.264
1577 3782 0.265
1578 20169 0.071
1579 20147 0.098
1580 30226 0.219
1581 28009 0.129
1581 30226 0.261
1582 20343 0.292
1583 20278 0.265
1584 20325 0.18
1585 20338 0.226
1586 20306 0.12
1587 20199 0.076
1588 3643 1.421
1589 20271 0.131
1590 20297 0.039
1591 11179 0.156
1592 28016 0.366
1593 20316 0.334
1594 11177 0.346
1595 28022 0.221
1596 11175 0.371
1597 8338 0.199
1598 20227 0.391
1599 3809 5.14
1600 3681 1.451
1601 3669 0.781
1602 3565 0.415
1603 8574 0.703
1604 22934 0.47
1605 26867 1.038
1606 3545 1.617
1607 26868 0.428
1608 8489 0.251
1609 3545 0.86
1610 3728 0.11
1611 23014 0.203
1612 3489 2.29
1613 3555 1.6
1614 23017 0.98
1615 3419 0.816
1616 20476 0.886
1617 20479 0.474
1618 20470 0.588
1619 3600 1.22
1620 3490 0.893
1621 29100 0.59
1622 20482 0.337
1623 3567 0.64
1624 29103 0.279
1625 20367 0.422
1626 10239 0.763
1627 20438 0.135
1627 30228 0.331
1628 20434 0.331
1629 20419 0.311
1630 20396 0.123
1631 20363 0.129
1632 27877 0.083
1633 20385 0.757
1633 20411 0.301
1634 30227 0.143
1635 20457 0.804
1636 20388 0.24
1637 20453 0.2
1638 22994 0.326
1639 3569 0.793
1640 8737 0.403
1641 3549 0.956
1642 20383 1.239
1643 3418 0.838
1644 20460 0.501
1645 22988 0.249
1646 26861 0.186
1647 3319 5.487
1647 8561 2.51
1648 3304 14.615
1648 3309 19.094999
1649 27860 0.517
1650 3417 2.395
1651 3541 0.654
1652 3324 1.438
1653 26825 0.8
1654 3366 0.972
1655 3317 9.371
1656 3518 0.718
1657 3375 1.224
1658 3861 2.615
1659 28024 2.377
1660 26793 0.736
1661 27896 1.915
1662 3519 0.656
1663 28482 0.13
1664 28480 0.098
1665 30510 0.049
1666 30510 0.078
1667 30483 0.069
1667 30500 0.059
1668 28470 0.065
1668 30500 0.069
1669 30509 0.059
1670 30508 0.063
1671 30484 0.064
1672 30682 0.108
1673 14048 0.135
1674 30488 0.116
1675 14050 0.082
1676 14049 0.118
1677 5879 0.15
1678 30482 0.089
1679 14025 0.125
1680 30625 0.032
1681 14025 0.23
1681 14045 0.146
1682 14042 0.098
1683 6020 0.119
1684 14039 0.083
1685 14039 0.086
1685 14041 0.098
1686 14038 0.148
1687 6125 0.332
1688 6131 0.099
1689 30582 0.15
1690 15497 0.076
1691 30580 0.224
1692 30547 0.056
1693 28478 0.1
1694 6049 0.27
1695 6009 0.072
1696 30626 0.089
1697 5985 0.08
1698 30754 0.078
1699 14036 0.17
1700 30642 0.1
1701 30683 0.129
1702 30581 0.07
1703 30544 0.1
1704 30548 0.058
1705 14037 0.074
1706 30909 0.074
1707 30747 0.081
1708 5969 0.051
1709 14023 0.19
1710 30908 0.13
1711 14026 0.054
1712 5913 0.117
1713 14022 0.08
1714 6050 0.105
1715 14034 0.049
1716 6032 0.138
1716 30911 0.166
1717 5813 0.06
1718 16617 0.092
1719 5752 0.368
1720 28203 0.116
1721 30917 0.117
1722 16649 0.111
1723 13981 0.111
1724 13970 0.024
1725 16622 0.167
1726 30939 0.14
1727 13977 0.095
1728 5893 0.088
1729 16623 0.04
1730 13983 0.136
1731 5812 0.113
1732 14016 0.061
1733 13960 0.044
1734 16650 0.087
1735 30745 0.122
1736 5990 0.111
1737 14019 0.15
1738 13965 0.033
1739 30624 0.075
1740 30902 0.05
1741 30356 0.139
1742 30356 0.271
1743 30357 0.097
1744 5425 0.085
1745 30342 0.202
1746 5430 0.298
1747 14347 0.266
1748 20679 0.137
1749 30919 0.284
1750 26236 0.131
1751 29167 0.09
1752 30078 0.363
1752 30349 0.425
1752 31400 0.085
1753 20676 0.147
1754 30948 0.125
1755 30946 0.148
1756 30918 0.165
1757 5429 0.17
1758 16675 0.069
1759 5714 0.178
1760 30620 0.066
1761 30619 0.081
1762 16676 0.086
1763 30558 0.07
1764 30684 0.119
1765 30685 0.225
1766 30371 0.152
1767 30613 0.192
1768 14346 0.18
1769 5511 0.265
1770 16656 0.174
1771 16661 0.062
1772 16669 0.153
1773 30617 0.057
1774 14351 0.078
1775 30730 0.185
1776 30941 0.159
1777 20669 0.083
1778 5628 0.107
1779 30618 0.132
1780 16662 0.086
1781 20671 0.109
1782 16646 0.066
1783 16639 0.119
1784 16648 0.118
1785 16640 0.085
1786 16644 0.074
1787 30940 0.206
1788 30559 0.073
1789 5402 0.138
1790 14338 0.164
1791 14335 0.131
1792 30615 0.102
1793 14332 0.113
1794 28247 0.068
1795 14337 0.052
1796 30729 0.066
1797 30374 0.077
1798 30975 0.08
1799 14331 0.226
1800 5446 0.117
1801 30734 0.057
1802 5565 0.144
1803 14256 0.281
1804 30735 0.146
1805 5593 0.083
1806 30614 0.112
1807 16637 0.064
1808 16629 0.051
1809 5627 0.185
1809 16627 0.062
1810 14262 0.093
1811 14350 0.055
1812 5661 0.082
1813 30377 0.062
1814 5472 0.129
1815 16613 0.095
1816 5762 0.053
1817 5809 0.28
1818 13976 0.107
1819 30621 0.07
1820 13939 0.056
1821 5998 0.029
1822 8802 0.213
1822 13946 0.106
1823 8854 0.118
1824 14116 0.113
1825 13952 0.137
1826 14122 0.048
1827 26978 0.122
1828 8807 0.093
1829 30742 0.078
1830 13955 0.107
1831 5981 0.231
1832 13951 0.264
1833 30746 0.099
1834 5763 0.128
1835 8852 0.095
1836 14835 0.164
1837 6038 0.151
1838 13928 0.081
1839 13936 0.215
1840 14091 0.053
1841 13941 0.145
1842 5770 0.06
1843 14111 0.052
1844 14104 0.046
1845 5827 0.06
1846 14097 0.031
1847 30741 0.055
1848 30080 0.059
1848 30400 0.058
1849 14119 0.104
1850 14113 0.052
1851 30744 0.037
1852 14124 0.076
1853 5826 0.086
1854 30916 0.086
1855 13989 0.076
1856 5917 0.171
1857 13931 0.086
1858 8805 0.084
1859 8806 0.097
1860 8803 0.09
1861 5845 0.069
1862 8856 0.078
1863 13924 0.082
1864 16524 0.126
1865 30622 0.099
1866 29193 0.206
1867 6004 0.05
1868 6014 0.09
1869 30751 0.071
1870 6015 0.108
1871 8858 0.067
1872 5747 0.225
1873 5805 0.08
1874 5832 0.11
1875 5866 0.096
1876 5901 0.139
1877 5867 0.076
1878 5928 0.11
1879 5869 0.066
1880 30586 0.129
1881 5930 0.095
1882 30686 0.054
1883 30915 0.076
1884 14101 0.036
1885 13903 0.072
1886 5993 0.019
1887 14103 0.049
1888 16525 0.037
1889 30750 0.023
1890 30749 0.038
1891 6012 0.187
1892 13907 0.075
1893 8679 0.11
1894 14273 0.058
1895 14277 0.085
1896 30732 0.081
1897 29040 0.112
1898 30731 0.08
1899 30739 0.106
1900 14265 0.112
1901 30736 0.089
1902 30738 0.07
1903 30737 0.103
1904 5602 0.17
1904 14283 0.072
1904 30011 0.051
1905 30341 0.059
1906 16612 0.188
1907 14326 0.175
1908 8851 0.073
1909 14269 0.068
1910 14231 0.054
1911 30733 0.152
1912 5471 0.13
1913 14216 0.102
1914 14235 0.065
1915 14233 0.075
1916 5591 0.141
1917 14225 0.034
1918 30977 0.098
1918 30978 0.036
1919 14218 0.104
1919 30401 0.09
1920 14280 0.075
1920 29032 0.27
1921 5703 0.196
1922 14279 0.071
1923 14834 0.172
1924 30616 0.083
1925 30378 0.09
1926 14314 0.134
1927 5692 0.189
1928 5624 0.315
1928 5644 0.205
1929 14822 0.104
1930 14145 0.182
1931 14198 0.083
1932 14321 0.202
1933 29084 0.375
1934 32842 0.258
1935 29072 0.303
1935 32843 0.284
1936 14324 0.076
1937 14310 0.078
1938 5367 0.099
1939 30725 0.054
1940 30584 0.112
1941 16689 0.12
1942 16721 0.102
1943 16708 0.284
1944 5228 0.084
1945 16718 0.067
1946 30583 0.11
1947 29033 0.106
1948 16716 0.074
1949 30408 0.148
1950 14278 0.149
1951 14251 0.129
1952 30727 0.06
1953 16698 0.086
1954 16710 0.145
1955 14252 0.096
1956 14242 0.101
1956 14292 0.141
1957 5420 0.109
1958 14239 0.146
1959 14209 0.143
1960 14248 0.048
1961 14300 0.046
1962 31401 0.03
1963 16684 0.56
1964 16729 0.195
1965 5369 0.255
1965 16739 0.157
1966 14214 0.246
1967 14802 0.079
1968 5379 0.401
1969 8768 0.098
1970 5375 0.191
1971 13627 0.471
1972 8771 0.187
1973 5145 0.205
1974 26221 0.128
1975 30726 0.084
1976 20720 0.165
1977 30953 0.137
1978 20719 0.264
1979 20730 0.313
1980 20727 0.08
1981 30986 0.126
1982 20736 0.066
1983 20732 0.069
1984 20747 0.111
1985 30957 0.09
1986 30959 0.177
1987 20742 0.137
1988 29160 0.267
1989 30562 0.068
1990 30709 0.117
1991 30562 0.132
1991 31402 0.079
1992 30713 0.07
1993 5013 0.08
1994 30567 0.074
1995 22789 0.228
1996 26911 0.067
1997 22781 0.119
1998 30958 0.123
1999 30572 0.038
2000 29438 0.152
2001 29370 0.194
2002 20758 0.154
2003 30710 0.122
2004 26910 0.203
2004 30563 0.096
2005 30415 0.089
2006 22786 0.124
2007 30716 0.099
2008 30714 0.057
2009 22801 0.086
2010 30566 0.08
2011 22802 0.094
2012 30568 0.111
2013 30717 0.092
2014 20706 0.517
2014 28225 0.157
2015 12886 0.078
2016 30218 0.077
2017 4970 0.23
2017 20575 0.103
2017 30322 0.124
2018 30564 0.122
2019 30565 0.081
2020 26907 0.109
2021 5008 0.117
2022 29162 0.149
2023 5040 0.176
2024 30720 0.095
2025 5109 0.129
2026 5144 0.136
2027 29162 0.303
2027 30369 0.447
2028 8406 0.585
2028 20708 0.366
2029 30570 0.06
2030 20702 0.219
2030 30723 0.4
2031 30571 0.045
2032 30724 0.055
2033 12863 0.149
2034 12897 0.193
2034 30390 0.104
2035 30715 0.224
2036 28863 0.212
2037 30569 0.058
2038 20692 0.177
2039 5108 0.219
2040 20686 0.053
2041 30719 0.113
2042 20687 0.1
2043 30721 0.132
2044 4943 0.264
2045 5024 0.1
2046 20690 0.085
2047 30949 0.084
2048 29163 0.278
2049 12879 0.244
2050 12911 0.217
2051 5056 0.168
2052 5095 0.151
2053 20765 0.862
2053 29416 0.387
2054 30396 0.541
2055 13706 0.197
2055 29374 0.153
2056 4957 0.256
2057 13619 0.664
2057 26904 0.174
2058 23348 0.084
2059 14907 0.206
2059 14909 0.14
2060 14885 0.35
2061 15248 0.216
2062 14888 0.51
2062 29409 0.219
2063 14937 0.218
2064 29413 0.099
2065 15236 0.229
2066 14889 0.319
2066 14919 0.364
2067 16108 0.431
2067 16232 0.422
2068 16090 0.472
2068 16108 0.393
2069 29165 0.308
2070 16082 0.145
2070 16086 0.164
2071 16073 0.322
2071 29411 0.4
2072 30368 0.282
2073 16063 0.363
2074 15262 0.337
2075 16078 0.153
2075 30406 0.268
2076 8658 0.422
2077 15301 0.262
2078 15286 0.196
2078 15288 0.186
2079 15223 0.22
2080 5190 0.261
2081 16351 0.259
2082 8423 0.08
2083 4727 0.236
2084 4568 0.562
2084 4606 0.286
2084 17362 0.498
2084 17363 0.525
2084 17394 0.386
2085 16390 0.076
2086 16382 0.058
2087 16363 0.058
2088 16377 0.047
2089 16394 0.085
2090 4720 0.163
2091 30696 0.157
2092 16321 0.097
2093 4816 0.092
2094 16403 0.169
2095 30922 0.12
2096 16393 0.079
2097 16372 0.047
2098 4866 0.21
2099 30703 0.07
2100 4605 0.236
2101 16410 0.062
2102 16397 0.038
2103 16398 0.21
2104 16392 0.143
2105 16413 0.129
2106 4768 0.096
2107 4815 0.082
2108 28733 0.124
2109 16422 0.094
2110 16401 0.062
2111 16342 0.134
2112 16342 0.28
2113 16331 0.055
2114 30693 0.092
2114 30694 0.188
2114 30695 0.155
2115 4676 0.195
2116 4718 0.065
2117 4717 0.067
2118 26210 0.064
2119 26209 0.047
2120 26215 0.065
2121 29159 0.184
2122 30883 0.183
2123 4831 0.181
2124 8642 0.25
2125 15278 0.161
2126 15272 0.141
2127 15280 0.114
2128 30921 0.045
2129 4764 0.09
2130 4765 0.108
2131 22766 0.052
2132 4741 0.058
2133 4747 0.082
2134 4708 0.087
2135 4694 0.064
2136 4708 0.131
2136 4715 0.147
2136 28090 0.106
2136 30321 0.131
2137 4715 0.112
2138 26214 0.071
2139 4804 0.079
2140 4835 0.105
2140 29158 0.095
2141 30704 0.05
2142 30705 0.07
2143 4879 0.137
2144 4668 0.098
2145 30692 0.096
2146 22760 0.12
2147 29473 0.112
2148 22744 0.068
2149 4707 0.139
2150 22764 0.058
2151 30574 0.043
2152 4772 0.197
2152 22749 0.181
2153 28361 0.026
2154 4793 0.097
2155 4851 0.117
2156 4846 0.113
2157 4829 0.124
2157 22723 0.123
2158 22722 0.071
2159 30575 0.103
2160 28364 0.14
2161 4976 0.747
2162 30707 0.372
2163 30706 0.177
2164 4892 0.152
2165 4874 0.074
2166 4870 0.104
2167 30560 0.066
2168 30576 0.099
2169 4818 0.128
2170 30561 0.041
2171 27268 0.036
2172 4873 0.146
2173 30698 0.125
2174 16782 0.182
2174 29073 0.199
2175 4660 0.14
2176 30687 0.062
2177 20569 0.077
2178 4702 0.329
2179 16780 0.316
2179 20572 0.19
2180 30697 0.164
2181 22735 0.109
2182 22771 0.116
2183 4806 0.139
2184 4743 0.276
2185 29157 0.107
2186 16756 0.082
2187 16768 0.326
2188 30702 0.132
2189 4819 0.113
2190 30688 0.102
2191 16785 0.373
2191 22780 0.366
2192 7954 0.173
2193 16757 0.149
2194 16839 0.171
2195 12960 0.079
2196 8023 0.196
2196 12955 0.236
2197 16833 0.263
2198 4714 0.281
2199 12770 0.208
2200 17450 0.244
2201 17619 0.112
2202 4548 0.242
2203 17740 0.387
2204 17431 0.216
2205 4361 0.263
2206 17221 0.237
2207 4632 0.178
2208 17219 0.166
2209 8456 0.132
2210 17213 0.186
2211 8606 0.296
2212 17349 0.363
2212 17355 0.14
2213 17199 0.178
2214 4479 0.207
2215 19614 0.131
2216 17361 0.153
2217 8596 0.204
2218 17082 0.576
2218 17160 0.488
2219 17085 0.296
2219 17170 0.269
2220 4377 0.131
2221 4373 0.083
2222 17079 0.217
2222 19619 0.095
2223 4477 0.155
2224 30076 0.132
2225 4592 0.25
2226 17336 0.603
2227 17049 0.246
2228 17381 0.226
2229 8461 0.104
2230 17061 0.505
2230 29074 0.267
2231 17016 0.308
2232 8618 0.215
2233 4192 0.979
2234 17122 0.15
2235 17155 0.211
2236 4617 0.182
2237 4292 0.63
2237 17005 0.496
2238 17005 0.259
2238 29420 0.163
2239 17009 0.105
2240 4414 0.263
2240 17026 0.175
2241 17033 0.103
2242 17101 0.225
2243 30690 0.163
2244 27257 0.168
2245 22768 0.118
2246 27255 0.071
2247 27258 0.213
2248 4517 0.106
2248 16896 0.376
2249 8614 0.132
2250 16971 0.268
2251 17039 0.456
2252 16910 0.455
2253 16879 0.126
2254 4625 0.09
2255 20554 0.243
2255 20556 0.048
2255 28118 0.216
2256 29419 0.379
2257 16913 0.165
2258 17181 0.281
2259 16920 0.731
2259 29145 0.652
2259 29418 0.056
2260 12982 0.238
2261 4495 0.246
2262 29404 0.234
2263 4483 0.271
2264 16818 0.292
2265 29075 0.314
2265 29373 0.283
2266 3581 1.281
2267 8556 0.31
2268 20826 0.442
2268 26672 0.425
2269 3670 0.753
2270 27951 0.464
2271 19085 0.17
2272 18897 0.284
2273 18881 0.159
2274 28614 0.427
2275 8415 0.144
2276 18861 0.07
2277 8414 0.144
2278 8417 0.202
2279 18598 0.506
2279 29105 0.512
2280 18587 0.236
2280 18597 0.372
2281 3535 0.293
2282 8432 0.338
2283 18970 0.252
2283 18990 0.231
2284 18811 0.349
2285 18997 0.208
2286 18846 0.433
2286 18847 0.789
2287 3654 0.168
2288 3638 0.14
2289 18641 0.11
2290 18604 0.185
2291 29085 0.295
2292 29426 0.136
2293 18613 0.279
2293 18614 0.24
2294 3571 0.484
2295 18828 0.342
2296 3652 0.447
2297 18658 0.221
2298 19293 0.569
2299 3708 0.226
2300 18671 0.233
2301 18801 0.419
2302 29427 0.358
2303 3528 0.575
2304 18849 0.782
2304 19210 0.928
2305 18717 0.271
2306 18738 0.256
2307 7948 0.358
2308 18772 0.197
2309 18721 0.164
2310 19227 0.951
2311 29106 0.467
2312 18776 0.8
2312 29107 1.301
2313 29102 1.347
2314 3378 0.993
2315 20838 0.654
2316 20834 0.446
2317 29378 0.58
2318 19093 0.578
2319 19087 0.294
2320 29097 0.516
2321 19069 0.224
2322 19054 0.183
2323 8481 0.409
2323 19081 0.155
2324 18955 0.413
2324 29101 0.193
2325 25931 0.264
2326 26042 0.825
2326 29098 0.714
2326 29099 0.603
2327 3399 0.585
2328 3445 0.397
2329 19064 0.213
2329 29428 0.302
2330 25934 0.25
2331 26041 0.239
2331 26042 0.337
2332 29456 0.259
2333 19129 0.333
2333 27956 0.128
2334 25996 0.215
2335 27182 0.291
2336 3455 0.157
2337 30073 0.154
2337 30233 0.108
2338 3398 0.28
2338 25944 0.179
2339 25973 0.168
2340 3473 0.249
2341 19163 0.106
2341 31609 0.125
2342 25960 0.167
2343 3423 0.412
2344 19295 0.155
2345 19017 0.194
2346 19173 0.108
2347 19181 0.25
2348 19283 0.207
2349 19185 0.254
2350 19274 0.258
2350 19275 0.156
2351 31588 0.061
2352 19228 0.28
2353 28616 0.239
2353 29432 0.303
2354 29429 0.353
2355 29431 0.347
2356 19234 0.193
2357 29430 1.003
2358 3412 0.524
2359 19218 2.119
2360 3307 6.642
2361 25619 0.983
2362 25627 0.61
2363 25775 0.624
2364 25631 0.626
2365 25819 0.683
2366 29453 0.715
2367 26285 0.616
2368 25834 0.751
2369 3355 2.086
2370 27925 0.484
2371 26273 0.284
2372 3306 0.904
2373 25802 0.476
2374 26251 0.4
2374 29455 0.469
2375 25872 0.229
2376 25855 0.141
2377 27134 0.623
2377 28187 0.831
2378 28387 0.309
2379 25768 0.386
2380 28065 0.11
2381 29042 0.666
2382 27908 0.308
2383 25787 0.832
2384 27166 0.418
2385 25779 0.389
2386 25905 0.399
2387 25783 0.659
2388 27717 0.885
2388 27724 0.702
2389 25893 0.506
2390 29092 0.401
2391 3367 0.603
2392 8830 0.377
2393 28981 0.397
2394 28976 0.165
2395 3314 1.885
2396 4628 5.198
2397 3383 5.341
2398 3760 3.824
2399 20883 2.399
2400 29096 2.562
2401 20994 1.234
2402 20939 0.473
2403 20869 0.919
2404 21004 0.817
2405 7838 1.01
2406 3513 0.297
2407 3661 0.614
2408 21019 0.322
2409 4156 1.637
2410 20845 1.927
2410 26663 1.528
2411 3595 0.157
2412 3607 0.163
2412 3609 0.169
2412 3612 0.157
2412 26642 0.1
2413 26638 0.059
2414 20839 1.088
2414 20905 1.39
2415 29458 0.22
2416 26635 0.312
2417 26634 0.064
2418 26633 0.154
2419 26654 1.076
2419 29104 0.845
2420 26581 0.29
2421 26610 0.283
2422 3979 0.753
2423 21078 0.385
2424 21093 0.372
2425 21056 0.164
2426 29093 1.15
2427 21047 0.065
2428 8378 0.453
2429 28054 0.249
2430 8757 0.263
2431 8589 0.371
2432 17929 0.101
2433 17343 0.106
2434 17315 0.193
2435 17888 0.227
2436 17952 0.175
2437 17937 0.368
2437 17943 0.259
2438 17965 0.255
2439 17289 0.209
2440 4268 0.362
2441 17293 0.37
2442 4326 0.26
2442 17650 0.407
2443 17852 0.233
2444 27982 0.19
2445 17860 0.162
2445 17861 0.299
2446 4093 0.228
2447 29076 0.172
2448 4145 0.183
2448 27973 0.122
2449 17306 0.212
2450 17301 0.188
2450 29469 0.33
2451 4331 0.335
2452 17615 0.642
2452 17699 0.382
2453 17835 0.331
2454 27964 0.209
2455 28621 0.101
2456 4224 0.175
2457 17695 0.146
2458 17694 0.111
2459 17801 0.203
2460 28740 0.273
2460 30070 0.25
2461 17758 0.127
2462 17688 0.242
2463 17839 0.258
2464 17774 0.447
2464 29131 0.266
2465 29140 0.298
2466 4316 0.326
2467 17812 0.353
2468 4110 0.348
2468 17795 0.342
2469 17725 0.3
2469 17777 0.319
2470 17743 0.27
2471 17671 0.301
2472 17731 0.312
2473 17705 0.223
2474 17730 0.2
2475 17715 0.235
2476 17253 0.242
2477 3966 1.211
2477 29086 0.396
2478 4192 1.041
2479 18532 0.185
2480 31618 0.225
2481 18506 0.177
2482 18505 0.222
2483 18366 0.303
2484 18479 0.303
2485 3767 0.333
2485 18465 0.55
2486 18352 0.419
2486 18464 0.414
2486 18472 0.449
2487 18352 0.368
2487 18359 0.333
2488 3891 0.297
2489 18483 0.311
2490 18100 0.331
2491 18559 0.378
2492 18443 0.473
2492 18458 0.637
2493 29115 0.429
2494 18348 0.517
2494 18442 0.251
2495 3851 0.346
2495 18324 0.706
2496 18346 0.12
2497 3882 0.595
2498 18437 0.32
2499 18425 0.242
2500 18429 0.371
2500 30352 0.078
2501 3869 0.379
2502 3908 0.284
2503 8584 0.556
2504 18407 0.201
2505 3790 0.259
2505 3810 0.246
2505 18421 0.287
2506 3817 0.306
2506 30353 0.088
2506 30360 0.267
2507 18317 0.35
2508 18300 0.223
2509 3761 0.296
2510 18286 0.265
2510 18298 0.503
2511 17897 0.123
2512 29113 0.295
2513 3899 0.283
2514 18390 0.24
2515 18264 0.393
2516 18247 0.216
2517 18237 0.539
2517 18254 0.264
2518 28190 0.587
2519 29422 0.539
2520 29384 0.601
2521 3944 0.331
2522 29117 0.385
2523 3895 0.957
2524 3962 0.401
2525 31277 0.593
2526 19599 0.353
2527 18891 0.726
2528 19605 0.394
2529 8721 0.258
2530 20809 0.186
2531 19589 0.348
2532 18207 0.214
2533 18201 0.315
2534 25464 0.484
2535 3854 0.574
2536 19586 0.089
2537 18220 0.536
2538 18197 0.363
2538 18199 0.312
2539 18197 0.239
2540 28352 0.309
2541 25466 0.425
2542 3683 0.785
2543 8552 0.457
2544 3683 0.695
2545 18388 0.205
2546 28742 0.404
2547 18181 0.393
2548 25475 0.241
2549 20783 0.614
2550 25480 0.242
2551 25474 0.175
2552 28784 1.035
2553 4132 0.245
2554 25488 0.258
2555 18145 0.229
2556 8592 0.237
2557 18150 0.233
2558 18115 0.232
2559 18011 0.165
2559 29425 0.442
2560 18000 0.277
2560 18001 0.463
2561 18001 0.067
2562 18141 0.309
2563 17917 0.205
2564 4019 0.304
2565 29130 0.309
2566 4065 0.283
2567 17989 0.596
2567 28783 0.298
2568 17990 0.123
2568 17991 0.112
2569 31355 0.546
2569 31375 0.21
2570 29129 0.348
2571 17628 0.134
2572 28830 0.414
2573 4335 0.167
2574 7253 0.272
2575 15910 0.249
2576 15859 0.244
2577 29348 0.181
2578 15892 0.11
2579 15789 0.254
2580 15886 0.16
2581 15768 0.293
2582 7175 0.378
2583 15814 0.116
2584 7207 0.057
2585 30475 0.076
2586 15821 0.056
2587 15821 0.128
2588 30468 0.052
2589 15838 0.15
2589 30474 0.073
2590 15840 0.093
2590 30471 0.081
2591 15838 0.05
2591 30469 0.066
2592 30470 0.074
2593 15795 0.196
2594 15810 0.423
2594 15837 0.173
2595 6581 0.129
2595 6615 0.137
2596 6887 0.235
2597 15974 0.267
2598 15919 0.263
2599 6613 0.1
2600 6681 0.106
2601 6656 0.066
2602 26126 0.167
2603 6858 0.18
2604 15965 0.126
2605 15948 0.19
2606 16013 0.056
2607 15724 0.088
2608 6766 0.171
2609 15719 0.091
2610 28580 0.157
2611 7065 0.2
2612 29026 0.052
2613 28280 0.393
2614 29210 0.135
2615 16020 0.115
2616 6813 0.115
2617 15979 0.118
2618 7136 0.235
2619 28728 0.239
2620 15712 0.208
2621 15731 0.038
2622 30324 0.055
2623 16011 0.076
2623 30309 0.055
2624 30329 0.095
2625 30310 0.037
2625 30326 0.062
2626 6873 0.115
2627 30327 0.028
2627 30541 0.025
2628 30327 0.044
2629 6915 0.139
2630 30486 0.051
2631 30462 0.038
2632 15987 0.081
2633 15983 0.096
2633 15989 0.064
2634 7070 0.085
2635 30465 0.038
2636 30463 0.037
2637 30463 0.125
2638 30464 0.057
2639 15711 0.091
2640 15995 0.13
2640 29078 0.123
2641 30485 0.082
2642 30478 0.064
2643 30499 0.073
2644 16006 0.032
2644 30497 0.077
2645 6957 0.073
2646 30515 0.064
2647 28730 0.047
2648 15846 0.067
2649 28589 0.067
2649 30512 0.053
2650 15849 0.034
2651 15849 0.077
2651 28590 0.211
2652 30514 0.043
2653 15716 0.095
2654 27739 0.104
2655 16002 0.095
2656 23150 0.126
2657 23201 0.331
2658 6410 0.133
2659 23099 0.11
2660 15659 0.217
2661 6347 0.476
2661 23154 0.476
2662 6424 0.067
2662 27081 0.109
2663 6423 0.107
2664 30411 0.051
2665 7870 0.097
2666 23108 0.16
2667 23065 0.41
2667 23094 0.425
2667 29209 0.206
2668 23082 0.095
2669 27073 0.09
2670 23112 0.173
2670 30387 0.231
2671 6603 0.143
2671 23118 0.272
2672 23042 0.442
2673 26983 0.36
2674 15630 0.257
2674 15642 0.257
2675 15651 0.132
2676 23076 0.347
2677 29207 0.325
2678 8725 0.237
2679 29211 0.196
2680 6899 0.398
2681 29205 0.157
2682 15962 0.308
2683 27117 0.35
2684 6364 0.416
2684 6454 0.293
2684 29202 0.313
2685 6483 0.073
2686 27105 0.323
2687 6724 0.212
2688 27101 0.145
2688 30403 0.38
2689 27106 0.185
2690 26983 0.257
2691 15530 0.105
2692 6177 0.186
2693 6302 0.389
2693 15635 0.217
2694 15567 0.302
2695 15572 0.118
2696 32824 0.086
2697 15454 0.218
2698 15604 0.206
2699 16037 0.147
2700 15510 0.176
2701 16026 0.21
2702 15686 0.309
2702 27103 0.15
2703 15615 0.088
2704 15622 0.084
2705 15675 0.111
2706 15429 0.176
2707 30340 0.101
2708 30007 0.051
2709 15466 0.121
2710 6124 0.256
2711 15473 0.106
2712 15484 0.215
2713 28903 0.11
2714 15462 0.296
2715 5575 0.362
2716 23340 0.201
2717 27007 0.187
2717 27010 0.322
2717 30981 0.51
2718 27016 0.075
2719 5768 0.124
2720 15031 0.185
2720 27016 0.161
2720 29183 0.192
2721 26117 0.139
2722 5510 0.293
2723 15038 0.197
2724 15016 0.204
2725 15019 0.187
2726 15035 0.176
2726 29184 0.15
2727 26112 0.184
2727 26113 0.207
2728 26113 0.194
2729 15033 0.352
2730 15162 0.31
2731 26121 0.244
2732 14957 0.179
2733 14965 0.379
2733 14992 0.365
2734 14990 0.254
2735 5657 0.395
2736 15012 0.291
2736 15025 0.506
2737 15161 0.305
2738 15154 0.64
2739 15187 0.264
2740 14928 0.075
2740 29168 0.227
2741 14946 0.104
2742 5709 0.313
2742 15012 0.297
2743 15029 0.353
2744 29188 0.265
2745 26966 0.185
2746 29175 0.097
2747 5585 0.279
2748 15097 0.217
2748 15128 0.22
2749 15154 0.235
2750 26991 0.24
2751 15201 0.263
2752 29087 0.19
2753 5490 0.145
2754 15054 0.263
2755 15121 0.151
2756 26963 0.148
2757 26955 0.067
2758 29177 0.135
2759 15146 0.289
2759 29185 0.346
2760 30372 0.126
2761 26960 0.155
2762 5478 0.398
2762 15167 0.208
2763 15341 0.299
2764 26998 0.209
2765 26228 0.427
2766 5360 0.138
2767 29171 0.166
2768 29172 0.181
2769 29171 0.154
2770 30446 0.046
2770 30447 0.088
2771 30445 0.078
2772 26939 0.188
2773 30449 0.126
2773 30507 0.096
2774 5531 0.243
2774 15172 0.225
2775 15363 0.274
2776 26947 0.172
2777 15303 0.23
2778 15418 0.176
2778 26943 0.166
2779 5520 0.094
2780 15411 0.296
2781 15396 0.186
2782 30452 0.172
2783 30455 0.058
2783 30456 0.052
2784 15367 0.107
2785 30454 0.122
2786 5710 0.295
2787 15381 0.158
2787 29186 0.18
2788 30457 0.147
2789 30489 0.178
2790 15375 0.078
2791 5730 0.239
2792 26971 0.211
2793 24185 0.439
2794 24154 0.254
2795 24160 0.25
2795 25226 0.244
2796 24197 0.258
2797 25185 0.456
2798 24150 0.229
2799 25237 0.273
2800 5695 0.649
2800 25265 0.295
2801 30382 0.187
2801 30414 0.213
2802 15763 0.188
2803 26452 0.258
2804 25301 0.345
2804 26498 0.226
2805 6233 0.149
2806 25194 0.192
2806 26408 0.194
2807 25291 0.24
2808 15744 0.284
2809 25315 0.668
2809 29200 0.605
2810 5556 0.301
2811 23311 0.153
2812 26390 0.488
2813 23304 0.181
2814 28074 0.485
2815 26446 0.361
2816 5979 0.575
2817 6196 0.403
2818 23327 0.32
2819 23291 0.189
2820 6119 0.445
2821 6157 0.086
2822 6235 0.288
2823 26430 0.165
2823 26438 0.167
2824 5848 0.275
2825 8684 0.627
2826 6257 0.268
2827 23265 0.154
2828 28269 0.395
2829 25370 0.248
2830 23231 0.164
2831 6329 0.14
2832 6552 0.448
2833 30071 0.206
2834 30001 0.043
2835 29459 0.203
2836 23222 0.295
2837 23168 0.028
2838 23948 0.196
2839 29447 0.231
2840 30379 0.125
2841 29377 0.266
2842 5548 0.136
2843 26545 0.119
2844 28876 0.139
2845 29088 0.11
2846 24131 0.103
2847 23933 0.201
2848 8546 0.188
2849 5666 0.249
2850 23896 0.172
2850 23900 0.163
2851 23873 0.422
2852 5582 0.105
2853 28759 0.166
2854 29169 0.302
2855 26529 0.145
2856 26540 0.208
2856 29176 0.33
2857 27601 0.154
2858 5322 0.666
2858 28086 0.418
2859 8847 0.134
2860 23411 0.102
2860 27228 0.351
2861 8811 0.09
2862 8650 0.187
2863 25535 0.05
2864 5280 0.239
2865 8655 0.212
2866 23393 0.198
2867 5218 0.066
2868 29460 0.398
2869 5269 0.313
2870 23368 0.183
2871 29166 0.219
2871 29408 0.184
2872 5303 0.134
2873 23363 0.085
2873 23372 0.056
2874 16164 0.306
2875 14842 0.174
2875 14854 0.495
2876 14851 0.124
2877 14850 0.197
2877 28732 0.168
2878 27195 0.178
2879 30358 0.243
2880 16146 0.216
2881 16146 0.093
2882 29173 0.176
2883 4569 7.33
2884 32947 1.392
2884 32948 0.26
2885 26693 0.307
2886 23836 1.992
2887 29446 0.369
2888 6025 0.404
2889 29454 0.485
2890 24058 0.27
2891 5090 1.041
2892 24095 0.423
2893 24067 0.348
2893 24090 0.351
2894 24038 0.231
2895 23997 0.551
2896 24023 0.205
2897 24027 0.406
2898 23502 1.153
2899 24173 0.192
2900 26549 0.18
2901 5551 0.092
2902 29999 0.077
2903 24125 0.111
2903 24127 0.24
2904 23478 1.167
2905 4930 0.366
2906 23445 0.117
2906 23451 0.109
2907 23456 0.254
2908 23454 0.248
2909 23432 0.138
2910 23424 0.111
2911 27469 0.231
2911 29375 0.103
2912 26566 0.363
2913 29380 0.187
2914 25494 0.606
2914 26568 0.171
2915 25499 0.147
2916 25518 0.177
2917 25562 0.15
2918 29449 0.16
2919 16208 0.331
2920 25585 0.317
2920 29450 0.311
2921 16186 0.494
2922 4912 0.372
2923 16271 0.076
2924 29414 0.243
2925 16288 0.334
2926 16148 0.212
2927 16238 0.355
2927 16244 0.347
2928 16103 0.099
2929 16240 0.414
2930 4664 0.536
2931 16253 0.441
2932 16316 0.362
2932 29090 0.308
2933 23578 0.171
2933 29443 0.165
2934 29091 0.396
2935 23588 0.113
2936 29376 0.457
2937 23646 0.553
2938 23605 0.373
2938 29154 0.321
2939 8520 0.395
2940 4347 0.842
2941 23699 0.136
2942 8519 0.096
2943 23720 0.128
2943 30332 0.111
2944 31343 0.144
2945 23673 0.31
2946 4523 0.272
2947 23707 0.283
2948 4738 0.172
2949 31380 0.176
2950 23671 0.266
2951 23752 0.369
2952 17569 0.179
2952 17575 0.178
2953 8527 0.202
2954 17564 0.348
2955 23714 0.361
2956 25618 0.397
2957 23759 0.103
2958 31358 0.162
2959 17514 0.296
2960 29421 0.314
2961 8396 0.438
2962 29451 0.223
2963 17499 0.149
2964 8632 0.386
2964 29452 0.365
2965 27988 0.152
2966 29379 0.179
2967 17479 0.038
2968 30010 0.078
2969 4726 0.203
2970 17583 0.466
2970 17588 0.388
2971 17601 0.09
2972 4492 0.264
2972 17462 0.198
2973 17458 0.302
2974 29123 5.774
2974 29149 6.499
2975 20972 1.561
2976 23809 1.335
2977 29147 0.434
2978 20984 0.759
2978 29134 0.663
2979 20989 1.605
2980 25437 0.846
2981 25397 1.317
2982 25434 0.607
2983 4174 1.086
2984 25445 1.173
2985 4083 0.508
2986 4155 0.631
2987 20801 0.215
2988 4745 0.882
2989 25440 0.595
2990 23623 0.508
2991 20810 0.268
2992 20784 0.073
2993 20804 0.113
2994 4877 0.739
2995 4239 0.835
2995 31320 0.606
2996 25454 0.298
2997 23702 0.125
2998 23607 0.287
2999 29141 0.198
3000 29371 0.397
3001 4757 0.474
3002 29372 0.344
3003 29445 0.456
3004 23665 0.224
3005 4494 0.629
3005 23662 0.601
3006 23650 0.276
3007 23539 0.262
3008 4456 0.269
3009 4465 0.177
3010 29142 0.434
3011 24237 0.373
3012 29023 0.087
3013 7387 0.273
3014 7449 0.209
3015 7427 0.156
3016 24455 0.165
3017 7496 0.113
3017 28209 0.08
3018 7287 0.32
3019 7390 0.243
3020 28206 0.166
3021 7534 0.125
3022 7367 0.245
3023 24940 0.244
3024 24990 0.287
3025 7580 0.761
3026 7193 1.767
3027 25052 0.718
3028 25062 0.435
3029 25078 0.222
3030 25099 0.542
3031 24814 0.374
3032 29448 0.363
3033 24854 0.202
3034 24897 0.222
3035 24568 0.284
3036 24564 0.057
3037 7294 0.423
3038 29477 0.285
3039 24552 0.187
3039 24562 0.165
3040 25118 0.24
3041 7578 0.344
3042 7017 0.543
3043 25134 0.078
3044 25110 0.234
3045 24299 0.333
3046 24519 0.154
3047 24878 0.183
3048 25176 0.143
3049 24311 0.539
3050 24492 0.308
3051 24436 0.231
3052 24213 0.277
3053 24306 0.398
3054 27603 0.327
3055 7547 0.126
3056 25358 0.585
3057 29503 0.377
3058 7417 0.244
3059 24415 0.244
3060 24396 0.22
3061 28255 0.557
3062 27623 0.238
3063 7577 0.19
3064 25335 0.321
3065 24219 0.254
3066 27607 0.124
3067 29478 0.205
3067 29479 0.26
3067 29502 0.182
3068 24293 0.354
3069 27618 0.416
3070 24385 0.163
3070 29497 0.161
3071 24377 0.31
3071 29498 0.194
3072 7030 0.314
3073 24375 0.245
3074 30072 0.125
3075 30009 0.105
3076 24319 0.238
3077 24244 0.217
3078 24263 0.306
3079 24409 0.237
3080 24575 0.315
3080 24578 0.262
3081 7393 0.915
3082 24615 0.366
3083 24602 0.439
3084 28318 0.355
3085 7531 0.82
3085 32924 0.415
3085 32925 0.462
3085 32926 0.452
3085 32927 0.466
3086 24665 0.235
3087 24660 0.356
3088 29482 0.377
3089 24668 0.332
3090 24701 0.368
3090 24710 0.266
3091 7641 0.265
3092 24684 0.489
3093 29485 0.252
3094 29500 0.136
3095 24716 0.137
3096 8872 0.709
3097 24738 0.139
3098 29499 0.251
3099 24763 0.169
3100 7568 0.409
3101 24790 0.127
3102 24773 0.365
3103 7543 0.163
3103 8879 0.485
3104 8879 0.397
3104 8881 0.368
3105 24787 0.17
3106 7608 0.259
3107 24825 0.175
3108 24833 0.232
3109 21712 0.291
3110 21736 0.457
3110 21737 0.446
3111 21777 0.432
3112 21785 0.158
3113 28751 0.763
3114 21746 0.313
3115 21635 0.365
3115 26776 0.438
3116 7713 0.213
3117 26771 0.094
3117 30336 0.151
3118 21723 0.334
3119 8543 0.29
3120 21633 0.456
3121 29484 0.295
3122 7780 0.379
3122 28458 0.287
3123 21582 0.21
3124 21466 0.24
3125 21498 0.307
3126 21473 0.34
3127 29487 0.336
3128 21518 0.683
3128 28788 0.692
3129 21479 0.319
3130 21452 0.339
3131 29488 0.333
3132 21364 0.134
3133 21554 0.263
3134 21398 0.339
3135 21324 0.36
3136 21320 0.348
3137 19334 6.959
3138 7089 2.475
3139 21901 0.184
3140 21913 0.562
3141 19346 1.256
3142 21914 0.195
3143 21879 0.354
3144 21921 0.469
3145 21935 0.883
3146 19329 5.592
3147 21896 0.178
3148 21867 0.773
3149 29475 0.279
3150 21810 0.289
3151 21822 0.307
3152 28424 0.213
3153 7088 0.471
3154 8411 0.518
3155 21890 0.387
3156 28423 0.3
3157 7678 0.147
3158 21678 0.63
3159 21661 0.403
3160 29480 0.299
3161 22681 0.256
3162 7691 0.277
3163 22691 0.103
3164 29481 1.211
3165 6500 1.509
3166 21386 0.275
3167 7654 0.281
3167 21367 0.407
3168 30335 0.175
3169 21377 0.067
3170 21292 0.176
3170 21312 0.523
3171 21283 0.179
3172 21277 0.521
3172 29486 0.451
3173 21189 0.248
3173 21313 0.184
3174 21177 0.337
3175 21120 0.326
3176 21231 0.233
3177 21247 0.424
3177 21264 0.429
3178 21186 0.235
3179 21160 0.274
3179 21169 0.134
3180 21221 0.128
3181 7505 4.075
3182 31003 1.129
3183 22654 0.266
3184 7753 0.191
3185 22636 0.189
3186 22266 0.382
3187 22240 0.346
3188 22257 0.229
3189 22670 5.473
3190 22100 0.261
3191 22248 0.25
3192 28432 0.129
3193 7750 0.327
3194 29483 0.511
3195 22201 0.139
3196 22184 0.195
3197 21963 1.619
3197 22222 0.964
3198 22114 0.264
3199 22158 0.51
3200 21962 0.613
3201 22094 0.367
3201 22116 0.414
3202 22082 0.288
3203 21945 0.468
3204 22145 0.458
3204 29492 0.355
3205 22055 0.488
3206 29491 0.258
3207 29490 0.432
3208 28047 0.17
3208 30213 0.123
3209 22026 0.117
3210 22040 0.299
3211 22011 0.379
3212 21976 0.231
3213 21986 0.209
3214 31035 1.015
3214 31047 0.655
3215 31082 0.26
3216 31022 0.737
3216 31074 0.184
3217 31071 0.117
3218 22623 0.266
3219 22580 0.455
3220 22668 1.12
3221 22484 1.409
3222 22488 0.362
3223 28440 1.818
3224 22570 0.955
3225 22432 0.228
3226 22458 0.443
3226 29493 0.375
3227 7808 0.39
3228 22425 0.273
3229 22540 1.176
3230 28439 1.721
3230 31005 0.64
3231 22531 0.605
3231 22578 0.292
3232 22498 0.141
3233 28050 0.087
3234 22497 0.173
3235 22346 0.278
3236 22544 0.442
3237 22524 0.569
3238 28238 0.525
3239 22424 0.361
3240 7795 0.612
3240 22273 0.498
3241 22303 0.41
3242 22382 0.306
3243 22411 0.333
3244 7919 0.274
3245 7917 0.224
3246 24923 0.141
3246 31386 0.147
3246 31387 0.04
3247 6883 0.068
3247 31383 0.064
3247 31384 0.083
3248 31303 0.04
3249 7832 3.37
3250 7824 2.583
3251 7820 2.4
3252 7776 3.113
3253 7785 2.095
3254 5884 2.489
3255 3292 2.294
3256 3290 2.472
3257 3346 3.94
3258 3348 3.284
3259 3362 2.963
3260 3602 3.149
3261 4004 3.557
3262 4635 2.864
3263 7863 0.046
3263 7864 0.051
3264 7888 0.011
3264 7890 0.013
3265 6796 0.044
3265 6933 0.04
3266 6962 0.04
3266 6966 0.047
3267 5736 0.049
3267 5740 0.056
3268 5110 0.029
3268 5117 0.034
3269 5734 0.051
3269 5737 0.054
3270 5111 0.031
3270 5120 0.032
3271 5001 0.036
3271 5010 0.031
3272 5022 0.03
3272 5026 0.033
3273 4448 0.053
3273 4451 0.052
3274 7891 0.058
3274 7893 0.049
3275 4565 0.067
3275 4583 0.068
3276 7897 0.055
3276 7899 0.045
3277 4449 0.058
3277 4452 0.053
3278 4564 0.096
3278 4577 0.076
3279 7892 0.053
3279 7895 0.052
3280 7898 0.052
3280 7901 0.045
3281 5800 0.21
3281 5820 0.19
3282 5635 0.077
3282 5646 0.074
3283 3983 0.131
3283 3984 0.119
3284 4525 0.122
3284 4547 0.128
3285 4602 0.127
3285 4615 0.123
3286 5982 0.109
3286 27002 0.162
3287 4518 17.24
3287 4628 13.703
3288 19328 1.648
3288 19329 3.095
3289 6219 0.804
3289 6220 0.517
3290 32794 0.835
3291 25620 0.04
3291 25621 0.047
3291 28989 0.324
3292 28990 1.337
3293 3307 11.439
3293 28989 9.584
3293 28990 0.706
3294 25630 0.127
3294 25633 0.415
3294 28987 0.052
3295 25663 1.151
3295 25767 0.385
3295 27706 0.408
3296 3299 0.57
3296 25767 0.476
3296 27937 0.123
3297 25762 0.08
3297 27153 0.085
3297 28985 0.109
3298 3299 0.123
3298 25761 0.05
3298 25766 0.994
3298 28985 0.072
3299 27942 0.1
3300 27941 0.619
3300 27942 0.04
3300 27943 0.262
3301 27928 0.267
3301 27931 0.405
3301 27940 0.056
3302 27704 0.121
3302 27924 0.028
3303 27682 0.173
3303 27683 0.056
3303 27705 1.391
3304 3317 20.105
3305 27653 0.056
3305 27654 0.201
3305 27677 0.137
3305 32622 0.114
3306 27655 0.058
3306 27656 0.295
3306 27660 0.446
3306 30983 0.035
3306 30984 0.166
3307 31582 11.39
3308 25681 0.188
3308 27708 0.635
3308 28262 0.415
3309 3314 16.548
3310 3311 4.473
3310 3314 6.011
3311 25780 0.068
3311 25781 2.543
3312 27710 0.056
3312 27711 0.099
3312 28984 0.091
3313 25680 0.542
3313 25778 0.093
3313 27709 0.283
3315 25787 0.159
3315 25788 0.778
3316 3317 6.19
3316 3321 6.591
3318 27714 0.899
3318 27716 0.117
3318 27717 0.073
3319 10246 6.006
3320 10244 0.038
3320 10245 0.505
3320 10247 1.092
3321 3322 2.171
3321 10249 0.616
3322 10248 1.342
3323 20880 0.399
3323 20882 0.871
3324 3327 2.761
3324 10249 1.984
3325 25806 0.045
3325 26291 0.192
3325 32641 0.153
3326 3327 2.917
3326 3331 1.485
3326 3334 1.338
3327 3329 0.303
3328 3329 4.093
3328 10250 3.645
3329 3335 3.764
3330 3331 1.112
3330 28025 0.345
3331 3333 0.53
3332 27864 0.222
3332 27867 0.053
3332 27869 0.39
3332 27870 0.224
3333 3334 0.904
3333 8739 1.87
3334 3335 3.157
3335 3365 3.725
3336 25831 0.24
3336 25840 0.123
3336 25845 0.117
3336 25846 0.289
3337 8559 1.871
3337 10232 0.523
3337 10235 5.074
3338 26799 0.056
3338 26810 0.071
3338 28404 0.105
3339 8561 0.465
3339 10230 2.472
3339 10234 4.473
3340 3341 0.273
3340 25847 0.067
3340 25848 0.22
3341 25831 0.442
3341 25863 0.153
3342 27899 0.032
3342 27900 0.025
3342 27901 1.199
3343 26786 0.054
3343 26793 0.292
3343 28026 0.102
3344 8740 0.238
3344 26784 0.882
3344 27891 1.355
3345 8739 0.831
3345 26798 0.046
3345 31411 3.218
3346 28390 0.335
3347 27890 0.215
3347 31413 0.077
3348 3358 2.393
3348 3360 2.405
3349 10229 0.323
3349 10230 1.897
3350 3351 0.123
3350 27892 0.067
3350 31412 0.488
3351 3356 1.988
3351 27894 0.049
3352 25874 0.226
3352 26059 0.368
3352 29042 0.776
3353 26794 0.182
3353 26795 0.623
3354 26806 0.212
3354 26809 0.653
3354 31411 0.288
3355 25808 0.431
3355 25809 0.3
3355 32757 0.094
3356 3357 0.323
3357 3358 0.317
3357 3359 0.167
3358 3403 10.259
3359 3360 0.312
3359 3362 0.438
3360 3407 10.568
3361 25877 0.051
3361 27189 0.103
3361 27190 0.205
3363 3364 0.712
3363 29042 1.634
3364 27190 0.191
3364 27191 0.418
3365 3366 0.221
3365 26808 0.721
3366 26807 0.109
3366 26817 0.643
3367 25880 0.33
3367 27192 0.05
3367 27193 0.106
3368 10233 1.359
3368 10234 0.983
3368 31759 0.079
3369 3371 0.401
3369 25893 0.119
3369 27191 0.569
3370 8823 0.024
3370 26080 0.065
3370 26085 0.121
3370 28263 1.108
3371 25880 0.203
3371 25881 0.061
3372 25890 0.056
3372 25891 0.104
3372 29092 0.444
3373 8557 0.035
3373 10271 2.506
3373 10272 0.568
3374 25910 0.093
3374 25912 0.057
3375 3396 2.897
3375 3503 7.123
3375 8563 3.931
3376 3384 1.857
3376 3385 1.819
3376 26079 0.942
3376 32493 0.067
3377 3378 0.076
3377 10799 0.048
3377 10809 1.06
3378 3442 4.719
3378 10800 0.092
3379 7974 0.759
3379 19217 0.037
3379 19218 0.15
3380 3422 0.211
3380 20867 0.455
3380 26664 1.293
3381 20846 0.174
3381 20861 1.597
3382 10254 0.529
3382 10255 1.105
3383 3577 18.785
3384 3387 0.091
3384 3389 0.275
3385 3386 0.159
3385 3388 0.238
3386 3387 0.198
3386 3388 0.131
3386 25968 0.184
3387 3389 0.208
3387 25946 0.177
3388 3409 1.877
3389 3410 1.888
3390 29093 1.228
3390 32758 5.155
3391 25945 0.227
3391 25998 0.189
3391 26001 0.087
3391 28814 0.224
3392 3399 0.766
3392 25918 0.11
3392 25919 0.143
3392 32476 0.058
3393 3418 2.53
3393 8564 2.653
3393 10272 0.978
3393 27874 1.245
3394 29094 4.801
3394 29095 1.314
3395 3419 2.317
3395 10236 2.955
3395 10237 0.5
3396 3402 1.587
3397 8564 1.493
3397 10238 0.561
3397 31761 0.564
3398 25943 0.305
3398 25974 0.096
3398 26001 0.456
3399 32475 0.686
3400 19307 0.224
3400 19308 0.232
3400 19309 0.104
3401 26015 0.062
3401 26019 0.053
3401 32475 0.298
3402 3403 0.602
3402 3405 0.513
3402 3406 0.353
3403 3405 1.039
3404 8742 2.346
3404 29094 2.743
3405 3673 21.351999
3406 3407 0.3
3406 3411 0.57
3406 3426 1.236
3407 3411 0.748
3408 3409 0.229
3408 3413 0.203
3408 3414 0.113
3408 19207 0.089
3409 3413 0.426
3410 3414 0.244
3410 3416 0.428
3411 3674 21.306
3412 3429 3.216
3412 7966 0.799
3412 7975 1.761
3413 3479 3.047
3414 3416 0.19
3414 19167 0.383
3415 10239 0.053
3415 31764 0.736
3416 3480 3.033
3417 10261 1.336
3417 26823 4.347
3417 31773 0.037
3418 3425 1.289
3418 3451 1.382
3418 22981 0.798
3419 3420 4.428
3419 3489 2.982
3420 26867 2.04
3420 26868 3.296
3421 8743 2.238
3421 8745 1.681
3421 19104 2.744
3422 3443 3.028
3422 20868 1.384
3423 19170 0.053
3423 26047 0.391
3424 20844 1.606
3424 20845 0.101
3425 27886 0.747
3425 31767 0.866
3426 3459 1.572
3427 3432 0.187
3427 19158 0.132
3427 26056 0.081
3427 27183 0.203
3428 7974 2.945
3428 10812 0.615
3428 19224 0.723
3429 7975 1.006
3429 19227 1.148
3430 3481 0.164
3430 3528 1.755
3430 19200 0.02
3431 19176 0.102
3431 19182 0.196
3432 19159 0.068
3432 19161 0.211
3433 19161 0.079
3433 19162 0.271
3433 19298 0.436
3433 31609 0.648
3434 19149 0.213
3434 19150 0.103
3434 19151 0.159
3435 3436 0.174
3435 3438 0.15
3435 19146 0.347
3435 26036 0.103
3436 3450 0.689
3436 26038 0.24
3437 3450 0.124
3437 19163 0.156
3437 26039 0.045
3438 19148 0.674
3438 26035 0.216
3439 26036 0.042
3439 26037 0.1
3440 20836 1.318
3440 20838 1.669
3441 3442 1.414
3441 3523 1.755
3441 10812 1.647
3442 3449 1.107
3443 3760 15.228
3443 29096 2.112
3444 19050 0.169
3444 29097 0.537
3444 29098 0.567
3445 19148 0.083
3445 26042 0.442
3445 29099 0.84
3446 27883 0.147
3446 27886 0.242
3446 28816 0.129
3447 26030 0.155
3447 26031 0.134
3447 30073 0.129
3448 20868 0.277
3448 20869 3.273
3448 20872 2.045
3449 3493 1.943
3449 8746 4.264
3450 26034 0.065
3451 3454 0.286
3451 22983 0.057
3452 22986 0.129
3452 22989 0.56
3452 31771 0.418
3453 10259 1.498
3453 10260 0.176
3453 31772 0.046
3454 3476 0.465
3454 22997 0.281
3455 3456 0.139
3455 3458 0.143
3455 26030 0.141
3455 26032 0.046
3456 3463 0.268
3456 26031 0.121
3456 26033 0.038
3457 3463 0.383
3457 26040 0.042
3457 27167 0.172
3457 31609 0.13
3458 26025 0.136
3458 26028 0.026
3458 28817 0.082
3459 3522 3.239
3459 10262 0.363
3460 19069 0.664
3460 19105 0.383
3460 31574 0.273
3461 3465 1.482
3461 10256 0.69
3461 10260 0.637
3462 3475 0.144
3462 19131 0.054
3463 28818 0.202
3464 19032 0.036
3464 19033 0.161
3464 19034 0.051
3464 27180 0.21
3465 3541 1.624
3465 26824 1.063
3466 19073 0.924
3466 19101 0.121
3466 19103 0.975
3467 3477 0.205
3467 8567 0.399
3467 8745 1.036
3468 3491 0.688
3468 20463 0.117
3469 19038 0.147
3469 19298 0.534
3469 28819 0.024
3470 19030 0.217
3470 19036 0.036
3470 19037 0.038
3471 3504 1.084
3472 19111 0.456
3472 26042 0.333
3473 19019 0.027
3473 27170 0.248
3473 27176 0.234
3473 27958 0.195
3474 3475 0.139
3474 3483 0.636
3474 28817 0.402
3475 19133 0.12
3475 28818 0.14
3476 20461 1.073
3477 8568 1.068
3478 3482 0.14
3478 19134 0.02
3478 19135 0.316
3478 27958 0.238
3479 3481 0.186
3479 29615 0.167
3480 3485 0.282
3480 29616 0.264
3481 3484 0.297
3481 29617 0.09
3482 3483 0.386
3482 19129 0.243
3482 19133 0.13
3483 3492 0.259
3484 3635 5.74
3484 29615 0.254
3485 3488 0.212
3485 19192 0.392
3485 29618 0.05
3486 20871 1.106
3486 20872 0.351
3487 19185 0.311
3487 19191 0.089
3487 19192 0.047
3487 19193 0.274
3488 3636 5.676
3488 29616 0.2
3489 3490 2.068
3489 3543 1.393
3490 3514 2.017
3490 29100 1.107
3491 20431 0.224
3491 20446 0.155
3492 3502 0.321
3492 19135 0.279
3493 3524 1.004
3493 8057 0.975
3494 7835 5.335
3494 20869 0.097
3494 20874 0.989
3495 20430 0.392
3495 20432 0.289
3495 20457 0.133
3496 3499 0.882
3496 19044 0.202
3496 19045 0.094
3496 19190 0.285
3497 3498 0.394
3497 3502 0.437
3497 18994 0.105
3497 27179 0.052
3498 3499 0.444
3498 19007 0.056
3498 19008 0.065
3499 19015 0.235
3499 29085 0.721
3500 20837 0.085
3500 20840 0.406
3500 29093 5.17
3501 3511 0.359
3501 20458 0.09
3501 20462 0.019
3502 3508 0.138
3502 18998 0.349
3503 3510 2.832
3503 8834 1.22
3504 3518 0.423
3504 28970 0.267
3505 3506 0.243
3505 20459 0.13
3505 20462 0.3
3506 3511 0.11
3506 20461 0.311
3507 3508 0.155
3507 19138 0.06
3507 27956 0.594
3507 31608 0.172
3508 3534 0.828
3509 8426 0.024
3509 19124 0.312
3509 19125 0.137
3509 19126 0.057
3510 3562 3.012
3510 26824 1.194
3511 3587 3.676
3512 3553 1.287
3512 10262 1.543
3513 20889 0.109
3513 20900 0.25
3513 27961 0.065
3514 20428 0.401
3514 20432 0.112
3515 18987 0.075
3515 18988 0.172
3515 28820 0.472
3516 19004 0.324
3516 19005 0.823
3516 19045 0.251
3517 3518 2.814
3517 3558 3.88
3518 10270 2.554
3519 3522 1.443
3519 3556 2.054
3520 8427 0.602
3520 18926 0.138
3520 18953 0.107
3521 18950 0.084
3521 18957 0.156
3521 18958 0.185
3522 3553 3.263
3523 3524 0.261
3523 3548 2.883
3524 3580 2.344
3525 20873 1.508
3525 20902 0.254
3525 20904 0.058
3525 27961 0.218
3526 18959 0.059
3526 18968 0.274
3526 29101 0.424
3527 3573 2.935
3527 20839 0.752
3527 20840 0.546
3528 3557 0.793
3528 19213 0.684
3528 19294 0.583
3529 20315 0.53
3529 20340 0.276
3529 20362 0.205
3530 18987 0.2
3530 18992 0.065
3530 18996 0.448
3530 31603 0.218
3531 20873 0.78
3531 20908 0.816
3532 8428 0.177
3532 18925 0.086
3533 18969 0.053
3533 18999 0.406
3533 19003 0.123
3534 18936 0.088
3534 18993 0.069
3535 8428 0.028
3535 18930 0.06
3535 18935 0.55
3535 31608 0.6
3536 3549 0.742
3536 20460 0.671
3537 18963 0.066
3537 18968 0.648
3537 19084 0.734
3538 19193 0.979
3538 19293 0.173
3538 19294 0.103
3539 20903 0.086
3539 20905 1.038
3540 18991 0.37
3540 31603 0.091
3541 3562 1.47
3542 8427 0.383
3542 8429 0.476
3542 18902 0.418
3543 3544 0.279
3543 20476 1.303
3544 3545 4.434
3544 3555 0.331
3545 3565 2.675
3546 8568 1.497
3546 20827 0.079
3546 20828 0.105
3546 27952 0.168
3547 8474 0.574
3547 8571 0.93
3547 20829 0.803
3548 29102 2.666
3549 3569 1.403
3550 8571 0.213
3550 19083 0.117
3550 19084 0.21
3551 3565 1.573
3551 8742 2.896
3551 27854 0.714
3551 27855 0.939
3552 3561 1.043
3552 8746 2.469
3552 27855 0.117
3553 3558 0.172
3554 8570 0.123
3554 26673 0.113
3554 26677 0.054
3555 31758 1.908
3556 3602 3.494
3557 19215 0.404
3558 3585 3.412
3559 8430 0.067
3559 18903 0.184
3559 18904 0.049
3560 3564 0.11
3560 18904 0.172
3560 18940 0.141
3561 3579 4.082
3562 27904 0.056
3562 28023 2.427
3563 3564 0.283
3563 18905 0.14
3563 18906 0.029
3564 8431 0.926
3566 20421 0.481
3566 20424 0.278
3566 20425 0.179
3567 20423 0.151
3567 20424 0.047
3567 20429 0.173
3568 20418 0.064
3568 20419 0.07
3568 31783 0.14
3569 20415 0.053
3569 20417 0.106
3570 3571 0.302
3570 18972 0.08
3570 18973 0.073
3571 18974 0.035
3571 19029 0.096
3572 18795 2.086
3572 29102 1.567
3573 3624 3.87
3573 26654 1.444
3573 26678 1.87
3574 20389 0.202
3574 20416 0.087
3574 20417 0.111
3575 8414 0.698
3575 18872 0.172
3575 18908 0.153
3576 18854 0.288
3576 18877 0.057
3576 18887 0.082
3577 3833 12.684
3578 7836 2.182
3578 20874 2.244
3578 20906 1.349
3578 20914 2.071
3579 3580 1.649
3579 8057 2.522
3580 19396 1.479
3581 26669 0.944
3581 26673 0.357
3582 20421 0.679
3582 20427 0.181
3582 20433 0.14
3582 31746 0.135
3583 18842 0.378
3583 18843 0.022
3583 18845 0.345
3584 26682 0.555
3584 26683 1.413
3585 3646 1.918
3586 10270 4.433
3586 28969 2.06
3587 3588 0.557
3587 3590 2.0
3587 3593 0.403
3588 3592 0.216
3588 20426 0.097
3589 20393 0.091
3589 20394 0.277
3589 20399 0.079
3590 20398 0.458
3590 20407 0.441
3591 8417 0.247
3591 18854 0.343
3591 18855 0.108
3592 3593 0.101
3592 3597 0.094
3593 3597 0.146
3594 3595 0.18
3594 8748 0.221
3594 26658 0.134
3595 3608 0.529
3595 26637 0.207
3595 26659 0.281
3596 3642 1.333
3596 27948 1.226
3596 27950 0.422
3597 20420 0.27
3598 3613 3.69
3598 3614 1.508
3599 20470 0.925
3599 20474 0.19
3599 31415 0.461
3600 20467 0.923
3600 20468 1.367
3600 31758 1.504
3601 20341 1.105
3601 28022 0.714
3603 3609 0.607
3603 3617 0.248
3603 8749 0.807
3604 3606 0.364
3604 18848 0.62
3605 18828 0.175
3605 18837 0.039
3605 32465 0.426
3606 32465 0.243
3607 3608 0.185
3607 3609 0.263
3607 26643 0.05
3607 26658 0.4
3608 26641 0.07
3608 26642 0.083
3609 3612 0.191
3609 3618 0.42
3610 3621 0.347
3610 18650 0.054
3610 18844 0.164
3611 3615 0.261
3611 26640 0.045
3611 26641 0.115
3612 3619 0.419
3612 26642 0.179
3613 3616 2.768
3613 8752 4.778
3614 3647 2.889
3615 3623 0.419
3615 26662 0.323
3615 28089 0.345
3616 3634 1.704
3616 3669 2.844
3617 26643 0.364
3617 26657 0.086
3618 3619 0.204
3618 29104 0.855
3619 26644 0.043
3620 3621 0.313
3620 3638 1.125
3620 18846 0.216
3621 18649 0.048
3622 3625 0.4
3622 18826 0.276
3622 18846 1.15
3623 26644 0.147
3623 26645 0.268
3623 28087 0.183
3624 3679 0.893
3624 29104 2.967
3625 18855 1.32
3625 29105 0.836
3626 3670 2.867
3626 18894 3.016
3626 27954 1.688
3627 21105 0.646
3627 26670 1.059
3627 26672 0.851
3628 8737 0.759
3628 20385 0.265
3628 20386 0.094
3629 20372 0.286
3629 20406 0.239
3629 20407 0.19
3629 20408 0.287
3630 20410 0.236
3630 31419 0.14
3631 8575 1.882
3631 22956 0.305
3631 22957 0.691
3632 8574 0.46
3632 22953 0.44
3632 27853 2.533
3633 21105 0.597
3633 21106 0.043
3633 32844 0.652
3634 3645 1.53
3635 3641 0.428
3635 3648 0.636
3636 3649 0.332
3636 3650 0.537
3637 18783 0.36
3637 18795 0.181
3638 18634 0.215
3638 18638 0.113
3639 18635 0.103
3639 18637 0.142
3639 18647 0.678
3640 7978 1.116
3640 18783 0.081
3640 18784 0.141
3641 3648 0.343
3641 3649 0.226
3641 7978 0.344
3642 3671 1.36
3643 20324 0.797
3643 20341 1.665
3644 20333 0.07
3644 20334 0.345
3644 31817 0.214
3645 3681 2.058
3646 3647 1.948
3647 32767 0.201
3648 3753 3.437
3649 3650 0.318
3649 3651 0.175
3650 3750 3.466
3651 18804 0.189
3652 18804 0.297
3652 18805 0.046
3653 18630 0.112
3653 18631 0.2
3653 18632 0.15
3653 18637 0.298
3654 8576 0.113
3654 18643 0.046
3654 18644 0.079
3655 23002 0.786
3655 23014 0.666
3656 23003 0.051
3656 23004 0.067
3656 23005 0.457
3657 3663 0.436
3657 8576 0.567
3657 18611 0.181
3658 7977 1.508
3658 18780 0.063
3658 32445 0.327
3659 18595 0.12
3659 18817 0.369
3659 29105 0.91
3660 18815 0.098
3660 18817 0.09
3660 18818 0.102
3661 26604 1.748
3661 26606 1.295
3662 3665 0.166
3662 18611 0.154
3662 18646 0.071
3663 18628 0.185
3663 18629 0.105
3664 18597 0.224
3664 18607 0.16
3664 31617 0.071
3665 18608 0.82
3665 18812 0.107
3666 18606 0.052
3666 18607 0.089
3666 18812 0.194
3667 3701 0.929
3668 3704 3.118
3668 18779 0.061
3668 32445 1.304
3669 3705 0.873
3670 20825 0.288
3671 3675 0.824
3671 18538 0.364
3672 3673 0.415
3672 3677 0.64
3672 20379 0.535
3672 20466 0.218
3673 3677 0.886
3674 3676 0.464
3674 3693 0.756
3675 31573 0.713
3676 3693 0.428
3676 20345 0.622
3676 20466 0.205
3677 3821 5.177
3678 20324 0.901
3678 20330 0.171
3678 20331 0.143
3679 21077 0.72
3679 31562 0.082
3680 20824 1.724
3680 31562 0.185
3680 32844 0.808
3681 3706 0.72
3682 20335 0.169
3682 20336 0.335
3682 31815 0.141
3683 18893 1.558
3683 31573 0.215
3684 18893 0.637
3684 18894 0.814
3685 8081 1.691
3685 19544 2.115
3685 27768 0.671
3685 27774 0.551
3686 8081 2.478
3686 22951 0.71
3686 22952 0.602
3687 18818 0.629
3687 28282 0.51
3687 28287 0.295
3687 31619 0.67
3688 20824 0.416
3688 20825 0.902
3688 28057 0.577
3689 3711 0.417
3689 18527 0.051
3689 18538 1.24
3690 18773 0.291
3690 32446 0.077
3691 3701 1.371
3691 32654 0.071
3692 10266 0.131
3692 10267 0.197
3692 32767 0.22
3693 3826 4.974
3694 28004 0.36
3694 28007 0.487
3695 22960 0.563
3695 23004 0.795
3695 32606 0.099
3696 3697 0.493
3696 22962 0.529
3697 3776 3.016
3697 27774 0.401
3698 26604 0.053
3698 26605 1.079
3698 32453 1.092
3699 19398 1.11
3699 19407 1.257
3699 22961 0.435
3700 18577 0.486
3700 18580 0.151
3701 10269 0.547
3702 18716 0.065
3702 18760 0.61
3702 28822 0.107
3703 18680 0.46
3703 18684 0.038
3703 18713 0.495
3704 3715 1.367
3704 3719 1.486
3705 10226 2.239
3705 10269 2.15
3706 3713 0.734
3706 10226 1.229
3707 18746 0.35
3707 18758 0.05
3707 18773 0.497
3708 18666 0.124
3708 18667 0.109
3708 18668 0.049
3708 18685 0.142
3709 3717 0.659
3709 31598 0.05
3709 31599 0.104
3710 18718 0.038
3710 18741 0.665
3710 18756 0.38
3711 18522 0.062
3711 18523 0.147
3712 3854 4.324
3712 18894 1.773
3712 28057 0.61
3713 3721 0.765
3714 19403 1.683
3714 19406 0.412
3714 19407 0.202
3715 19405 0.653
3715 19406 1.358
3716 20233 0.204
3716 20234 0.048
3716 31813 0.132
3717 3735 0.165
3717 18616 0.423
3718 18608 0.868
3718 18609 0.143
3718 31614 0.084
3719 18776 1.131
3720 18730 0.419
3720 18731 0.344
3720 18740 0.106
3721 20223 0.338
3721 20224 0.082
3721 20226 0.109
3722 20223 1.075
3722 20292 0.78
3722 31812 0.202
3722 31813 0.295
3723 18559 0.267
3723 18575 0.049
3723 18576 0.11
3724 3736 0.074
3724 18453 0.106
3724 18579 0.292
3725 18551 0.053
3725 18552 0.08
3725 18553 0.046
3726 20046 0.166
3726 20054 0.903
3727 18519 0.075
3727 18520 0.044
3727 18553 0.108
3728 8553 0.986
3728 8579 0.376
3728 22940 0.626
3729 18479 0.09
3729 18526 0.552
3729 18552 0.138
3730 20343 0.204
3730 28010 0.206
3730 28013 0.157
3730 28014 0.336
3731 3741 0.403
3731 20314 0.084
3731 20315 0.087
3731 26833 0.285
3732 3740 0.529
3732 26832 0.575
3732 28007 0.056
3732 28014 0.388
3733 3734 0.802
3733 3735 0.279
3733 18662 0.189
3734 3775 0.799
3734 18393 0.157
3735 3762 0.687
3736 18450 0.162
3736 18451 0.077
3737 3793 1.712
3737 7838 0.164
3737 20953 0.609
3738 8340 0.214
3738 20282 0.102
3738 20292 0.082
3739 3740 0.106
3739 20221 0.18
3739 20222 0.109
3740 3756 0.414
3740 20342 0.167
3741 3756 0.716
3741 20312 0.09
3742 20258 0.175
3742 20282 0.563
3742 20312 0.78
3743 29107 0.517
3743 31737 0.631
3744 19994 0.122
3744 19997 0.17
3744 20002 0.132
3744 32605 2.449
3745 18731 0.36
3745 18748 0.054
3746 19552 0.723
3746 19554 0.04
3746 19555 0.032
3746 30434 0.39
3747 8582 0.115
3747 22937 0.51
3747 22946 1.846
3748 3849 0.138
3748 20003 0.139
3748 20052 0.244
3749 18423 0.073
3749 18435 0.191
3750 3751 0.478
3750 18046 3.399
3751 3754 0.284
3751 18393 0.339
3752 20953 0.875
3752 20954 0.673
3753 3754 0.329
3753 18047 3.337
3754 18748 0.35
3755 19543 0.323
3755 19546 1.374
3755 19547 0.968
3756 20350 0.088
3756 20352 0.073
3757 8583 0.201
3757 20222 0.248
3757 20352 0.293
3758 18448 0.1
3758 18462 0.202
3758 31539 0.076
3759 3760 4.814
3759 3837 3.873
3759 7834 4.848
3760 3833 4.852
3761 18394 0.326
3761 18403 0.055
3761 18404 0.118
3761 31458 0.031
3762 3774 0.436
3762 18395 0.416
3763 21104 0.523
3763 26593 0.262
3764 3824 1.335
3764 8247 0.537
3764 20360 0.505
3764 32399 0.237
3765 18418 0.106
3765 18419 0.049
3766 18455 0.103
3766 18456 0.054
3766 18457 0.044
3766 18461 0.265
3767 18478 0.134
3767 18495 0.038
3767 32461 0.609
3768 20091 0.15
3768 20092 0.056
3768 20093 0.13
3769 3772 0.313
3769 3787 0.06
3769 20090 0.035
3770 3797 0.321
3770 19537 0.07
3770 19538 0.07
3771 3782 0.263
3771 3812 0.301
3771 20217 0.117
3771 20219 0.067
3772 20093 0.081
3772 20218 0.048
3772 20220 0.177
3773 20266 0.134
3773 20267 0.11
3773 20271 0.138
3774 18279 0.227
3774 18281 0.252
3774 32846 0.29
3775 18279 0.145
3775 18389 0.098
3776 3797 0.705
3777 3778 0.141
3777 26600 0.271
3777 26629 0.266
3777 32453 0.271
3778 26593 0.808
3778 26627 0.259
3778 26636 0.281
3779 3782 0.222
3779 20354 0.037
3779 20355 0.175
3780 3792 0.348
3780 18409 0.098
3780 18415 0.228
3780 18417 0.068
3781 3795 0.409
3781 31541 0.203
3781 31542 0.093
3782 3798 0.303
3783 18503 0.134
3783 18504 0.146
3783 31544 0.089
3784 3791 0.233
3784 18405 0.066
3784 18406 0.052
3785 20187 0.064
3785 20194 0.092
3785 31826 0.18
3786 20277 0.058
3786 20278 0.035
3786 20349 0.403
3787 3789 0.149
3787 20086 0.078
3788 20084 0.092
3788 20085 0.148
3788 20086 0.16
3788 20358 0.233
3789 20091 0.209
3789 20359 0.035
3790 3791 0.422
3790 18407 0.123
3790 18408 0.247
3791 31453 0.083
3791 31454 0.072
3792 3810 0.375
3792 18407 0.093
3792 18414 0.178
3793 7839 2.389
3793 20952 0.189
3794 3805 0.204
3794 20085 0.261
3794 20087 0.078
3794 20094 0.235
3795 18326 0.638
3795 18428 0.113
3795 18434 0.124
3796 3815 1.23
3796 22937 0.22
3796 22938 0.475
3797 19536 0.036
3798 20214 0.044
3798 20357 0.063
3799 20256 0.172
3799 20272 0.181
3799 20276 0.237
3800 11180 0.119
3800 20242 0.113
3800 20243 0.099
3801 20280 0.076
3801 20281 0.251
3801 28826 0.457
3802 18447 0.078
3802 18460 0.121
3802 18470 0.069
3802 18471 0.139
3803 18433 0.103
3803 18442 0.063
3804 3830 0.314
3804 18294 0.04
3804 18297 0.309
3804 31459 0.166
3805 20178 0.065
3805 20179 0.084
3805 20214 0.231
3806 19953 0.718
3806 20013 0.112
3806 31711 0.129
3807 18498 0.178
3807 18499 0.041
3808 3811 0.554
3808 20078 0.217
3808 20079 0.118
3809 28343 0.178
3810 30359 0.086
3811 3819 0.207
3811 20088 0.084
3811 20191 0.437
3812 20089 0.139
3812 20094 0.049
3812 20357 0.191
3813 3814 0.416
3813 3822 0.099
3814 20956 0.959
3814 20957 0.731
3815 3836 0.589
3815 19553 0.071
3816 18504 0.116
3816 18505 0.241
3816 31548 0.131
3817 18313 0.23
3817 18314 0.152
3817 30359 0.252
3818 18315 0.096
3818 18316 0.05
3818 30360 0.153
3819 20181 0.198
3819 20192 0.086
3820 3827 0.143
3820 20073 0.43
3820 20077 0.071
3820 20078 0.309
3821 3873 0.429
3821 19827 3.839
3822 21035 0.718
3822 26632 0.245
3823 19968 0.245
3823 19979 0.319
3823 31711 0.456
3824 20073 0.158
3824 20074 0.171
3825 21016 0.097
3825 21017 1.654
3826 3831 0.757
3826 19825 3.041
3827 20075 0.075
3828 20164 0.188
3828 20165 0.179
3828 20167 0.057
3828 20170 0.114
3829 20072 0.175
3829 20074 0.169
3829 20083 0.201
3829 20111 0.274
3830 3871 0.263
3830 18273 0.128
3831 3832 0.433
3831 3834 0.222
3831 3873 0.802
3832 3834 0.568
3832 20113 0.413
3834 20122 0.573
3835 19957 0.248
3835 19964 0.252
3835 20122 0.153
3836 3877 1.071
3837 3838 3.186
3837 7833 2.787
3837 7839 1.326
3838 20952 1.905
3838 21000 0.775
3838 21001 0.039
3839 20081 0.122
3839 20082 0.049
3839 20083 0.208
3840 20103 0.112
3840 20104 0.127
3840 20109 0.312
3840 20110 0.333
3841 3873 0.302
3841 19959 0.399
3841 20004 0.091
3842 20070 0.047
3842 20071 0.078
3842 20072 0.186
3843 3857 0.521
3843 18312 0.222
3843 18313 0.292
3844 3852 0.089
3844 18311 0.121
3844 18327 0.28
3845 12471 0.088
3845 12472 0.62
3845 19571 0.463
3846 3877 0.733
3846 12453 0.065
3846 12465 0.087
3846 12472 0.46
3847 20188 0.182
3847 20189 0.201
3847 31825 0.163
3848 20095 0.148
3848 20101 0.524
3848 20107 0.111
3848 20108 0.082
3849 19984 0.075
3849 26837 0.046
3850 21035 0.701
3850 26607 0.048
3850 31720 0.186
3851 18334 0.257
3851 18335 0.056
3851 18337 0.124
3852 8585 0.429
3852 18328 0.278
3853 3854 0.779
3853 3913 1.937
3853 18890 0.361
3854 18892 0.174
3855 3866 0.375
3855 19807 1.036
3855 29108 0.333
3856 3898 0.688
3856 7981 0.484
3856 18240 0.135
3856 29109 0.048
3857 8586 0.235
3857 8587 0.403
3858 3859 0.641
3858 19930 0.893
3858 19952 0.127
3858 19962 0.101
3859 19963 0.135
3859 19964 0.343
3860 18334 0.277
3860 18344 0.056
3860 18345 0.19
3860 18346 0.112
3861 10263 0.255
3861 32770 5.381
3862 3981 0.969
3862 8434 0.298
3862 19822 0.429
3863 3872 0.659
3863 20102 0.307
3863 20123 0.138
3863 20124 0.158
3864 3874 0.997
3864 3904 1.269
3864 31728 0.528
3865 18356 0.071
3865 18369 0.143
3865 31551 0.066
3866 19825 0.446
3866 19826 1.034
3866 19930 0.607
3867 19826 0.718
3867 29110 0.513
3868 21000 0.214
3868 21010 1.163
3868 21014 0.073
3869 8585 0.289
3869 18020 0.649
3869 18307 0.068
3869 18333 0.281
3870 8586 0.391
3870 18308 0.069
3870 18309 0.16
3871 18270 0.076
3871 18272 0.084
3872 3903 1.256
3872 20111 0.49
3872 20113 0.235
3874 3887 1.068
3875 19556 0.043
3875 19557 0.037
3875 19568 0.051
3875 29111 0.322
3876 3884 0.323
3876 29111 0.323
3877 12436 0.25
3877 12464 0.767
3878 3915 1.682
3878 19924 0.244
3878 20129 0.083
3878 20131 0.398
3879 20142 1.633
3879 20173 0.088
3879 20174 0.259
3880 3903 1.25
3880 19963 0.41
3880 19976 0.076
3880 19977 0.259
3881 3882 0.17
3881 18339 0.042
3881 18340 0.089
3882 18024 0.395
3882 18333 0.625
3883 18092 0.073
3883 18093 0.089
3883 18094 0.138
3883 18104 0.371
3885 19559 0.099
3885 19561 0.52
3885 19579 0.082
3885 29112 0.479
3886 18073 0.587
3886 18075 0.189
3886 18077 0.407
3886 19512 0.377
3887 3914 1.858
3887 18073 1.616
3888 20115 0.048
3888 20116 0.054
3888 30362 0.636
3889 3910 0.269
3889 19869 0.09
3889 19977 0.75
3889 30362 0.599
3890 21031 0.096
3890 21032 0.027
3890 21033 0.104
3891 18357 0.125
3891 18358 0.146
3891 31552 0.156
3892 20011 0.164
3892 20050 0.106
3892 20051 0.053
3893 18237 0.15
3893 18241 1.108
3893 18278 0.122
3894 18891 0.841
3894 19587 0.525
3895 19585 1.176
3895 19587 0.311
3895 19589 0.837
3896 3897 1.459
3896 3928 0.758
3896 26624 0.721
3897 3938 1.53
3897 3948 0.681
3897 31709 0.378
3898 17898 0.065
3898 17899 0.33
3898 31431 0.563
3899 7980 0.392
3899 18274 0.039
3899 18275 0.22
3900 22948 1.372
3900 26849 0.36
3900 29110 0.393
3901 18888 0.047
3901 18889 0.242
3901 18890 1.337
3902 18030 0.127
3902 18031 0.596
3902 18032 0.741
3902 18120 0.126
3902 18889 1.577
3904 19385 0.097
3904 19391 0.444
3905 17899 0.037
3905 18229 0.302
3905 31432 0.274
3906 17896 0.204
3906 18020 0.094
3906 18022 0.464
3907 17893 0.075
3907 18023 0.478
3907 29115 0.409
3907 31550 0.283
3908 17895 0.238
3908 17896 0.084
3909 19773 0.487
3909 19840 0.12
3909 19849 0.61
3910 19868 0.122
3910 19878 0.684
3910 19882 0.065
3911 3921 0.477
3911 3924 0.91
3911 18047 0.251
3912 3925 0.482
3912 3927 0.912
3912 18046 0.267
3913 18124 0.044
3913 18219 1.196
3913 19586 0.386
3914 18068 0.056
3914 19386 0.058
3914 19394 0.087
3915 20137 0.809
3915 20138 0.266
3916 18018 0.111
3916 18233 0.207
3916 18236 0.609
3916 31433 0.49
3917 18060 0.407
3917 18061 0.232
3917 28188 0.51
3917 32442 0.205
3917 32443 0.075
3918 3934 0.809
3918 17700 0.592
3919 18105 0.173
3919 18106 0.216
3919 18122 0.445
3920 3921 0.326
3920 28189 0.299
3921 3924 0.465
3921 3925 0.33
3922 12442 0.077
3922 12448 0.524
3922 12449 0.181
3923 20464 0.397
3923 22947 0.954
3923 26851 0.722
3924 18055 0.333
3925 3927 0.55
3925 31433 0.301
3926 8084 0.684
3926 8091 0.5
3926 29116 2.048
3927 18056 0.315
3928 21040 0.172
3928 21041 0.245
3929 3931 0.315
3929 3991 3.847
3929 19827 1.69
3930 3931 0.224
3930 3986 2.925
3930 19825 2.932
3931 3942 0.397
3932 8385 0.844
3932 20823 0.746
3932 21038 0.072
3932 21039 0.22
3933 3941 0.749
3933 3944 0.68
3933 8753 0.285
3934 3970 1.687
3934 31434 0.422
3935 12473 0.451
3935 19466 0.534
3935 19483 0.304
3935 19488 0.182
3936 19849 1.922
3936 19897 0.211
3936 19910 1.286
3936 19915 1.228
3937 3938 0.923
3937 21028 1.636
3937 21032 1.484
3938 20990 1.497
3939 21020 0.05
3939 21021 0.16
3939 21022 0.134
3940 8754 0.833
3940 19588 0.208
3940 28827 0.019
3941 19593 0.073
3941 29117 0.209
3942 19812 0.114
3942 30363 0.145
3943 19812 0.163
3943 19929 0.605
3943 26851 1.138
3944 8734 0.284
3944 19607 0.711
3945 20012 0.459
3945 26843 0.481
3946 19835 0.221
3946 19836 0.119
3946 19840 0.721
3947 8754 0.758
3947 18203 0.497
3947 18213 0.022
3947 18219 0.431
3948 3979 1.083
3949 19592 0.037
3949 19594 0.22
3950 12522 0.176
3950 19584 0.058
3950 27794 0.336
3951 3953 0.85
3951 8756 0.71
3951 17880 0.146
3951 31550 0.918
3952 3953 0.588
3952 29113 0.932
3952 31435 0.094
3953 17881 0.153
3954 8061 0.844
3954 12447 0.837
3954 12451 0.071
3954 29118 0.421
3955 8551 0.419
3955 17890 0.064
3955 17891 0.057
3955 17906 0.224
3956 3972 0.286
3956 8756 0.799
3956 18108 0.777
3956 31489 0.185
3957 8088 0.692
3957 12504 0.077
3957 12520 0.159
3957 12521 0.055
3958 12421 0.045
3958 12511 0.496
3958 27813 0.636
3958 29119 0.303
3959 19751 0.698
3959 19758 0.07
3959 19773 0.671
3959 29120 0.324
3960 19757 0.387
3960 19815 0.049
3960 19817 0.516
3960 30364 0.263
3961 12483 0.137
3961 12500 0.467
3961 19466 0.192
3962 8755 0.821
3962 19598 0.024
3962 19608 0.225
3963 3964 0.499
3963 3985 0.51
3963 31435 0.623
3964 17871 0.13
3964 17872 0.195
3965 7833 2.332
3965 20992 0.568
3965 21013 1.281
3966 3968 3.55
3966 17701 0.543
3967 17702 0.412
3967 17709 1.621
3967 17850 0.259
3967 17851 0.359
3968 3970 0.957
3969 12490 0.065
3969 12501 0.042
3969 12502 0.141
3969 19454 0.218
3970 4015 1.184
3970 30987 0.578
3971 12058 0.056
3971 12059 0.027
3971 30987 0.751
3972 17901 0.252
3972 17902 0.026
3973 3974 0.205
3973 28107 0.049
3973 32780 0.091
3974 29121 0.56
3974 32781 0.815
3975 17810 0.212
3975 17821 0.825
3975 17850 0.315
3976 27800 0.275
3976 27802 0.04
3976 32780 0.232
3977 4030 1.61
3977 18208 0.693
3977 18217 0.384
3978 3992 0.283
3978 20538 0.183
3978 31721 0.142
3979 4003 1.468
3979 4028 1.432
3980 4006 0.282
3980 19682 0.556
3980 19751 0.214
3981 4006 0.542
3981 19745 0.078
3981 19752 0.15
3982 19606 0.769
3982 19612 0.845
3982 20822 0.377
3983 20995 0.096
3984 4017 1.002
3985 17821 0.782
3985 31430 0.087
3986 3987 0.457
3986 4000 0.944
3987 20465 0.732
3987 29122 0.214
3988 3989 0.306
3988 12394 0.024
3988 12396 0.279
3988 22831 0.396
3989 8097 0.424
3989 27807 0.678
3990 20986 0.924
3990 21023 0.953
3990 31657 0.648
3991 3992 0.444
3991 3997 0.637
3992 4001 0.156
3992 28129 0.145
3993 12452 0.249
3993 22931 0.392
3994 4027 1.14
3994 4055 1.649
3994 20990 0.045
3995 12411 0.051
3995 12412 0.052
3995 22824 0.372
3995 22831 0.396
3996 20995 0.886
3996 20999 0.32
3997 28130 0.269
3997 28136 0.422
3998 8069 0.638
3998 8096 0.147
3998 12406 0.157
3999 20656 0.116
3999 27799 0.317
3999 27804 0.04
4000 4009 0.386
4001 20527 0.335
4001 28131 0.262
4002 4003 0.732
4002 8385 1.358
4003 4047 0.51
4004 10263 4.368
4005 8755 1.233
4005 18203 0.41
4005 18206 0.711
4006 19743 0.317
4006 19750 0.244
4007 7984 0.886
4007 19429 0.125
4007 19430 0.252
4008 4011 0.216
4008 19428 0.131
4008 19429 0.067
4009 28131 0.216
4009 28135 1.561
4010 18033 0.344
4010 20780 0.152
4010 20781 0.079
4011 7936 0.556
4011 19427 0.071
4012 17812 0.291
4012 17813 0.287
4013 7985 0.079
4013 12499 0.155
4014 19742 0.064
4014 19743 0.126
4014 19744 0.1
4015 12051 0.07
4015 12057 0.179
4016 20971 0.057
4016 20972 1.485
4016 29123 5.372
4017 29123 3.688
4018 17900 0.242
4018 17928 0.073
4018 17929 0.08
4018 31449 0.1
4019 17920 0.699
4019 18125 0.568
4019 31534 0.067
4020 17844 0.114
4020 17864 0.397
4020 31507 0.137
4021 18198 0.66
4021 18208 0.107
4022 12487 0.04
4022 12488 0.096
4023 8592 0.053
4023 20778 0.067
4023 20779 0.097
4023 20783 0.267
4024 27797 0.22
4025 8099 0.293
4025 19520 0.072
4025 19521 0.06
4026 11856 0.121
4026 11857 0.037
4026 11858 0.061
4027 4028 0.479
4028 4047 1.771
4029 8758 0.394
4029 31277 1.057
4030 18183 0.258
4030 18184 0.101
4031 22931 0.264
4031 22932 0.076
4031 22933 0.043
4032 4037 0.177
4032 20527 0.128
4032 20528 0.246
4033 4034 0.139
4033 19736 0.088
4033 19739 0.074
4034 19734 0.044
4034 19735 0.037
4034 19737 0.065
4035 4071 0.1
4035 19674 0.112
4035 19682 0.508
4035 19740 0.31
4036 19689 0.061
4036 19700 0.118
4036 30365 0.211
4037 20537 0.21
4038 4039 0.259
4038 20524 0.166
4038 20537 0.077
4039 20522 0.158
4039 29122 0.729
4040 29124 0.135
4041 8099 0.744
4041 11818 0.176
4041 11820 0.204
4041 11852 0.077
4042 11820 0.068
4042 11826 0.17
4042 12489 0.423
4043 22841 0.082
4043 22933 0.378
4044 17913 0.078
4044 17930 0.208
4044 31553 0.069
4045 4099 1.463
4045 4100 1.001
4045 18056 2.243
4046 20662 0.04
4046 20663 0.089
4047 4050 0.312
4048 8069 0.241
4048 12407 0.403
4048 22834 0.052
4049 11886 0.204
4049 11887 0.132
4049 11888 0.069
4049 11889 0.052
4050 4117 1.565
4050 8383 0.754
4050 21018 0.788
4051 22841 0.043
4051 22842 0.08
4051 22843 0.197
4052 4078 0.769
4052 12201 0.038
4052 29619 0.192
4053 8109 0.652
4053 12203 0.335
4053 20663 0.07
4054 11864 0.038
4054 11865 0.199
4054 11867 0.374
4055 20987 1.679
4056 18182 0.12
4056 18191 0.182
4056 18192 0.158
4057 18154 0.088
4057 18155 0.106
4057 20779 0.89
4057 31486 0.133
4058 17710 0.238
4058 17783 0.222
4058 17796 0.085
4058 17813 0.365
4059 17709 0.069
4059 17711 0.086
4059 17712 0.08
4060 22855 0.473
4060 27759 0.091
4060 27760 0.046
4061 7949 0.664
4061 11874 0.081
4061 19435 0.129
4061 32775 0.433
4062 11971 0.039
4062 11972 0.111
4062 11973 0.15
4062 11976 0.085
4063 11811 0.144
4063 11812 0.128
4063 11817 0.195
4064 17969 0.202
4064 17970 0.084
4064 31534 0.567
4065 17971 0.073
4065 17972 0.106
4065 28830 0.803
4066 4067 0.374
4066 4068 0.365
4066 17816 0.179
4067 19310 0.063
4067 19311 0.052
4067 31528 0.119
4068 4093 0.382
4068 17798 0.235
4068 17799 0.055
4069 4070 0.385
4069 7935 0.114
4069 12042 0.256
4070 11870 0.116
4070 11871 0.125
4071 4072 0.505
4072 19651 0.347
4072 19673 0.101
4072 19726 0.075
4073 19312 0.045
4073 19313 0.085
4073 31528 0.191
4073 31529 0.162
4074 17935 0.037
4074 17936 0.102
4074 17953 0.128
4075 19651 0.319
4075 19697 0.05
4075 19708 0.621
4076 4105 0.353
4076 8113 0.657
4076 22911 0.225
4076 22925 0.036
4077 12205 0.133
4077 12211 0.12
4077 12212 0.068
4078 4126 0.165
4078 12204 0.286
4079 4102 0.347
4079 4103 0.606
4079 29125 0.682
4080 18192 0.249
4080 18193 0.057
4080 18194 0.077
4081 12043 0.117
4081 12044 0.428
4081 12072 0.284
4081 29127 0.874
4082 12056 0.179
4082 12072 0.245
4083 4087 0.462
4084 4115 0.442
4084 11835 0.043
4084 11851 0.072
4085 18149 0.396
4085 18154 0.328
4085 18161 0.085
4086 18162 0.162
4086 18163 0.047
4087 4117 1.693
4087 20820 0.221
4088 18197 0.201
4088 18222 0.753
4089 8759 0.598
4089 18221 0.063
4089 18222 0.115
4090 11877 0.087
4090 11878 0.12
4090 11879 0.07
4090 11880 0.095
4091 4092 0.618
4091 8110 0.397
4091 11881 0.048
4092 11842 0.047
4092 11843 0.15
4092 11893 0.171
4093 19311 0.321
4093 19322 0.2
4093 32394 0.147
4094 31657 1.395
4094 31658 0.195
4095 12122 0.07
4095 12123 0.086
4096 20989 1.535
4096 21018 0.435
4097 19316 0.042
4097 19317 0.217
4097 32394 0.155
4098 17953 0.047
4098 17954 0.038
4098 17955 0.047
4099 4100 0.476
4099 4178 0.758
4100 4101 0.479
4100 4102 0.198
4101 4136 0.678
4101 17712 0.662
4101 32848 0.193
4102 4103 0.488
4103 32850 0.835
4104 8107 0.15
4104 22907 0.109
4104 22908 0.179
4105 22912 0.046
4105 22930 0.094
4106 4109 0.165
4106 17963 0.06
4106 17972 0.152
4107 11884 0.046
4107 11885 0.097
4107 12116 0.331
4107 32501 0.236
4108 8593 0.419
4108 18153 1.491
4108 31527 0.997
4109 4127 0.318
4109 27983 0.15
4110 17787 0.187
4110 17788 0.146
4111 4112 0.415
4111 27790 0.215
4111 32779 0.205
4112 11855 0.974
4112 27785 0.292
4113 19710 0.109
4113 28805 0.45
4113 29128 0.2
4114 4135 0.362
4114 11845 0.049
4114 11859 0.054
4114 11860 0.219
4115 11846 0.131
4115 11847 0.09
4115 11894 0.064
4116 8720 0.544
4116 8721 0.843
4116 18227 0.546
4117 4162 0.355
4118 4121 0.554
4118 20521 0.699
4118 29124 0.339
4119 4120 0.643
4119 12039 0.093
4119 12040 0.069
4120 12061 0.113
4120 31895 0.123
4120 32773 0.328
4121 4211 1.816
4121 19712 0.417
4121 19715 0.372
4122 18013 0.211
4122 18133 0.059
4123 12107 0.05
4123 12108 0.071
4123 12114 0.15
4124 20536 0.167
4124 22916 0.042
4125 7989 0.34
4125 11786 0.048
4125 11800 0.175
4125 11855 0.351
4126 8114 0.244
4126 12191 0.114
4127 31443 0.097
4127 31446 0.214
4128 31437 0.081
4128 31438 0.038
4129 4137 0.225
4129 17797 0.07
4129 17809 0.249
4129 29131 0.455
4130 17807 0.092
4130 17808 0.06
4130 19321 0.191
4130 20777 0.24
4131 4142 0.197
4131 18149 0.796
4131 18173 0.114
4132 18165 0.065
4132 18166 0.091
4132 18167 0.076
4133 4141 0.252
4133 19319 0.13
4133 19320 0.075
4133 20777 0.229
4134 8723 0.851
4134 8760 0.562
4134 18228 0.701
4135 11894 0.216
4135 11895 0.051
4136 4180 0.791
4136 32849 0.238
4137 17767 0.166
4137 17804 0.144
4138 12029 0.088
4138 12030 0.114
4138 12036 0.18
4138 27790 0.281
4139 4140 0.161
4139 12038 0.081
4140 12016 0.058
4140 12037 0.231
4141 17967 0.201
4141 28408 0.629
4142 18014 0.167
4142 18015 0.065
4143 11788 0.159
4143 11789 0.049
4143 11790 0.055
4144 17734 0.332
4144 17781 0.231
4145 19320 0.123
4146 11801 0.06
4146 11802 0.037
4146 29132 0.379
4146 31887 0.179
4147 11804 0.128
4147 11805 0.07
4147 31888 0.243
4148 17804 0.302
4148 17805 0.156
4148 17806 0.124
4148 17807 0.152
4149 17726 0.198
4149 17780 0.187
4149 17781 0.046
4150 4151 0.338
4150 30074 0.03
4151 4154 0.44
4151 17767 0.163
4151 17768 0.074
4152 12109 0.112
4152 12110 0.14
4152 12111 0.21
4153 11903 0.061
4153 11904 0.116
4153 11905 0.21
4154 17805 0.084
4154 27964 0.113
4154 29133 0.178
4155 4175 0.686
4155 31279 0.81
4156 20981 0.242
4156 31658 1.224
4156 31659 0.04
4157 4158 0.822
4157 4234 1.21
4157 20988 0.75
4157 29134 0.731
4158 20987 0.391
4158 31659 0.423
4159 12111 0.054
4159 12112 0.147
4159 27822 0.607
4160 12195 0.061
4160 12196 0.067
4160 27817 0.101
4160 27824 0.033
4161 8114 0.523
4161 12200 0.101
4161 27834 0.125
4162 4174 1.921
4163 4164 0.363
4163 11900 0.182
4163 11914 0.241
4164 4167 0.116
4164 11897 0.046
4165 11791 0.176
4165 11792 0.04
4165 11794 0.053
4166 4167 0.543
4166 11807 0.123
4166 11808 0.027
4167 11899 0.094
4168 11901 0.066
4168 11902 0.065
4168 11907 0.065
4169 20773 0.156
4169 20774 0.153
4169 20775 0.16
4169 27966 0.172
4170 27979 0.08
4170 27981 0.122
4170 28408 0.172
4171 4176 0.09
4171 4177 0.411
4171 22928 0.188
4172 17291 0.174
4172 17330 0.19
4172 27978 0.08
4172 28405 0.232
4173 27828 0.183
4173 28108 0.061
4174 20819 0.062
4174 20820 1.531
4175 20818 0.086
4175 20819 0.448
4176 4181 0.234
4176 22884 0.154
4177 4233 0.384
4177 28135 3.046
4178 4193 1.155
4178 32852 0.592
4179 4202 0.752
4179 32850 0.318
4180 4196 0.707
4180 32851 0.026
4181 4236 0.6
4181 28133 3.491
4182 4212 0.508
4182 4221 0.184
4182 22871 0.19
4182 22880 0.297
4183 4184 0.523
4183 11768 0.038
4183 11769 0.087
4183 11772 0.313
4184 11809 0.211
4184 11924 0.04
4185 11756 0.107
4185 11757 0.125
4185 11758 0.156
4186 4187 0.65
4186 11908 0.064
4186 11946 0.189
4187 4203 0.544
4187 11943 0.048
4187 11945 0.033
4188 17766 0.157
4188 27972 0.064
4189 4238 1.076
4189 4243 1.223
4189 31281 0.73
4190 17973 0.066
4190 17980 0.345
4190 31509 0.067
4190 32436 0.357
4191 17311 0.053
4191 17320 0.044
4191 17338 0.649
4192 4202 0.479
4192 31912 1.042
4192 32850 0.636
4192 32852 0.282
4193 4399 3.58
4193 32852 0.616
4194 4196 0.065
4194 4215 0.189
4195 4205 0.227
4195 32852 0.081
4196 4215 0.183
4197 4205 0.26
4197 17713 0.048
4197 29135 0.144
4198 12151 0.041
4198 12152 0.189
4199 17976 0.063
4199 17977 0.163
4199 17980 0.15
4200 4210 0.139
4200 7996 0.409
4200 11979 0.096
4200 29136 0.444
4201 7997 0.356
4201 12011 0.05
4201 12012 0.059
4202 4397 3.575
4203 11925 0.087
4203 11926 0.051
4204 7995 0.422
4204 11751 0.162
4204 11752 0.06
4204 29136 0.591
4205 4206 0.352
4205 32851 0.378
4206 4215 0.186
4206 32851 0.68
4207 17721 0.157
4207 17741 0.067
4207 28833 0.161
4208 17977 0.058
4208 17978 0.091
4208 17979 0.146
4209 11982 0.063
4209 29136 0.139
4210 11980 0.084
4211 4223 0.342
4211 26872 1.501
4212 27830 0.03
4212 27842 0.265
4212 27843 0.166
4213 28195 0.279
4213 31897 0.211
4213 31899 0.079
4214 18006 0.086
4214 18037 0.043
4215 17267 0.488
4216 12152 0.127
4216 12153 0.151
4216 12154 0.21
4216 27842 0.278
4217 11939 0.755
4217 11946 0.204
4217 11947 0.076
4217 11949 0.143
4218 11937 0.061
4218 11938 0.04
4218 11939 0.039
4218 11940 0.071
4219 17752 0.097
4219 17753 0.102
4220 8120 0.227
4220 27840 0.265
4220 27850 0.036
4220 29137 0.114
4221 8122 0.255
4221 29138 0.346
4222 12154 0.283
4222 12159 0.208
4222 12162 0.393
4224 17747 0.113
4224 17751 0.21
4224 17762 0.243
4224 17772 0.634
4225 17762 0.167
4225 17763 0.151
4225 17765 0.183
4226 4232 0.226
4226 7998 0.444
4226 11989 0.298
4226 28195 0.346
4227 7998 0.525
4227 11981 0.077
4227 11983 0.063
4228 4260 0.23
4228 4267 0.263
4228 11987 0.124
4228 11988 0.134
4228 12017 0.087
4229 17246 0.136
4229 17732 0.194
4230 17998 0.087
4230 25483 0.059
4230 31503 0.234
4231 17274 0.165
4231 17284 0.192
4231 17285 0.063
4232 4273 0.905
4232 31899 0.306
4232 31900 0.083
4233 4246 0.295
4233 4248 0.565
4234 20981 0.971
4234 20984 0.628
4235 11930 0.063
4235 11931 0.048
4235 11932 0.054
4235 11933 0.226
4236 4249 0.228
4236 4250 0.527
4237 11166 0.461
4237 26871 0.205
4238 20791 0.079
4238 20792 0.038
4238 20796 0.318
4239 20806 0.094
4239 31467 0.084
4239 31468 0.177
4239 31697 0.441
4240 12025 0.041
4240 12081 0.185
4240 31900 0.144
4241 11917 0.115
4241 11918 0.143
4241 11932 0.468
4241 29139 0.939
4242 12155 0.034
4242 12156 0.039
4243 20815 0.246
4243 20816 0.277
4244 4260 0.829
4244 8000 0.469
4244 11775 0.057
4244 11776 0.253
4245 12162 0.048
4245 12168 0.054
4245 12189 0.393
4246 4248 0.271
4246 4249 0.079
4246 11168 0.359
4247 11167 0.28
4247 11168 0.071
4247 20500 0.711
4248 4311 1.122
4249 4250 0.302
4249 22922 0.225
4250 4309 0.987
4251 4254 0.073
4251 29070 0.046
4251 29138 0.198
4252 7953 0.427
4252 7999 1.118
4252 11778 0.033
4252 12256 0.238
4253 12190 0.184
4253 27836 0.122
4253 27838 0.263
4253 31654 0.188
4254 28834 0.092
4254 29069 0.095
4255 4256 0.964
4255 17691 0.155
4255 28835 0.813
4256 17746 0.096
4256 17750 0.195
4256 29140 0.375
4257 4261 0.117
4257 17247 0.205
4257 17261 0.114
4258 25470 0.602
4258 25485 0.291
4259 25470 0.079
4259 28836 0.098
4260 4267 0.464
4261 17248 0.185
4261 17249 0.054
4262 12181 0.098
4262 12182 0.188
4262 12183 0.126
4263 4264 0.326
4263 11952 0.058
4263 11953 0.139
4264 11935 0.084
4264 11936 0.225
4264 11959 0.182
4265 4288 0.64
4265 17267 0.106
4265 17268 0.074
4266 17255 0.601
4266 17259 0.172
4266 17268 0.195
4267 8002 0.616
4268 17279 0.068
4268 17280 0.027
4268 28832 0.549
4269 11989 0.304
4269 11999 0.343
4270 11919 0.148
4270 11920 0.042
4271 4290 0.436
4271 11956 0.048
4271 11957 0.057
4272 8002 0.557
4272 12219 0.04
4272 12220 0.167
4272 12221 0.153
4273 4312 0.984
4273 12021 0.082
4274 17297 0.037
4274 17303 0.147
4274 17335 0.57
4275 4282 0.079
4275 17278 0.036
4275 17294 0.044
4276 4277 0.131
4276 12280 0.198
4276 29070 0.579
4277 22917 0.051
4277 22918 0.123
4278 17642 0.189
4278 17645 0.054
4278 28783 0.312
4279 17003 0.094
4279 17004 0.074
4279 31903 0.316
4280 25457 0.199
4280 25458 0.073
4280 31321 0.294
4281 4284 0.076
4281 17334 0.048
4281 17981 0.803
4282 17292 0.034
4282 17293 0.253
4283 20814 0.057
4283 25445 0.324
4284 4327 0.978
4284 17639 0.16
4285 4313 0.603
4285 17251 0.663
4285 17263 0.196
4285 17671 0.127
4286 11963 0.149
4286 11964 0.038
4286 11965 0.037
4287 4300 0.262
4287 11955 0.102
4287 11965 0.089
4288 4307 1.364
4288 17063 0.267
4289 12336 0.048
4289 12337 0.041
4289 12338 0.067
4289 12340 0.102
4290 4291 0.083
4290 12334 0.057
4291 12345 0.214
4291 12352 0.208
4292 17048 0.318
4292 17058 0.09
4292 17069 0.068
4292 31908 0.051
4293 17063 0.068
4293 17064 0.2
4293 17066 0.103
4294 17694 0.058
4294 17695 0.048
4294 27986 0.355
4295 17304 0.181
4295 17305 0.064
4295 26103 0.118
4296 4298 0.169
4296 17641 0.067
4296 17984 0.159
4297 11148 0.179
4297 11155 0.238
4298 17629 0.053
4298 17630 0.063
4299 17012 0.692
4299 17037 0.048
4299 17038 0.109
4299 31902 0.169
4300 8007 0.201
4300 8008 0.443
4301 12346 0.073
4301 12349 0.069
4301 12355 0.186
4302 12534 0.089
4302 12535 0.246
4302 29143 0.219
4303 7951 0.464
4303 12020 0.214
4303 12233 0.577
4303 12241 0.043
4304 8001 0.81
4304 12242 0.057
4304 12243 0.182
4305 4322 0.216
4305 12344 0.037
4305 12345 0.326
4306 17051 0.076
4306 17056 0.124
4306 17059 0.049
4307 4314 0.768
4307 17160 0.322
4308 4379 1.374
4308 12535 0.039
4309 4310 0.313
4309 4317 0.599
4310 4317 0.295
4310 4318 0.129
4310 8123 0.369
4311 4323 0.548
4311 30419 0.534
4312 12220 0.111
4312 16933 0.53
4313 4316 0.278
4313 17264 0.193
4314 4358 0.704
4314 17264 0.346
4315 17667 0.061
4315 17668 0.102
4315 17686 0.027
4316 17229 0.457
4316 17669 0.065
4317 4448 1.947
4318 4323 0.265
4318 30419 0.252
4319 12264 0.268
4319 12265 0.051
4320 4344 0.465
4320 12260 0.262
4320 12261 0.048
4320 19644 0.281
4321 12341 0.09
4321 12342 0.03
4321 12389 0.085
4322 12343 0.055
4322 29144 0.111
4323 4449 1.889
4324 4333 0.234
4324 17632 0.234
4324 17634 0.048
4325 16934 0.265
4325 28109 0.077
4325 29145 0.34
4326 17647 0.061
4326 17648 0.182
4326 17660 0.425
4327 17636 0.103
4327 17637 0.06
4328 17649 0.206
4328 17650 0.381
4328 26099 0.151
4328 26100 0.039
4328 26104 0.157
4329 12269 0.062
4329 12279 0.035
4329 12285 0.079
4330 17157 0.046
4330 17164 0.507
4330 17169 0.168
4330 31684 0.172
4331 4361 1.579
4331 26107 0.056
4331 26108 0.079
4331 29077 0.435
4332 8372 1.016
4332 23670 0.103
4332 23676 0.079
4333 17624 0.101
4333 17625 0.061
4334 17065 0.272
4334 17070 0.327
4334 17085 0.339
4335 4353 0.647
4335 17613 0.053
4335 17635 0.36
4336 4337 0.193
4336 11174 0.078
4336 20501 0.077
4336 30419 0.228
4337 8072 0.241
4337 20490 0.507
4338 8071 0.516
4338 12299 0.231
4338 12314 0.065
4339 4340 0.236
4339 7965 0.269
4339 8009 0.606
4340 12376 0.175
4340 12388 0.107
4341 23786 0.035
4341 23787 0.209
4342 4352 0.213
4342 7981 0.105
4342 8587 0.521
4343 4370 0.26
4343 19649 0.289
4343 29146 0.851
4344 4345 0.317
4344 4375 0.518
4345 12246 0.087
4345 12714 0.038
4345 16943 0.25
4346 12357 0.679
4346 12367 0.039
4346 12368 0.042
4347 4417 0.618
4347 29142 0.503
4347 31336 1.66
4348 17013 0.033
4348 17025 0.388
4348 17061 0.224
4349 4383 0.559
4349 23656 0.055
4349 23657 0.117
4350 8422 0.442
4350 8436 0.364
4350 29141 0.656
4351 12240 0.102
4351 16943 0.13
4351 16945 0.179
4352 7980 0.706
4352 18306 0.431
4353 4355 0.103
4353 17610 0.163
4354 4355 0.51
4354 17614 0.109
4354 26095 0.055
4355 17651 0.231
4356 8598 0.352
4356 19630 0.421
4356 31684 0.227
4356 31685 0.344
4357 8597 0.086
4357 17231 0.077
4357 17681 0.05
4358 17231 0.144
4358 17232 0.072
4359 17608 0.134
4359 17609 0.061
4359 31366 0.162
4360 12250 0.182
4360 12251 0.059
4360 12252 0.155
4360 16945 0.113
4361 17684 0.141
4361 17685 0.11
4362 8597 0.387
4362 17682 0.254
4362 17685 0.055
4363 8127 0.517
4363 12289 0.047
4363 12290 0.279
4364 4367 0.485
4364 17013 0.254
4364 17014 0.076
4365 8460 0.485
4365 17234 0.46
4365 17682 0.112
4366 4367 0.268
4366 4400 0.592
4366 17071 0.058
4366 17072 0.123
4368 4380 0.567
4368 4386 1.137
4368 25444 0.131
4369 4370 0.188
4369 4385 0.302
4369 12268 0.088
4369 30346 0.137
4370 12723 0.248
4371 8126 0.576
4371 12275 0.063
4371 12276 0.174
4371 12277 0.142
4372 8128 0.381
4372 12330 0.097
4372 32396 0.057
4373 4376 0.314
4373 17072 0.191
4373 17073 0.055
4374 4375 0.076
4374 12718 0.146
4374 30075 0.219
4375 30346 0.336
4376 17088 0.196
4376 17089 0.103
4377 17089 0.167
4377 19630 0.08
4377 19631 0.121
4378 12708 0.128
4378 12718 0.146
4378 28838 0.037
4379 8079 0.604
4379 12294 0.408
4379 12536 0.065
4380 23702 0.207
4381 4420 0.523
4381 23659 0.039
4381 23660 0.078
4381 23667 0.363
4382 8129 0.173
4382 12290 0.043
4382 12291 0.261
4383 23654 0.049
4383 23655 0.048
4384 4387 0.54
4384 12987 0.062
4384 28109 0.48
4385 12717 0.156
4385 30346 0.276
4386 4420 1.093
4387 4402 0.456
4387 12988 0.222
4387 16918 0.11
4388 12988 0.078
4388 12989 0.06
4388 12992 0.104
4389 19631 0.159
4389 19632 0.092
4389 19633 0.213
4390 8460 0.366
4390 17683 0.123
4390 17684 0.192
4391 12371 0.203
4391 12662 0.061
4391 12678 0.28
4392 4393 0.067
4392 17199 0.285
4392 19636 0.021
4393 4433 0.363
4393 19634 0.056
4394 23638 0.161
4394 23655 0.258
4395 4472 1.303
4395 8128 0.72
4395 26870 0.135
4396 30689 0.16
4397 4434 0.456
4397 4436 1.031
4398 8127 0.352
4398 8129 0.469
4398 8130 0.424
4399 4437 0.512
4399 4439 0.907
4400 4411 0.311
4400 4440 0.571
4401 4409 0.642
4401 16893 0.069
4401 16894 0.139
4401 16904 0.336
4402 12993 0.149
4402 28110 0.12
4403 17017 0.178
4403 17047 0.254
4403 28111 0.051
4404 8437 0.573
4404 12255 0.059
4404 12964 0.306
4405 4409 0.235
4405 4422 0.205
4405 4424 0.593
4406 17604 0.183
4406 17605 0.083
4406 17606 0.204
4406 31085 0.997
4407 4461 0.915
4407 17616 0.185
4407 17617 0.172
4408 17198 0.078
4408 17199 0.361
4408 17208 0.176
4408 17244 0.321
4409 4414 0.427
4410 4431 0.62
4410 8077 0.602
4410 8130 0.462
4410 12293 0.096
4411 4412 0.302
4411 17076 0.065
4411 17077 0.057
4412 19616 0.033
4412 19617 0.098
4413 4430 0.275
4413 12710 0.271
4413 12711 0.209
4413 12719 0.218
4414 17044 0.028
4414 17045 0.146
4415 12695 0.513
4415 12709 0.16
4415 12723 0.293
4416 4417 0.279
4416 23632 0.229
4416 23638 0.041
4417 4435 0.285
4418 4419 0.589
4418 17683 0.199
4418 17739 0.137
4419 4444 0.424
4419 17197 0.321
4419 17218 0.048
4420 4464 0.415
4421 12964 0.161
4421 12965 0.047
4421 29075 0.787
4422 17101 0.02
4422 17102 0.048
4423 19617 0.184
4423 19622 0.583
4423 19633 0.089
4423 19639 0.122
4424 4434 0.139
4424 17018 0.109
4424 28112 0.176
4425 17537 0.047
4425 17538 0.085
4425 17551 0.072
4426 12994 0.136
4426 12995 0.122
4427 4456 1.218
4427 23631 0.307
4427 23661 0.317
4428 12992 0.202
4428 16852 0.314
4428 16871 0.386
4429 12966 0.176
4429 12967 0.053
4429 12968 0.078
4429 12970 0.099
4430 8437 1.079
4430 12391 0.15
4431 12304 0.071
4431 12305 0.265
4432 4433 0.319
4432 17200 0.141
4432 17201 0.081
4433 4469 0.777
4434 4436 0.583
4434 4437 0.122
4435 23644 0.078
4435 23645 0.035
4436 4554 1.624
4437 4439 0.398
4437 4440 0.153
4438 12997 0.074
4438 12998 0.066
4438 16871 0.309
4438 16910 0.251
4439 4533 1.535
4440 4446 0.305
4440 4467 0.483
4441 4442 0.183
4441 12694 0.058
4441 12695 0.079
4442 12698 0.044
4442 31884 0.27
4443 4460 0.144
4443 12679 0.296
4443 12697 0.917
4444 8454 0.42
4444 17210 0.112
4444 17211 0.034
4445 17228 0.045
4445 17740 0.177
4445 31672 0.15
4446 4450 0.65
4446 17079 0.208
4446 19624 0.135
4447 12974 0.058
4447 12975 0.055
4450 4469 0.168
4450 4470 0.054
4450 19628 0.137
4451 4535 0.921
4452 4526 1.063
4453 17580 0.06
4453 17581 0.148
4453 27987 0.424
4454 8373 0.442
4454 17556 0.054
4454 17557 0.125
4455 17601 0.118
4455 17602 0.044
4455 17603 0.277
4455 17618 0.159
4456 4494 0.622
4456 23633 0.513
4457 4459 0.134
4457 4478 0.397
4457 8013 0.238
4458 8838 0.38
4458 16885 0.062
4458 16886 0.092
4458 16910 0.321
4459 4486 0.432
4459 12680 0.217
4460 4481 0.332
4460 12683 0.127
4461 17594 0.186
4461 17602 0.135
4462 17585 0.259
4462 17593 0.032
4462 17594 0.081
4463 17419 0.159
4463 19624 0.146
4463 31687 0.116
4464 4497 1.117
4464 23662 0.505
4465 23595 0.055
4465 23596 0.063
4465 23597 0.289
4466 17111 0.674
4466 17115 0.112
4466 19642 0.122
4466 28096 0.15
4467 8603 0.122
4467 17417 0.135
4467 28096 0.104
4468 8838 0.129
4468 17133 0.109
4468 17140 0.04
4469 4473 0.366
4470 19625 0.16
4470 30076 0.122
4471 17418 0.025
4471 17419 0.042
4471 17420 0.03
4472 10022 0.288
4472 10023 1.32
4473 8600 0.09
4473 17372 0.633
4473 19615 0.106
4474 4475 0.874
4474 4476 0.435
4474 12390 0.225
4474 12393 0.046
4475 12701 0.157
4475 12702 0.169
4475 31877 0.404
4476 4546 0.942
4476 16846 0.044
4477 19625 0.042
4477 19626 0.04
4477 19627 0.034
4478 31875 0.089
4478 31876 0.07
4479 8458 0.479
4479 17202 0.099
4479 19613 0.225
4480 4561 5.634
4480 8346 1.791
4480 28840 4.753
4481 4506 2.082
4481 12597 0.439
4481 12684 0.161
4482 17600 0.174
4482 17623 0.066
4482 27124 0.145
4483 12977 0.125
4483 12978 0.058
4483 12980 0.044
4484 17223 0.056
4484 17224 0.07
4484 17225 0.159
4485 17221 0.262
4485 17222 0.064
4485 17223 0.056
4486 4491 0.481
4486 12724 0.436
4487 23793 0.055
4487 23794 0.226
4488 8610 0.479
4488 23686 0.152
4488 23687 0.097
4489 23600 0.094
4489 23682 0.084
4489 23683 0.132
4489 23685 0.061
4490 17427 0.077
4490 17428 0.083
4490 27128 0.373
4491 4511 0.254
4491 12684 0.303
4492 17586 0.027
4492 17597 0.11
4493 17466 0.161
4493 17589 0.096
4493 17590 0.134
4494 23637 0.052
4494 31675 0.074
4495 16857 0.092
4495 16859 0.166
4495 16861 0.096
4496 23576 0.505
4496 23618 1.727
4496 23630 0.056
4497 23618 0.338
4497 23619 0.048
4498 4548 0.617
4498 17623 0.322
4498 31690 0.049
4499 17433 0.102
4499 17622 0.079
4499 31690 0.052
4500 4769 5.151
4500 29147 2.711
4501 4502 0.442
4501 4509 0.812
4501 12704 0.054
4501 12705 0.049
4502 12726 0.107
4502 31874 0.155
4503 17432 0.498
4503 17737 0.27
4503 17738 0.047
4504 4505 1.861
4504 12309 0.344
4504 13089 0.065
4504 13099 1.176
4505 8014 0.911
4505 31866 0.324
4506 8015 0.295
4506 12574 0.257
4507 17144 0.124
4507 17145 0.175
4507 31914 0.04
4508 23593 0.108
4508 23594 0.117
4508 29148 0.113
4509 4540 0.253
4509 12392 0.497
4510 4515 0.345
4510 12618 0.153
4510 12724 0.099
4510 28197 0.46
4511 12617 0.109
4511 12618 0.067
4511 32834 0.084
4512 13001 0.199
4512 16879 0.178
4512 20540 0.118
4513 4517 0.33
4513 20539 0.066
4513 20540 0.065
4513 20541 0.176
4514 4591 0.54
4514 23680 0.058
4514 23681 0.078
4515 4516 0.238
4515 4531 0.166
4515 12727 0.14
4516 4531 0.226
4516 12726 0.062
4517 4537 0.703
4518 4525 1.035
4519 8438 0.048
4519 16815 0.041
4519 16816 0.046
4520 17466 0.048
4520 17467 0.07
4520 17468 0.281
4521 17462 0.055
4521 17463 0.232
4522 17358 0.092
4522 17359 0.132
4522 28114 0.657
4523 8610 0.611
4523 23684 0.115
4523 23697 0.164
4524 23693 0.073
4524 23694 0.129
4524 23701 0.324
4526 4552 0.45
4526 4576 0.909
4527 4563 0.475
4527 17371 0.454
4527 17428 0.433
4528 8612 0.139
4528 17377 0.34
4529 4592 0.606
4529 17370 0.152
4529 17377 0.157
4529 17385 0.089
4530 12707 0.081
4530 12727 0.105
4530 12728 0.241
4531 12767 0.459
4532 4533 0.534
4532 4534 0.17
4532 8605 0.262
4533 4603 0.914
4534 4556 0.108
4534 17414 0.174
4535 4560 0.624
4535 4582 1.041
4536 16810 0.049
4536 16812 0.234
4536 16821 0.412
4536 16863 0.138
4537 17149 0.078
4537 17150 0.057
4537 17151 0.328
4538 17146 0.029
4538 17148 0.049
4538 17149 0.239
4539 17359 0.051
4539 17360 0.125
4539 17368 0.08
4540 4546 0.4
4540 4574 0.493
4541 17468 0.047
4541 17469 0.072
4541 17473 0.092
4542 17491 0.107
4542 17494 0.066
4542 17500 0.397
4543 13099 0.179
4543 13109 0.188
4543 13113 0.289
4544 17187 0.216
4544 20544 0.042
4544 20545 0.107
4545 16863 0.206
4545 16864 0.032
4545 17172 0.467
4546 8616 0.105
4547 29149 0.178
4548 4549 0.093
4548 4551 0.371
4548 17439 0.44
4549 4550 0.254
4549 17435 0.029
4550 17437 0.169
4551 27122 0.196
4551 27124 0.891
4552 4560 0.09
4552 4564 0.075
4552 29150 0.372
4553 4566 0.699
4553 4567 0.192
4553 10307 0.337
4554 4555 0.384
4554 4600 0.754
4555 4556 0.174
4555 17156 0.17
4556 8617 0.192
4556 8620 0.339
4557 17502 0.096
4557 17524 0.075
4557 17525 0.175
4558 17501 0.124
4558 17510 0.134
4558 17524 0.32
4559 4592 0.29
4559 8465 0.512
4559 8619 0.059
4560 4565 0.11
4560 13108 0.232
4561 4562 2.896
4562 10009 1.125
4563 8439 0.279
4563 28113 0.177
4566 8159 0.142
4566 10273 0.724
4567 10295 0.055
4567 10305 0.038
4568 17361 0.141
4568 17362 0.181
4568 31086 0.126
4569 4571 0.25
4569 20958 0.121
4569 29149 0.329
4570 4770 18.679001
4570 20965 0.089
4570 20966 0.598
4571 20959 0.419
4572 4581 0.09
4572 12604 0.12
4572 12605 0.162
4573 4578 0.04
4573 23701 0.063
4573 31650 0.025
4574 12752 0.051
4574 12753 0.157
4575 12730 0.051
4575 12731 0.065
4575 12753 0.037
4576 4577 0.214
4576 4847 2.678
4578 23711 0.352
4578 23714 0.753
4579 16797 0.073
4579 16806 0.184
4579 16822 0.52
4580 16829 0.177
4580 17175 0.04
4580 17176 0.471
4581 28198 0.728
4581 29151 0.36
4582 4583 0.174
4582 4850 2.706
4584 16841 0.033
4584 16842 0.064
4584 28367 0.079
4585 4587 0.055
4585 4614 0.36
4585 27121 0.104
4586 4587 0.589
4586 17441 0.117
4586 17442 0.133
4587 27122 0.092
4588 12755 0.181
4588 12756 0.097
4588 12757 0.065
4589 4661 0.381
4589 17532 0.219
4589 17533 0.067
4590 17515 0.176
4590 17525 0.084
4590 17526 0.044
4591 8625 0.473
4591 8626 0.228
4592 4596 0.062
4593 17422 0.644
4593 17429 0.189
4593 17430 0.091
4594 4629 0.454
4594 8529 0.112
4594 20554 0.227
4595 20552 0.057
4595 20553 0.153
4595 20554 0.113
4596 17373 0.073
4596 17393 0.087
4597 12961 0.072
4597 16840 0.199
4597 28409 0.643
4598 4613 0.355
4598 17437 0.208
4598 17443 0.033
4599 17346 0.052
4599 17347 0.261
4599 27128 0.546
4600 4601 0.377
4600 4732 0.918
4601 4604 0.087
4601 17151 0.164
4602 27727 0.108
4603 4604 0.28
4603 4729 1.008
4604 27263 0.133
4605 17363 0.09
4605 17364 0.093
4605 17388 0.084
4606 17367 0.042
4606 17396 0.557
4607 13087 0.084
4607 13088 0.071
4607 13097 0.826
4608 12757 0.09
4608 12758 0.105
4608 12759 0.148
4609 13081 0.095
4609 13082 0.205
4609 13083 0.052
4609 13110 0.528
4610 12576 0.2
4610 12577 0.052
4610 31871 0.266
4611 12577 0.066
4611 12578 0.167
4611 12581 0.186
4612 17458 0.482
4612 17472 0.039
4612 17482 0.204
4613 17442 0.047
4613 17444 0.086
4613 17445 0.075
4614 17446 0.601
4614 17452 0.248
4615 4658 1.058
4616 4617 0.305
4616 8621 0.174
4616 8628 0.169
4617 4667 0.511
4617 27263 0.211
4618 4619 0.322
4618 16830 0.2
4618 16836 0.125
4618 16837 0.192
4619 4659 0.571
4619 28119 0.133
4620 8629 0.047
4620 17478 0.199
4620 17479 0.167
4620 17482 0.073
4621 4623 0.155
4621 12554 0.066
4621 12592 0.708
4622 12564 0.049
4622 12565 0.128
4623 12555 0.051
4624 8623 0.065
4624 8630 0.126
4624 16837 0.244
4625 20547 0.032
4625 20558 0.112
4625 28116 0.047
4626 4627 0.147
4626 12637 0.034
4626 31871 0.143
4627 12625 0.19
4627 12627 0.058
4628 5968 23.164
4629 4670 0.42
4629 8631 0.112
4629 20560 0.033
4630 4696 0.836
4630 12747 0.039
4630 12758 0.146
4631 12735 0.065
4631 12736 0.154
4631 12751 0.107
4631 32389 0.211
4632 4637 0.46
4632 4664 0.348
4632 17422 0.117
4633 12630 0.175
4633 12631 0.128
4634 4639 0.037
4634 12631 0.122
4634 28199 0.308
4635 4657 1.321
4636 4671 0.203
4636 4673 0.196
4636 8419 0.102
4636 17353 0.041
4636 17354 0.133
4637 4665 0.312
4637 17347 0.046
4637 17355 0.184
4638 4648 0.045
4638 8614 0.555
4638 20566 0.134
4639 12647 0.046
4639 28198 0.048
4640 4644 0.548
4640 4685 0.426
4640 29152 0.751
4640 29153 0.336
4641 22771 0.353
4641 22773 0.639
4641 30687 1.003
4642 12819 0.072
4642 12820 0.067
4642 12821 0.08
4642 12958 0.221
4643 4698 0.579
4643 12823 0.071
4643 28373 0.075
4644 12738 0.083
4644 12740 0.053
4645 16303 0.094
4645 17444 0.379
4646 17531 0.045
4646 17536 0.218
4646 25611 0.438
4647 20564 0.09
4647 22768 0.203
4648 20565 0.032
4648 30690 0.3
4649 4653 0.21
4649 10302 0.093
4649 13125 0.413
4650 23703 0.347
4650 23734 0.333
4650 29154 0.458
4651 4666 0.739
4651 8622 0.308
4652 17521 0.226
4652 17523 0.066
4652 17527 0.034
4653 8164 0.377
4653 10297 0.221
4654 13085 0.177
4654 13092 0.029
4654 13093 0.103
4655 13114 0.09
4655 13115 0.041
4655 13116 0.043
4656 8953 1.286
4656 28632 0.158
4656 28841 0.809
4657 8946 0.024
4657 32932 14.727
4658 5558 21.221001
4659 12955 0.11
4659 16784 0.045
4660 4670 0.293
4660 22771 0.055
4660 30691 0.129
4661 25606 0.049
4661 25607 0.051
4661 25608 0.04
4662 4667 0.197
4662 22769 0.061
4662 22770 0.041
4663 16301 0.088
4663 16302 0.05
4663 17426 0.198
4664 17423 0.063
4664 17424 0.067
4665 17356 0.069
4665 17357 0.036
4666 23734 0.042
4666 23735 0.037
4667 30692 0.173
4668 8628 0.263
4668 30692 0.163
4668 30693 0.144
4668 30694 0.089
4669 8135 0.369
4669 13122 0.282
4669 13152 0.137
4670 20568 0.057
4671 4672 0.172
4671 4682 0.318
4672 4682 0.153
4672 4683 0.079
4672 16308 0.047
4673 4683 0.194
4673 4688 0.303
4674 12634 0.073
4674 12635 0.063
4674 12638 0.2
4675 8020 0.099
4675 12640 0.1
4675 13287 0.024
4676 4686 0.183
4676 17376 0.4
4676 30693 0.2
4676 30695 0.098
4677 8635 0.248
4677 17485 0.059
4677 17486 0.1
4678 4679 0.375
4678 4751 0.568
4678 12644 0.041
4678 12645 0.132
4679 12647 0.371
4679 12648 0.079
4680 23801 0.294
4680 23844 0.065
4680 23850 0.811
4681 23548 0.091
4681 23549 0.145
4682 4827 1.387
4683 4688 0.111
4683 8440 0.186
4684 12743 0.035
4684 12781 0.161
4684 28843 0.024
4685 13690 0.251
4685 13697 0.191
4686 4699 0.173
4687 8632 0.382
4687 25611 0.189
4687 25614 0.074
4688 4820 1.335
4689 4691 0.094
4689 4695 0.227
4689 25605 0.03
4690 4691 0.273
4690 25579 1.256
4690 30436 0.466
4691 17486 0.18
4692 4694 0.125
4692 4707 0.167
4692 30694 0.104
4693 4694 0.215
4693 4699 0.192
4693 4715 0.182
4693 30695 0.083
4694 4708 0.174
4695 27120 1.306
4695 30437 0.454
4696 7871 0.443
4696 12746 0.172
4697 12816 0.05
4697 12817 0.143
4697 28844 0.033
4698 12811 0.05
4698 12812 0.038
4699 4712 0.18
4699 4717 0.183
4700 13096 0.738
4700 13118 0.019
4700 13133 0.053
4701 4702 0.155
4701 16781 0.062
4701 30691 0.175
4702 4723 0.395
4702 16772 0.088
4703 12645 0.129
4703 12649 0.049
4703 12917 0.116
4703 12918 0.048
4704 4707 0.329
4704 22763 0.052
4704 27250 0.063
4705 16775 0.098
4705 16776 0.072
4705 16777 0.06
4705 16779 0.137
4706 8440 0.085
4706 16307 0.079
4706 16370 0.071
4707 4708 0.124
4707 4747 0.364
4708 4715 0.217
4708 4741 0.317
4709 12914 0.08
4709 12915 0.065
4709 12916 0.116
4710 10075 0.041
4710 10076 0.172
4710 10077 0.156
4711 10010 0.108
4711 10076 0.16
4711 10276 0.988
4712 4719 0.181
4712 4721 0.527
4713 8026 0.619
4713 13301 0.029
4713 13302 0.03
4713 13303 0.077
4714 12808 0.08
4714 12809 0.047
4714 12810 0.073
4715 4717 0.197
4715 4740 0.218
4716 10081 0.177
4716 10087 0.258
4716 10088 0.08
4717 4718 0.119
4717 22757 0.088
4718 4736 0.168
4718 4765 0.277
4719 4736 0.114
4719 22754 0.068
4719 22757 0.086
4720 4739 0.243
4720 16383 0.055
4720 16390 0.106
4721 4730 0.193
4721 16412 0.058
4722 8022 0.391
4722 16757 0.032
4722 16758 0.072
4723 16763 0.044
4723 16764 0.036
4724 16776 0.145
4724 16783 0.038
4724 30687 0.207
4725 25598 0.106
4725 25599 0.076
4725 31648 0.036
4726 25601 0.116
4726 25602 0.054
4726 25604 0.374
4727 4754 0.269
4727 16365 0.193
4727 16366 0.052
4727 16367 0.035
4728 16364 0.06
4728 16365 0.14
4728 17398 0.46
4729 4752 0.377
4729 4864 1.264
4730 4748 0.145
4730 16418 0.04
4730 32688 0.173
4731 4767 0.428
4731 12913 0.026
4731 12914 0.061
4732 4750 0.395
4732 4852 1.33
4733 8025 0.74
4733 13289 0.063
4733 13290 0.316
4734 12939 0.065
4734 12940 0.052
4735 4750 0.147
4735 16782 0.315
4735 30690 0.823
4736 22752 0.1
4736 31640 0.026
4737 4738 0.156
4737 23743 0.145
4737 28791 0.136
4738 8634 0.146
4738 23741 0.153
4739 4771 0.121
4739 16382 0.197
4739 16393 0.053
4740 28091 0.046
4741 4747 0.126
4741 28092 0.137
4742 8243 0.573
4742 9023 0.043
4742 9024 0.103
4743 16778 0.186
4743 20571 0.22
4743 22738 0.143
4743 29073 0.247
4744 23569 0.078
4744 23847 0.189
4745 23563 0.584
4745 23564 0.055
4745 23573 0.229
4746 8165 0.44
4746 8166 0.272
4746 13153 0.211
4746 13157 0.058
4747 8761 0.147
4747 22743 0.154
4748 4768 0.27
4748 16409 0.048
4748 31647 0.056
4749 22743 0.029
4749 22744 0.028
4749 22745 0.025
4750 4752 0.132
4750 4788 0.611
4751 4762 0.027
4751 12944 0.168
4752 27258 0.164
4753 22746 0.038
4753 27258 0.016
4753 28358 0.232
4754 16359 0.022
4754 16360 0.126
4754 16389 0.031
4755 23718 0.084
4755 23719 0.102
4755 23720 0.074
4755 23741 0.088
4755 23742 0.135
4756 4759 0.133
4756 23719 0.063
4756 23721 0.106
4757 4807 0.719
4757 23530 0.067
4757 23558 0.052
4758 23527 0.207
4758 23546 0.152
4759 23718 0.043
4759 28791 0.387
4759 30982 0.576
4760 8250 0.823
4760 8999 0.072
4760 30077 0.59
4761 13173 0.195
4761 13192 0.236
4762 4763 0.237
4762 30366 0.24
4763 8027 0.256
4763 12921 0.036
4763 12954 0.23
4764 22752 0.181
4764 22753 0.096
4764 26215 0.283
4764 26217 0.036
4765 22758 0.071
4765 22759 0.235
4765 26216 0.086
4766 23515 0.236
4766 23516 0.065
4766 23546 0.5
4767 4805 0.466
4767 8027 0.117
4767 12774 0.092
4768 16410 0.053
4768 26211 0.464
4769 23813 0.658
4769 23814 0.047
4770 23809 0.55
4771 28851 0.042
4771 30696 0.155
4772 4773 0.145
4772 22741 0.121
4772 22767 0.077
4772 30574 0.328
4773 26214 0.196
4773 30420 0.051
4774 12769 0.219
4774 12770 0.225
4775 12784 0.057
4775 12785 0.056
4775 12791 0.076
4776 9102 0.054
4776 29155 0.464
4776 29607 0.338
4777 12797 0.089
4777 12828 0.202
4777 28844 0.661
4778 8982 0.259
4778 28644 0.112
4778 28840 0.733
4778 28841 0.235
4779 16384 0.047
4779 16386 0.053
4779 28853 0.119
4780 20571 0.061
4780 22736 0.225
4780 22737 0.103
4781 4843 0.63
4781 10071 0.025
4781 10073 0.35
4782 4791 0.872
4782 28852 0.442
4783 4787 0.11
4783 8024 0.286
4783 12769 0.109
4784 13137 0.034
4784 13138 0.038
4784 13139 0.058
4784 13140 0.104
4785 8133 0.334
4785 8166 0.375
4785 13151 0.038
4785 13158 0.155
4786 4821 0.071
4786 16350 0.064
4786 16351 0.299
4787 8029 0.827
4787 12829 0.09
4788 4817 0.162
4788 22730 0.066
4789 20573 0.144
4789 27269 0.056
4789 30697 0.212
4789 30698 0.247
4790 13141 0.189
4790 13177 0.117
4791 4792 0.189
4791 9201 0.083
4792 4937 1.118
4792 9225 0.197
4792 29608 1.15
4793 22724 0.097
4793 22725 0.042
4793 28361 0.196
4794 4795 0.182
4794 12792 0.047
4795 12830 0.109
4796 4829 0.263
4796 22726 0.057
4796 29156 0.165
4796 30575 0.029
4797 4803 0.135
4797 4835 0.31
4797 22747 0.066
4797 22748 0.154
4798 8026 0.045
4798 8030 0.571
4798 13293 0.043
4799 7954 0.308
4799 12799 0.081
4799 12800 0.073
4799 31918 0.044
4800 8982 0.234
4800 9005 0.899
4800 28850 0.167
4801 13162 0.116
4801 13174 0.136
4801 13175 0.148
4801 13191 0.131
4802 8252 0.259
4802 9004 0.366
4802 30700 0.161
4803 4804 0.08
4803 26214 0.251
4804 4809 0.139
4804 26213 0.281
4805 4848 0.425
4805 8762 0.107
4806 4819 0.301
4806 16754 0.093
4806 22737 0.094
4807 23524 0.035
4807 23525 0.058
4808 23521 0.098
4808 23522 0.035
4808 23523 0.09
4809 26215 0.281
4809 28095 0.293
4809 29158 0.229
4810 4812 0.449
4810 4823 0.073
4810 13206 0.669
4811 13189 0.039
4811 13190 0.27
4811 13230 0.078
4812 13199 0.167
4812 13230 0.233
4813 8033 0.192
4813 12922 0.092
4813 12949 0.187
4813 30366 0.468
4814 8031 0.321
4814 8034 0.175
4814 32387 0.249
4815 16334 0.102
4815 16401 0.154
4815 16411 0.106
4815 28733 0.259
4816 16324 0.045
4816 16325 0.121
4816 16401 0.494
4816 16405 0.103
4817 4841 0.279
4817 22733 0.047
4817 27264 0.065
4818 22719 0.126
4818 27264 0.138
4819 30701 0.124
4819 31924 0.052
4819 31925 0.032
4820 4821 0.163
4820 4826 0.486
4821 4826 0.326
4821 4828 0.068
4822 22719 0.126
4822 22722 0.095
4823 13223 0.217
4823 28855 0.124
4824 4849 0.187
4824 12924 0.043
4824 12950 0.214
4825 4846 0.243
4825 22722 0.033
4825 22723 0.066
4826 4921 0.939
4827 4828 0.161
4827 4836 0.471
4828 4836 0.305
4828 16362 0.292
4829 4851 0.245
4830 9199 0.345
4831 4832 0.332
4831 16422 0.129
4831 28095 0.204
4831 29159 0.301
4832 16333 0.14
4832 16334 0.131
4832 30703 0.224
4833 4839 0.618
4833 13223 0.688
4833 13308 0.05
4833 13309 0.183
4834 7957 0.635
4834 13310 0.048
4834 13311 0.034
4835 22751 0.152
4836 4925 0.94
4837 16325 0.114
4837 16326 0.109
4837 32690 0.152
4838 27267 0.368
4838 31924 0.098
4839 4840 0.512
4839 13306 0.045
4839 13319 0.098
4840 13295 0.068
4840 13314 0.063
4841 4842 0.23
4841 28856 0.211
4842 27265 0.06
4842 30561 0.116
4843 4845 0.668
4843 28857 0.221
4844 10082 0.266
4844 10105 0.041
4844 10106 0.199
4845 4867 0.162
4845 10012 2.534
4846 22721 0.037
4846 22727 0.217
4846 30576 0.222
4847 4868 0.336
4847 7902 0.64
4848 4849 0.103
4848 8763 0.51
4849 4901 0.695
4849 8764 0.243
4850 4869 0.323
4850 7900 0.613
4851 4870 0.22
4851 22727 0.039
4851 22728 0.081
4852 4883 1.047
4852 4885 1.118
4853 4874 0.221
4853 22728 0.046
4853 22729 0.09
4854 4890 0.412
4854 8034 0.311
4855 4860 0.116
4855 4879 0.222
4855 22750 0.054
4855 22751 0.072
4856 4878 0.221
4856 22729 0.029
4856 22750 0.245
4856 31926 0.177
4857 23473 0.058
4857 23523 0.302
4857 31696 0.153
4858 23746 0.328
4858 23765 0.088
4858 23766 0.049
4859 13206 0.512
4859 13728 0.299
4859 13733 0.206
4860 4899 0.526
4860 30704 0.233
4861 10104 0.044
4861 10105 0.303
4861 13178 0.489
4861 28859 0.365
4862 4896 0.472
4862 13144 0.089
4862 13145 0.055
4862 13146 0.076
4863 13148 0.326
4863 13156 0.022
4863 32434 0.105
4864 4887 1.05
4864 4888 1.227
4865 16263 0.134
4865 16362 0.138
4865 32691 0.356
4866 4875 0.394
4866 16327 0.027
4866 16328 0.15
4866 32689 0.257
4867 4987 1.587
4867 5003 1.802
4868 4869 0.076
4868 7898 0.061
4868 13172 0.082
4869 7897 0.031
4869 13166 0.101
4870 4874 0.125
4870 4892 0.252
4871 8170 0.035
4871 13164 0.062
4871 13168 0.21
4872 16332 0.107
4872 16333 0.237
4872 16343 0.167
4873 4882 0.226
4873 4891 0.224
4873 28115 0.235
4873 28856 0.179
4874 4878 0.121
4875 4920 0.081
4875 4923 0.078
4875 16330 0.067
4876 23485 0.075
4876 23486 0.076
4876 23489 0.169
4877 23484 0.062
4877 23485 0.1
4878 30705 0.183
4879 4895 0.245
4879 30705 0.115
4880 9124 0.206
4880 9125 0.059
4881 9235 0.279
4881 9236 0.104
4882 4883 0.411
4882 4886 0.131
4883 5022 1.224
4884 16242 0.088
4884 16243 0.047
4884 16266 0.052
4885 4886 0.596
4885 4892 0.143
4886 4887 0.587
4886 4888 0.567
4887 4892 0.15
4888 5001 0.848
4889 13316 0.139
4889 13323 0.339
4889 13713 0.211
4889 30367 0.187
4890 4909 0.243
4890 8036 0.463
4890 13679 0.184
4891 20768 0.041
4891 30706 1.395
4892 4895 0.526
4893 23769 0.226
4893 27475 0.152
4893 27476 0.168
4893 28080 0.129
4894 25505 0.2
4894 25506 0.081
4894 25507 0.166
4894 25558 0.23
4895 4976 0.871
4895 28363 0.141
4896 4908 0.507
4897 4901 0.408
4897 8033 0.663
4897 13684 0.17
4897 13685 0.17
4898 16309 0.068
4898 16310 0.129
4898 16315 0.169
4898 29090 0.484
4899 4916 0.742
4899 8640 0.405
4899 28363 0.127
4900 4914 0.177
4900 8763 0.053
4901 13606 0.197
4902 4905 0.073
4902 4910 0.175
4902 16341 0.098
4903 4904 0.074
4903 4918 0.078
4903 16341 0.139
4904 4905 0.114
4904 4906 0.268
4905 4928 0.288
4906 4910 0.436
4906 8640 0.142
4907 25398 0.265
4907 25399 0.079
4907 25400 0.085
4908 4938 0.408
4908 13260 0.062
4908 32430 0.113
4909 13682 0.146
4910 4918 0.375
4910 4922 0.164
4911 16233 0.073
4911 16234 0.231
4911 16235 0.23
4911 31633 0.133
4912 16270 0.097
4912 16271 0.16
4912 16282 0.077
4913 4943 0.788
4913 4972 0.388
4913 8641 0.527
4913 13698 0.421
4914 4915 0.06
4914 13686 0.059
4915 13607 0.089
4915 13608 0.093
4916 4917 0.254
4916 4927 0.303
4917 4918 0.244
4917 16342 0.137
4919 4969 0.367
4919 26913 0.409
4919 29160 0.418
4920 4921 0.22
4920 4924 0.121
4920 4929 0.115
4921 4922 0.514
4922 4923 0.261
4923 4924 0.115
4923 4929 0.105
4924 4925 0.245
4924 4935 0.155
4925 4926 0.444
4926 4927 0.19
4926 4929 0.204
4927 4928 0.236
4928 16342 0.14
4929 4935 0.159
4930 4931 0.619
4930 23475 0.55
4930 31696 0.753
4931 23464 0.049
4931 23467 0.043
4931 23476 0.394
4932 23478 0.433
4932 23479 0.281
4932 23481 0.132
4933 11460 0.267
4933 11461 0.035
4933 11463 0.113
4934 4937 0.396
4934 9228 0.07
4934 9229 0.32
4935 16319 0.342
4935 16335 0.08
4936 4940 0.034
4936 4945 0.487
4936 13682 0.082
4937 4946 1.48
4938 4958 0.322
4938 11464 0.131
4938 13266 0.044
4939 8039 0.634
4939 8171 0.064
4939 13282 0.072
4940 13680 0.037
4940 13681 0.084
4941 13716 0.163
4941 13717 0.185
4941 13726 0.063
4942 16344 0.153
4942 16349 0.111
4943 12850 0.029
4943 12874 0.057
4944 16272 0.2
4944 16273 0.196
4944 32719 0.348
4945 8038 1.104
4945 30708 0.259
4946 4947 0.317
4946 4985 2.478
4946 6225 0.159
4947 6225 0.225
4947 9288 0.133
4947 9289 0.144
4948 20770 0.063
4948 20771 0.092
4948 30562 0.131
4948 30709 0.265
4949 4950 0.128
4949 13231 0.243
4949 13286 0.212
4949 13740 0.087
4949 13741 0.175
4950 13182 0.124
4950 13245 0.044
4951 13171 0.282
4951 13233 0.058
4951 13234 0.267
4952 13255 0.055
4952 13258 0.083
4952 13275 0.055
4952 32435 0.036
4953 11446 0.115
4953 11447 0.061
4954 13442 0.053
4954 13443 0.047
4954 13737 0.015
4955 12872 0.063
4955 12873 0.044
4955 12906 0.328
4956 4971 0.261
4956 12858 0.42
4956 12871 0.044
4956 12872 0.17
4957 13609 0.119
4957 13610 0.068
4957 13615 0.159
4958 11465 0.07
4958 11466 0.087
4959 8257 0.046
4959 11459 0.059
4959 11460 0.097
4960 4962 0.057
4960 13726 0.163
4961 23497 0.219
4961 23498 0.046
4961 23499 0.382
4962 4963 0.233
4962 13663 0.156
4963 13648 0.178
4963 13658 0.03
4964 16337 0.076
4964 30368 0.092
4965 4976 0.267
4965 30707 0.362
4966 16230 0.197
4966 16231 0.108
4967 4979 0.181
4967 4982 0.288
4967 8173 0.305
4967 13662 0.174
4968 23470 0.094
4968 23471 0.101
4968 23472 0.046
4969 12900 0.064
4969 26913 0.082
4970 4977 0.124
4970 12900 0.107
4970 12901 0.081
4971 12895 0.227
4971 12912 0.067
4972 12911 0.443
4972 13624 0.224
4973 4982 0.142
4973 13441 0.054
4973 13735 0.075
4974 4975 0.062
4974 26912 0.196
4974 30710 0.146
4975 4977 0.147
4975 26913 0.058
4977 12902 0.121
4978 5000 0.095
4978 12893 0.079
4979 13652 0.058
4979 13661 0.098
4980 4981 0.173
4980 8172 0.268
4980 13267 0.042
4980 13268 0.063
4981 13254 0.081
4981 28722 0.147
4982 26885 0.073
4983 5173 0.28
4983 8260 0.536
4983 8262 0.546
4984 9288 0.266
4984 9295 0.227
4985 4986 0.535
4985 4989 0.76
4986 4987 0.206
4986 4995 0.196
4987 5003 0.237
4988 5007 0.228
4988 13650 0.067
4988 13651 0.11
4989 4991 0.124
4989 4994 0.507
4990 5025 0.472
4990 8211 0.375
4990 11449 0.066
4990 11450 0.053
4991 4994 0.392
4991 4996 0.144
4991 11453 0.102
4992 5012 0.263
4992 13664 0.087
4992 26880 0.144
4993 13649 0.056
4993 13653 0.049
4993 13665 0.206
4994 4995 0.487
4994 4996 0.322
4994 5025 0.203
4995 4996 0.177
4996 11454 0.055
4997 23772 0.105
4997 23773 0.04
4997 23776 0.064
4997 23777 0.105
4998 25512 0.078
4998 25547 0.207
4998 25577 0.038
4999 13660 0.097
4999 13661 0.061
4999 32853 0.071
5000 5009 0.073
5000 12902 0.166
5002 7896 0.825
5002 7902 0.889
5002 31407 0.393
5003 11454 0.084
5003 11455 0.091
5003 11469 0.08
5003 11470 0.066
5004 7894 0.824
5004 7900 0.904
5004 31406 0.396
5005 13272 0.083
5005 13279 0.115
5005 13280 0.109
5006 13659 0.124
5006 13660 0.08
5006 26881 0.078
5007 13659 0.036
5007 13666 0.256
5007 26897 0.237
5008 5009 0.122
5008 12904 0.1
5008 12905 0.191
5008 30564 0.141
5009 30322 0.124
5010 5069 0.795
5011 5049 0.352
5011 13443 0.316
5011 13444 0.057
5012 13671 0.056
5012 13718 0.065
5012 13719 0.063
5013 30712 0.143
5013 30713 0.142
5013 30714 0.071
5014 13273 0.09
5014 31407 0.077
5015 13274 0.041
5015 13277 0.069
5015 32435 0.622
5016 26889 0.043
5016 26890 0.05
5017 13445 0.029
5017 13446 0.363
5017 26887 0.132
5018 13263 0.042
5018 13264 0.029
5018 13265 0.065
5019 11467 0.246
5019 13261 0.088
5019 13271 0.197
5020 5021 0.483
5020 12911 0.466
5020 13624 0.435
5020 13625 0.108
5021 5072 0.528
5021 12882 0.089
5021 12883 0.057
5023 26881 0.114
5023 26893 0.014
5023 26898 0.107
5024 5043 0.462
5024 12882 0.165
5024 28861 0.02
5025 11457 0.062
5026 5074 0.472
5027 5043 0.66
5027 7914 0.632
5027 12899 0.231
5028 7939 0.179
5028 13673 0.194
5029 5030 0.243
5029 5033 0.473
5029 13279 0.086
5030 5031 0.105
5030 5035 0.135
5030 13747 0.028
5031 5032 0.084
5031 13750 0.112
5032 5033 0.198
5032 13746 0.127
5033 13752 0.347
5034 5035 0.283
5034 13280 0.1
5034 13754 0.763
5035 13749 0.081
5036 23829 0.497
5036 25402 0.059
5037 16274 0.081
5037 16275 0.143
5037 16281 0.174
5038 5093 0.53
5038 13672 0.1
5038 13673 0.036
5038 31865 0.101
5039 13448 0.354
5039 13751 0.084
5039 13752 0.028
5039 13753 0.032
5040 30369 0.285
5040 30564 0.14
5040 30715 0.122
5041 23503 0.096
5041 23509 0.17
5042 25410 0.074
5042 25411 0.145
5042 25425 0.084
5043 5078 0.135
5044 5045 0.062
5044 5064 0.27
5044 26891 0.093
5044 26892 0.094
5045 5060 0.263
5045 26883 0.179
5046 16148 0.219
5046 16279 0.041
5046 32718 0.083
5047 13529 0.068
5047 13540 0.198
5047 13749 0.242
5047 13750 0.237
5048 8644 0.551
5048 23424 0.547
5048 23472 0.372
5048 26570 0.286
5049 13447 0.182
5049 13448 0.176
5050 13446 0.072
5050 13566 0.035
5050 26899 0.182
5051 13601 0.344
5051 13602 0.083
5051 29161 0.377
5052 8643 0.413
5052 13605 0.133
5052 13620 0.308
5052 26901 1.49
5053 5055 0.287
5053 16090 0.05
5053 16340 0.049
5054 5055 0.575
5054 16062 0.193
5054 16079 0.052
5054 16080 0.075
5056 5073 0.203
5056 13625 0.323
5056 13711 0.518
5057 23447 0.03
5057 23448 0.203
5058 5086 0.224
5058 29162 0.442
5058 30712 0.149
5058 30716 0.085
5059 5060 0.282
5059 5075 0.172
5059 26897 0.291
5060 5077 0.154
5061 25526 0.131
5061 25551 0.108
5061 25552 0.126
5062 16150 0.048
5062 16151 0.208
5062 16152 0.214
5062 32721 0.067
5063 5064 0.139
5063 5076 0.311
5063 26899 0.089
5064 13558 1.114
5065 5083 0.996
5065 28863 0.63
5065 30715 0.239
5066 5085 0.554
5066 7939 0.503
5066 13720 0.197
5066 13721 0.073
5067 16100 0.196
5067 16101 0.075
5067 27118 0.106
5068 23415 0.193
5068 23417 0.133
5068 26570 0.231
5069 5097 0.316
5069 5102 0.64
5070 5071 0.608
5070 23399 0.038
5070 23400 0.029
5071 8650 0.191
5071 23401 0.063
5071 23403 0.034
5072 5073 0.157
5072 5095 0.169
5072 7915 0.166
5073 5087 0.097
5073 20767 0.375
5074 5086 0.411
5074 5098 0.793
5075 5076 0.208
5075 13722 0.296
5076 5077 0.093
5077 13645 0.162
5078 5083 0.091
5078 7915 0.13
5079 16066 0.164
5079 16067 0.088
5080 8651 0.34
5080 15270 0.12
5080 15280 0.085
5080 15281 0.048
5081 13621 0.253
5081 13711 0.353
5081 20767 0.304
5081 22803 0.071
5082 13396 0.318
5082 13529 0.078
5082 13530 0.078
5083 5101 0.272
5084 5092 0.504
5084 5093 0.542
5084 13721 0.128
5084 26313 0.065
5085 13722 0.138
5085 13723 0.088
5086 5097 0.151
5086 5098 0.389
5087 5089 0.113
5088 5110 0.324
5088 5131 1.145
5088 28402 0.123
5089 5095 0.036
5089 20763 0.065
5090 25409 0.351
5090 25422 0.528
5090 25424 0.106
5091 11314 0.074
5091 11324 0.161
5091 11325 0.103
5092 5093 0.267
5092 8652 0.605
5092 8766 0.326
5094 16160 0.078
5094 16163 0.047
5094 32716 0.239
5095 5096 0.069
5096 5100 0.119
5096 20697 0.099
5097 5102 0.348
5097 30718 0.071
5098 8401 0.794
5099 5111 0.205
5099 5132 0.98
5099 28403 0.241
5100 20694 0.075
5101 20686 0.116
5101 20695 0.064
5102 8402 0.55
5103 13531 0.048
5103 13532 0.049
5103 26301 0.278
5104 5167 0.037
5104 13556 0.09
5104 13558 0.502
5105 16102 0.083
5105 16116 0.142
5105 32716 0.204
5105 32717 0.064
5106 16101 0.14
5106 16105 0.058
5106 27130 0.114
5107 13645 0.188
5107 13646 0.157
5108 20693 0.287
5108 28863 0.268
5108 30719 0.187
5109 29162 0.452
5109 30720 0.156
5109 30721 0.394
5112 11331 0.048
5112 11332 0.036
5113 5114 0.063
5113 5119 0.173
5113 20696 0.051
5114 20688 0.244
5114 20695 0.122
5115 16063 0.108
5115 16064 0.104
5115 16074 0.377
5116 11517 0.296
5116 11518 0.185
5117 5125 0.252
5118 13622 0.092
5118 22806 0.16
5119 5150 0.795
5119 20764 0.22
5120 30438 0.118
5121 23395 0.036
5121 23396 0.067
5121 23397 0.078
5122 16152 0.218
5122 16153 0.125
5122 16168 0.112
5122 16184 0.362
5123 5125 0.151
5123 5132 0.468
5123 16183 0.043
5123 30438 0.14
5124 25529 0.122
5124 25530 0.035
5124 25531 0.045
5125 5131 0.509
5125 16182 0.104
5126 16182 0.362
5126 25530 0.083
5126 25532 0.08
5126 25533 0.054
5127 11334 0.383
5127 11478 0.231
5127 11479 0.205
5128 5160 1.003
5128 8253 2.041
5128 8348 3.416
5129 5130 0.375
5129 25535 0.146
5129 31645 0.086
5130 8655 0.488
5130 25521 0.461
5130 25531 0.169
5131 27209 2.681
5132 27210 2.785
5133 13520 0.146
5133 13534 0.045
5133 13535 0.113
5133 26305 0.07
5134 11490 0.104
5134 11491 0.133
5134 11492 0.037
5134 11519 0.126
5135 11480 0.211
5135 11483 0.182
5135 11485 0.042
5136 11482 0.042
5136 11483 0.05
5136 11484 0.05
5136 28194 0.266
5137 8656 0.445
5137 14771 0.134
5137 14772 0.157
5138 20755 0.091
5138 20756 0.041
5138 26221 0.107
5138 26227 0.444
5139 8657 0.496
5139 8658 1.015
5139 26920 0.099
5139 26926 0.294
5140 15245 0.095
5140 15252 0.229
5141 15236 0.648
5141 16096 0.226
5141 16130 0.022
5142 5179 0.474
5142 8714 0.418
5142 13571 0.039
5142 13585 0.042
5143 5174 0.527
5143 13583 0.062
5143 13647 0.228
5143 26205 0.095
5144 30569 0.312
5144 30720 0.19
5144 30722 0.194
5144 31405 0.096
5145 20752 0.11
5145 20753 0.169
5146 5147 0.369
5146 16055 0.045
5146 32717 0.478
5147 16172 0.077
5147 16173 0.043
5148 5178 0.449
5148 13573 0.034
5148 13591 0.047
5148 13592 0.045
5149 5150 0.582
5149 20688 0.279
5149 29163 0.271
5150 32854 0.769
5151 5153 0.147
5151 16055 0.159
5151 16127 0.104
5152 15247 0.112
5152 16125 0.052
5152 16126 0.052
5153 16114 0.112
5153 16115 0.076
5154 16172 0.033
5154 16174 0.038
5154 32729 0.11
5155 5161 0.349
5155 5302 2.29
5155 7896 0.938
5156 5165 0.329
5156 5300 2.183
5156 7894 0.961
5157 5185 0.429
5157 8766 0.421
5157 13594 0.028
5157 13595 0.041
5158 11537 0.065
5158 13346 0.036
5158 13417 0.096
5159 13335 0.049
5159 13337 0.11
5159 13376 0.041
5160 5204 1.696
5160 9122 0.021
5161 5165 0.106
5161 13337 0.132
5162 9179 0.186
5162 9180 0.102
5162 9181 0.055
5162 28602 0.268
5163 5214 0.251
5163 30723 0.188
5163 30724 0.317
5163 32855 0.247
5164 25543 0.177
5164 25544 0.06
5165 13354 0.103
5166 5169 0.83
5166 13351 0.185
5166 13352 0.048
5167 5170 0.041
5167 8175 0.438
5168 8403 0.094
5168 8404 0.849
5168 20717 0.049
5169 13525 0.037
5169 13526 0.078
5170 26195 0.038
5170 26297 0.082
5171 5180 0.18
5171 9179 0.177
5171 28601 0.462
5172 8658 0.628
5172 16073 0.103
5172 16075 0.108
5173 11516 0.083
5173 11538 0.173
5174 8178 0.091
5174 13581 0.071
5175 13526 0.055
5175 13527 0.063
5175 13528 0.131
5176 15292 0.269
5176 26925 0.064
5176 26926 0.063
5176 26927 0.125
5177 5182 0.238
5177 9122 1.291
5177 28865 0.189
5178 13574 0.06
5178 13599 0.138
5178 14494 0.193
5179 13579 0.071
5179 13580 0.03
5180 9174 0.054
5180 28601 0.494
5181 9174 0.335
5181 28603 0.286
5182 9174 0.082
5182 9175 0.024
5182 28599 0.244
5183 16075 0.068
5183 16076 0.064
5183 16077 0.064
5184 8658 0.104
5184 15293 0.047
5184 15299 0.279
5185 13596 0.041
5185 13597 0.027
5185 13635 0.271
5186 24036 4.507
5186 25419 1.791
5187 16177 0.123
5187 16178 0.128
5187 16181 0.033
5188 14916 0.265
5188 14917 0.156
5188 29165 0.549
5189 15248 0.297
5189 16057 0.026
5189 31944 0.417
5190 15229 0.154
5190 26927 0.367
5191 11496 0.069
5191 11497 0.082
5191 11516 0.108
5191 32566 0.32
5192 5200 0.313
5192 13350 0.096
5192 13392 0.149
5193 11514 0.058
5193 11515 0.166
5193 11544 0.255
5193 11545 0.071
5194 5198 0.09
5194 14847 0.072
5194 16175 0.178
5195 9183 0.117
5195 28599 0.111
5196 5225 0.061
5196 8261 0.814
5196 9270 0.032
5197 16056 0.236
5197 16113 0.047
5197 16143 0.071
5197 32730 0.153
5198 16132 0.142
5198 32728 0.064
5199 8656 0.197
5199 14786 0.119
5199 14787 0.118
5200 8174 0.384
5200 8179 0.268
5200 13359 0.109
5201 13328 0.215
5201 13329 0.05
5201 13340 0.051
5201 13341 0.055
5202 5212 0.519
5202 20749 0.117
5202 20758 0.668
5203 9175 0.076
5203 9176 0.037
5203 9178 0.041
5204 5238 0.398
5204 8267 0.427
5204 9173 0.057
5205 15295 0.03
5205 15296 0.026
5205 15297 0.032
5206 15216 0.067
5206 15232 0.139
5206 15233 0.188
5207 5208 0.433
5207 13528 0.089
5207 14395 0.255
5208 13379 0.061
5208 13380 0.063
5209 5220 0.232
5209 26199 0.386
5210 27229 0.033
5210 27230 0.134
5210 27231 0.176
5211 16732 0.023
5211 16733 0.025
5211 16734 0.049
5213 8268 0.279
5213 9183 0.182
5213 9781 0.378
5214 8406 0.14
5214 20715 0.365
5215 5216 0.063
5215 23410 0.155
5215 27233 0.284
5216 23409 0.262
5216 27602 0.341
5217 5219 0.267
5217 27231 0.225
5217 27232 0.052
5218 23387 0.531
5218 23391 0.027
5218 27225 0.193
5218 28773 0.148
5219 27230 0.082
5219 31639 0.36
5220 5221 0.304
5220 14459 0.342
5221 8176 1.012
5221 14354 0.29
5221 14355 0.102
5222 13638 0.134
5222 14460 0.463
5222 14483 0.13
5222 14497 0.116
5223 14791 0.134
5223 14796 0.114
5223 14797 0.254
5223 16685 1.21
5224 5228 0.072
5224 5240 0.518
5224 16685 0.904
5224 32807 0.552
5224 32854 0.074
5225 5229 0.055
5225 9272 0.028
5226 23392 0.05
5226 23393 0.266
5226 27216 0.029
5226 27219 0.111
5227 27232 0.167
5227 27233 0.124
5227 27234 0.044
5228 16687 0.121
5229 5230 1.547
5229 9273 0.06
5230 10058 0.094
5230 32524 1.415
5231 14446 0.08
5231 14479 0.075
5231 14480 0.041
5231 14481 0.106
5232 15174 0.137
5232 15253 0.238
5232 15260 0.376
5233 5234 0.425
5233 14866 0.55
5233 14876 0.081
5234 5247 0.519
5234 29166 0.518
5235 14868 0.028
5235 14869 0.202
5235 27222 0.212
5235 31634 0.871
5236 5265 0.585
5236 15173 0.094
5236 15174 0.168
5237 14917 0.054
5237 14918 0.065
5237 15173 0.288
5238 8265 0.337
5238 8269 0.422
5239 5281 0.534
5239 14366 0.05
5239 14370 0.023
5240 32809 0.142
5240 32813 0.549
5241 5244 0.109
5241 29084 0.356
5241 32818 0.043
5242 5253 0.031
5242 29164 0.398
5242 32818 0.049
5243 14363 0.037
5243 14374 0.11
5243 14387 0.207
5244 32819 0.034
5244 32856 0.227
5245 15200 0.116
5245 15214 0.101
5245 15215 0.059
5245 15217 0.089
5246 5298 0.41
5246 20758 0.393
5247 14843 0.164
5247 14844 0.028
5247 28867 0.447
5248 5263 0.421
5248 5270 0.76
5248 8402 1.707
5249 14409 0.519
5249 14421 0.045
5249 14525 0.158
5249 14526 0.044
5250 14354 0.198
5250 14427 0.495
5250 14525 0.03
5251 5252 0.473
5251 5264 1.019
5251 8401 1.288
5252 5263 0.139
5252 5264 0.543
5252 32813 0.209
5252 32814 0.197
5253 32819 0.043
5253 32856 0.264
5254 5262 0.395
5254 5379 0.465
5254 14802 0.249
5254 14807 0.069
5255 8841 0.375
5255 23413 0.257
5256 14375 0.525
5256 14384 0.234
5256 14386 0.151
5257 5271 0.323
5257 14856 0.05
5257 14900 0.148
5257 28867 0.217
5258 11547 0.204
5258 11573 0.064
5258 11574 0.15
5258 11624 0.242
5259 20705 0.098
5259 20707 0.06
5259 20708 0.241
5260 5281 0.205
5260 14385 0.222
5260 14386 0.224
5260 14504 0.087
5261 16688 0.213
5261 16690 0.02
5261 16691 0.037
5262 8505 0.07
5262 8659 0.47
5263 32857 0.153
5264 5467 1.668
5265 15187 0.222
5266 15219 0.166
5266 15224 0.059
5266 26928 0.524
5266 26936 0.191
5267 5331 0.253
5267 30725 0.126
5267 32843 0.702
5268 5269 0.212
5268 27217 1.074
5269 23382 0.072
5270 5468 1.695
5270 32857 0.425
5271 14880 0.073
5271 14904 0.217
5271 14908 0.034
5272 5280 0.117
5272 27237 0.149
5272 27240 0.119
5273 16734 0.118
5273 16745 0.062
5273 16746 0.038
5274 10167 0.033
5274 10168 0.022
5274 10169 0.024
5275 5288 0.052
5275 11552 0.037
5275 32516 0.796
5276 5277 0.06
5276 5319 0.661
5276 13464 0.087
5277 13457 0.174
5277 13466 0.074
5278 14857 0.031
5278 14859 0.078
5278 14891 0.1
5279 23911 0.2
5279 23920 0.053
5279 23930 0.726
5279 23940 0.11
5280 27235 0.057
5280 27241 0.034
5281 14396 0.068
5282 8269 0.42
5282 9712 0.426
5282 9809 0.033
5282 9810 0.025
5283 14362 0.04
5283 14513 0.093
5284 8659 0.194
5284 8768 0.944
5284 14798 0.101
5285 8664 0.702
5285 14185 0.031
5285 14186 0.022
5286 13626 0.058
5286 13635 0.333
5286 13636 0.13
5287 16700 0.17
5287 16730 0.161
5287 16731 0.039
5288 11553 0.315
5288 11562 0.2
5288 11564 0.064
5289 13437 0.08
5289 13438 0.04
5289 13515 0.293
5290 14501 0.044
5290 14502 0.116
5290 14503 0.144
5291 14397 0.079
5291 14398 0.037
5291 14508 0.097
5292 8348 7.811
5292 32932 1.642
5293 5294 0.751
5293 14922 0.049
5293 14923 0.046
5293 14926 0.467
5294 14864 0.07
5294 14891 0.021
5295 5296 0.191
5295 9845 0.046
5295 9846 0.034
5295 9849 0.042
5296 28869 0.074
5296 32524 0.021
5297 8406 1.241
5297 20708 0.236
5297 20711 0.355
5297 30726 2.256
5298 20718 0.09
5298 30726 0.252
5299 5322 0.391
5299 8843 0.408
5299 27238 0.351
5300 5306 0.268
5300 7921 0.581
5301 5352 0.48
5301 13452 0.246
5301 13453 0.088
5301 13455 0.081
5302 5312 0.199
5302 7922 0.504
5303 14871 0.252
5303 23382 0.438
5303 31636 0.129
5304 9847 0.05
5304 9848 0.203
5304 10030 0.125
5305 14926 0.123
5305 14931 0.09
5305 14933 0.12
5305 15187 0.56
5306 5312 0.069
5306 7921 0.309
5306 8184 0.145
5307 5308 0.503
5307 11560 0.043
5308 11568 0.042
5308 11569 0.09
5309 5332 0.247
5309 11561 0.188
5309 11562 0.263
5310 5311 0.122
5310 5314 0.175
5310 5315 0.248
5310 32857 0.379
5311 5314 0.188
5311 5315 0.157
5311 20711 0.122
5312 7922 0.312
5312 13477 0.233
5313 8769 0.069
5313 14417 0.058
5313 14514 0.122
5314 5315 0.172
5314 14320 0.037
5315 30343 1.389
5316 14923 0.074
5316 14924 0.083
5317 5364 0.179
5317 14938 0.089
5317 29168 0.208
5318 11617 0.066
5318 11618 0.037
5318 13454 0.096
5318 13467 0.21
5319 13478 0.041
5319 13479 0.131
5319 13507 0.218
5320 14419 0.061
5320 14420 0.043
5320 14515 0.07
5320 31859 0.242
5321 5322 0.084
5321 27244 0.123
5321 27246 0.24
5322 27243 0.097
5323 8846 0.044
5323 23943 0.043
5323 29169 0.214
5324 8733 0.752
5324 14465 0.055
5324 14482 0.26
5325 16713 0.462
5325 16724 0.044
5325 16728 0.185
5325 32858 0.123
5326 15213 0.296
5326 28221 0.071
5327 5328 0.342
5327 8269 0.604
5327 9709 0.16
5328 9712 0.371
5328 9797 0.095
5329 14414 0.106
5329 14520 0.055
5329 14521 0.067
5330 5339 0.132
5330 8272 0.081
5330 11369 0.046
5331 14308 0.518
5331 29033 0.161
5331 32859 0.189
5332 8275 0.127
5332 32523 0.244
5333 5339 0.335
5333 32786 0.344
5334 11597 0.031
5334 11598 0.023
5334 11599 0.032
5335 5717 2.4
5335 23842 0.186
5335 31678 0.045
5336 5337 0.294
5336 5736 3.323
5336 27209 0.065
5337 5355 0.329
5337 14872 0.094
5338 14242 0.307
5338 14291 0.123
5338 16746 0.125
5339 28870 0.306
5340 5341 0.246
5340 14853 0.05
5341 5354 0.08
5341 14854 0.485
5341 23349 0.118
5342 5343 0.213
5342 14321 0.258
5342 14322 0.153
5342 14324 0.064
5344 5389 0.427
5344 9382 0.258
5344 9388 0.055
5345 5351 0.077
5345 13506 0.064
5345 13507 0.022
5346 11581 0.057
5346 11583 0.06
5346 11585 0.104
5346 27459 0.142
5347 11578 0.055
5347 11579 0.093
5347 11593 0.051
5348 5361 0.148
5348 15178 0.081
5348 28221 0.309
5349 5413 0.205
5349 16742 0.223
5350 14259 0.184
5350 14278 0.062
5351 5352 0.055
5351 13483 0.071
5352 13481 0.081
5353 5354 0.206
5353 23350 0.084
5354 27208 0.584
5355 5366 0.342
5355 29170 0.084
5356 13468 0.136
5356 13469 0.101
5356 13471 0.068
5356 13480 0.21
5357 8846 0.306
5357 26518 0.074
5357 26519 0.068
5358 8847 0.145
5358 26517 0.436
5358 28081 0.219
5358 28082 0.11
5359 5372 0.066
5359 5373 0.62
5359 23346 0.113
5359 23350 0.054
5360 26228 0.212
5360 26229 0.034
5360 29171 0.291
5361 15179 0.051
5361 15182 0.087
5362 23886 0.067
5362 23887 0.354
5362 31664 0.033
5363 13494 0.135
5363 13495 0.037
5363 13496 0.085
5364 5377 0.059
5364 14930 0.213
5364 14936 0.121
5365 13642 0.04
5365 14402 0.218
5365 14404 0.232
5366 5734 2.99
5366 27210 0.316
5367 5368 0.141
5367 30725 0.131
5368 14306 0.046
5368 14325 0.214
5369 14201 0.284
5369 16744 0.038
5370 5398 0.525
5370 8660 0.141
5370 16744 0.065
5371 5372 0.16
5371 27195 0.1
5371 27200 0.033
5371 27205 0.047
5372 8666 0.619
5372 27204 0.089
5373 14881 0.152
5374 5375 0.283
5374 14192 0.074
5374 14805 0.181
5374 14809 0.066
5375 14188 0.06
5375 14808 0.158
5376 14468 0.036
5376 14469 0.088
5376 14473 0.074
5376 14474 0.169
5377 14939 0.219
5377 14945 0.04
5377 14946 0.071
5378 14936 0.189
5378 29087 0.567
5379 5462 0.655
5379 14189 0.03
5379 14205 0.031
5380 14524 0.291
5380 14527 0.148
5380 14528 0.042
5380 14536 0.156
5381 5400 0.168
5381 8186 0.273
5381 30370 0.234
5382 14322 0.1
5382 14323 0.172
5383 8665 0.364
5383 27196 0.148
5383 27197 0.034
5383 27198 0.062
5383 30358 0.308
5384 14437 0.512
5384 14440 0.068
5384 14441 0.036
5384 14442 0.337
5385 5393 0.272
5385 14463 0.054
5385 14464 0.171
5386 8209 0.416
5386 11377 0.116
5386 28870 0.124
5387 14199 0.043
5387 14200 0.056
5387 14201 0.051
5387 14202 0.053
5388 5396 0.611
5388 9711 0.056
5388 9716 0.194
5388 9717 0.035
5389 5459 0.642
5389 9708 0.122
5389 9715 0.23
5390 5391 0.531
5390 5396 0.187
5390 9795 0.176
5390 9797 0.372
5391 7875 0.457
5391 9814 0.963
5392 5412 0.052
5392 14471 0.038
5392 14472 0.083
5393 14472 0.027
5394 5418 0.321
5394 5421 0.417
5394 8276 0.312
5395 5443 0.649
5395 8666 0.84
5395 14950 0.089
5395 14955 0.12
5396 7873 0.642
5397 28872 0.279
5398 5404 0.122
5398 14207 0.073
5398 14238 0.198
5399 5424 1.204
5399 14345 0.021
5399 30371 0.185
5400 14487 0.104
5400 14534 0.08
5401 5406 0.116
5401 14942 0.114
5402 5423 0.161
5402 14323 0.041
5402 14338 0.259
5402 30559 0.151
5403 14257 0.042
5403 14311 0.162
5403 14338 0.589
5404 14215 0.03
5404 14243 0.021
5405 5406 0.081
5405 14947 0.068
5405 15064 0.125
5406 14949 0.067
5407 11584 0.068
5407 11590 0.448
5407 11743 0.105
5408 5409 0.123
5408 15085 0.124
5408 15184 0.047
5408 30372 0.146
5409 26965 0.031
5410 7872 0.221
5410 14557 0.164
5410 14558 0.049
5411 8278 0.638
5411 32410 0.19
5411 32417 0.119
5412 14702 0.224
5413 5414 0.183
5413 14250 0.222
5413 14251 0.073
5414 14245 0.062
5414 14246 0.031
5414 14293 0.043
5415 15094 0.072
5415 15096 0.107
5415 32740 0.034
5416 8665 0.233
5416 15096 0.201
5416 27203 0.193
5416 32736 0.133
5417 8664 0.125
5417 14477 0.021
5417 14708 0.503
5418 5419 0.464
5418 8209 0.458
5418 30373 0.302
5419 11413 0.101
5419 11442 0.153
5420 5455 0.126
5420 14248 0.085
5420 14249 0.032
5420 14250 0.246
5421 11651 0.08
5421 11652 0.095
5422 5423 0.157
5422 28247 0.208
5422 32376 0.209
5423 14335 0.211
5423 28247 0.329
5424 20679 0.146
5424 20680 0.073
5425 20679 0.114
5425 26238 0.102
5425 29167 0.484
5426 26233 0.141
5426 26234 0.09
5427 8190 0.362
5427 11637 0.236
5427 11640 0.058
5428 5493 0.271
5428 11640 0.173
5428 11641 0.132
5428 11662 0.195
5429 14343 0.049
5429 14346 0.127
5429 30371 0.143
5430 20680 0.179
5430 20681 0.107
5430 20684 0.124
5431 5475 0.31
5431 14532 0.051
5431 14583 0.019
5431 14584 0.049
5432 5433 0.376
5432 26537 0.28
5432 28871 0.045
5433 26532 0.139
5433 26535 0.053
5434 13473 0.044
5434 13474 0.098
5434 13488 0.125
5435 15085 0.046
5435 26961 0.073
5435 31933 0.035
5436 5450 0.13
5436 15083 0.12
5436 29174 0.613
5437 14477 0.176
5437 14478 0.209
5437 14814 0.156
5438 14949 0.144
5438 14980 0.114
5438 15077 0.586
5439 20681 0.067
5439 20682 0.029
5439 20683 0.218
5440 14529 0.119
5440 14530 0.07
5440 14572 0.142
5441 14442 0.016
5441 14706 0.221
5442 30446 0.127
5442 30447 0.152
5442 31929 0.031
5443 5444 0.449
5443 14966 0.239
5444 14954 0.046
5444 14971 0.183
5444 14988 0.484
5445 26232 0.194
5445 26240 0.16
5446 14337 0.173
5446 14339 0.042
5446 28247 0.115
5446 30729 0.395
5447 5448 0.677
5447 16670 0.734
5447 30730 0.139
5448 14340 0.252
5448 14341 0.076
5448 30613 0.107
5449 9370 0.026
5449 9371 0.084
5450 5491 0.391
5450 15082 0.063
5450 30347 0.511
5451 26236 0.07
5451 26237 0.029
5452 14239 0.116
5452 14240 0.109
5452 14301 0.135
5453 14817 0.181
5453 14818 0.033
5453 14825 0.028
5454 14702 0.165
5454 14708 0.294
5454 14717 0.316
5455 14215 0.445
5456 14816 0.039
5456 14826 0.023
5456 32578 0.103
5457 5462 0.055
5457 14179 0.137
5457 14827 0.114
5457 27757 0.045
5458 14823 0.045
5458 14828 0.024
5459 7874 0.623
5459 27270 0.063
5459 32419 0.205
5460 8283 0.653
5460 9751 0.14
5460 9754 0.212
5460 27273 0.072
5461 14330 0.038
5461 14336 0.037
5461 32373 0.05
5461 32374 0.048
5462 27758 0.059
5463 14208 0.024
5463 14210 0.045
5463 14211 0.021
5464 5478 0.149
5464 26953 0.031
5464 31933 0.234
5465 5474 0.127
5465 15082 0.125
5465 15084 0.101
5466 5484 0.049
5466 14254 0.167
5466 14257 0.43
5466 32860 0.042
5467 5469 0.41
5467 32860 0.211
5468 5469 0.518
5468 5485 0.313
5469 5484 0.11
5469 5488 0.364
5469 30375 0.092
5470 5473 0.149
5470 14249 0.092
5470 14295 0.111
5470 14301 0.096
5471 14240 0.086
5471 14294 0.057
5471 14299 0.142
5472 5473 0.121
5472 14254 0.203
5473 14296 0.109
5474 5491 0.273
5474 5498 0.276
5475 14618 0.05
5476 14573 0.07
5476 14574 0.052
5476 14576 0.149
5476 30376 0.25
5477 5517 0.403
5477 32599 0.126
5478 26959 0.099
5478 26960 0.049
5479 15418 0.309
5479 26941 0.029
5479 26942 0.036
5479 26944 0.11
5480 15168 0.058
5480 15169 0.053
5480 15170 0.043
5480 15171 0.156
5481 5488 0.113
5481 30377 0.138
5482 8547 0.383
5482 14478 0.177
5482 14720 0.761
5482 14815 0.049
5483 8547 0.22
5483 8668 0.392
5483 14821 0.192
5483 14825 0.336
5484 30377 0.225
5485 14255 0.085
5485 14334 0.134
5486 14334 0.031
5486 30614 0.034
5486 32590 0.099
5487 14229 0.051
5487 14230 0.082
5487 14294 0.04
5488 28217 0.092
5489 14296 0.067
5489 28217 0.13
5490 5491 0.092
5490 5494 0.469
5490 5500 0.303
5492 14706 0.38
5492 26381 0.094
5493 5496 0.667
5493 28034 0.716
5494 15056 0.145
5494 15057 0.227
5494 29175 0.317
5495 14986 0.142
5495 15005 0.126
5495 29175 0.272
5496 5538 0.362
5496 11432 0.115
5496 11433 0.376
5497 8281 0.439
5497 11430 0.032
5497 11431 0.223
5498 5500 0.169
5498 26957 0.044
5498 26958 0.04
5499 5565 0.409
5499 30531 0.072
5499 32590 0.19
5500 5514 0.496
5501 5557 0.119
5501 11661 0.127
5501 11663 0.045
5502 11662 0.034
5502 11663 0.304
5502 32520 0.061
5503 5504 0.453
5503 14719 0.1
5503 14720 0.02
5503 14721 0.046
5504 5555 0.407
5504 26381 0.046
5505 5506 0.084
5505 14178 0.049
5505 30378 0.332
5506 14167 0.102
5506 14822 0.459
5507 24035 0.283
5507 24042 0.126
5508 23944 0.222
5508 23945 0.031
5509 5510 0.514
5509 14974 0.18
5509 14975 0.052
5509 14976 0.186
5510 14969 0.133
5510 14979 0.226
5511 5628 0.464
5511 16654 0.062
5511 16660 0.155
5511 30618 0.222
5512 15086 0.035
5512 26958 0.143
5512 26959 0.324
5513 5518 0.294
5513 5524 0.136
5513 26536 0.247
5514 15060 0.093
5514 15061 0.098
5515 5518 0.061
5515 23873 0.075
5515 32667 0.329
5516 14216 0.191
5516 14232 0.016
5516 30731 0.15
5517 5521 0.128
5518 5525 0.103
5519 14212 0.202
5519 14219 0.031
5519 30378 0.303
5519 30733 0.138
5520 15415 0.067
5520 15416 0.036
5520 30481 0.181
5521 15417 0.088
5521 30481 0.203
5522 23995 0.111
5522 23996 0.154
5523 15095 0.557
5523 27213 0.371
5524 26538 0.125
5524 26539 0.112
5525 23872 0.056
5525 29176 0.123
5526 5597 0.52
5526 14619 0.281
5526 26377 0.264
5527 14256 0.177
5527 14277 0.204
5527 29040 0.28
5528 11677 0.139
5528 13758 0.134
5529 23959 0.036
5529 23973 0.091
5529 23978 0.065
5530 23992 0.068
5530 23993 0.04
5530 23994 0.076
5531 5532 0.213
5531 15415 0.134
5531 15422 0.069
5532 15414 0.078
5532 15417 0.279
5533 5580 0.331
5533 5581 0.177
5533 26945 0.122
5534 15086 0.29
5534 15166 0.044
5534 29177 0.197
5535 15092 0.36
5535 27211 0.04
5535 27212 0.084
5535 27213 0.04
5536 5537 0.1
5536 14540 0.076
5536 14541 0.123
5537 14542 0.078
5537 14544 0.064
5537 14585 0.241
5538 5578 0.027
5538 28035 0.032
5539 8284 0.06
5539 9755 0.216
5539 9766 0.1
5540 8670 0.114
5540 26545 0.037
5540 29178 0.137
5541 23868 0.111
5541 26545 0.048
5541 26546 0.016
5542 8673 0.026
5542 23854 0.062
5542 23855 0.149
5543 5582 0.292
5543 8669 0.045
5543 31624 0.241
5544 11422 0.106
5544 11423 0.167
5544 11434 0.062
5544 11441 0.384
5545 11379 0.698
5545 11383 0.268
5545 11395 0.242
5545 11396 0.028
5546 5570 0.087
5546 5699 1.224
5546 27458 0.05
5546 29179 0.532
5547 14560 0.079
5547 14566 0.055
5547 31855 0.006
5548 5549 0.552
5548 29088 0.644
5548 29178 0.135
5549 5550 0.081
5549 23985 0.215
5549 30379 0.268
5550 5551 1.172
5550 23994 0.046
5551 23977 0.123
5551 23983 0.103
5552 5554 0.835
5552 14144 0.279
5552 14194 0.095
5552 14195 0.043
5553 8668 0.159
5553 14193 0.05
5553 14194 0.243
5554 5555 0.453
5554 14695 0.183
5554 14696 0.094
5555 5596 0.209
5556 5631 1.619
5556 25263 0.075
5556 25275 0.029
5556 25276 0.037
5557 8193 0.101
5557 11664 0.039
5558 19325 2.108
5559 14992 0.039
5559 14994 0.15
5560 14991 0.171
5560 14995 0.179
5561 15164 0.069
5561 15165 0.046
5561 15166 0.203
5562 15062 0.127
5562 15069 0.037
5562 29177 0.443
5563 5644 0.743
5563 14169 0.373
5563 14193 0.285
5564 14168 0.127
5564 14169 0.067
5564 14170 0.201
5564 14173 0.057
5565 5592 0.308
5565 30532 0.26
5566 9738 0.015
5566 9739 0.015
5566 9741 0.073
5566 9761 0.191
5567 8283 0.326
5567 8286 0.09
5567 9719 0.347
5567 29180 0.731
5568 9631 0.045
5569 27451 0.131
5569 27453 0.09
5569 27454 0.041
5570 27456 0.157
5570 27457 0.104
5571 5586 0.102
5571 5600 0.234
5571 26945 0.165
5572 5599 0.374
5572 14994 0.228
5572 15006 0.02
5573 5585 0.051
5573 15087 0.073
5573 15088 0.069
5574 14975 0.23
5574 15037 0.056
5574 29410 0.916
5575 23338 0.09
5575 23339 0.198
5576 5625 0.308
5576 14177 0.05
5576 14227 0.341
5576 14233 0.093
5577 5587 0.095
5577 11678 0.128
5577 32560 0.148
5578 8288 0.139
5578 28041 0.302
5579 8143 0.952
5579 13494 0.071
5579 13515 0.035
5580 5581 0.162
5580 8672 0.115
5581 5586 0.077
5581 8671 0.177
5582 5583 0.343
5582 23877 0.234
5582 23880 0.131
5583 23856 0.07
5583 23878 0.135
5583 26544 0.38
5584 5623 0.254
5584 9666 0.194
5584 9667 0.118
5584 9740 0.459
5584 9755 0.341
5585 15049 0.08
5585 15091 0.313
5586 5600 0.138
5586 26950 0.038
5587 13759 0.111
5587 13760 0.219
5588 13805 0.13
5588 27454 0.044
5588 27455 0.018
5589 23869 0.063
5589 23870 0.115
5589 26544 0.315
5590 15039 0.102
5590 27004 0.174
5590 27011 0.074
5590 27012 0.077
5591 14223 0.039
5591 14224 0.024
5591 14241 0.074
5591 28991 0.055
5592 14350 0.042
5592 14351 0.093
5592 30735 0.139
5593 29039 0.063
5593 29040 0.08
5593 32377 0.131
5594 11665 0.059
5594 11734 0.062
5594 28881 0.115
5595 14699 0.13
5595 14700 0.029
5595 28347 0.033
5596 14701 0.059
5596 27646 0.08
5597 14689 0.046
5597 14693 0.119
5597 32574 0.181
5598 14543 0.197
5598 14592 0.118
5599 14995 0.058
5599 14996 0.061
5599 15000 0.083
5600 8672 0.172
5601 15068 0.084
5601 15069 0.061
5601 15070 0.041
5602 14284 0.047
5602 30736 0.136
5602 30737 0.12
5603 14351 0.333
5603 16629 0.042
5603 16630 0.04
5603 16631 0.034
5604 16631 0.183
5604 16632 0.07
5604 30734 0.207
5605 14600 0.27
5605 14622 0.076
5605 14623 0.068
5605 14684 0.207
5606 5607 0.092
5606 8671 0.479
5606 15163 0.229
5606 26951 0.141
5607 26945 0.083
5607 26946 0.066
5607 26952 0.154
5608 5619 0.127
5608 11669 0.131
5608 11740 0.045
5609 8290 0.33
5609 11740 0.113
5609 28038 0.047
5610 14284 0.029
5610 30079 0.046
5611 14263 0.039
5611 14264 0.061
5611 14266 0.076
5611 32377 0.09
5612 14144 0.243
5612 14145 0.104
5613 15072 0.177
5613 15073 0.101
5613 26951 0.144
5613 26952 0.152
5614 9985 0.117
5614 9988 0.09
5614 9989 0.166
5615 9878 0.153
5615 9879 0.098
5615 9908 0.038
5616 11436 0.048
5616 11439 0.121
5616 20583 0.196
5617 11718 0.045
5617 28881 0.108
5618 5690 0.433
5618 11723 0.054
5618 27283 0.046
5619 11670 0.038
5619 11739 0.067
5619 28877 0.055
5620 5672 0.464
5620 8674 0.44
5620 15324 0.071
5621 14261 0.105
5621 14268 0.076
5621 14350 0.181
5621 14352 0.059
5622 5677 0.456
5622 23870 0.067
5622 23871 0.078
5623 5790 0.616
5623 29181 0.377
5624 14166 0.077
5624 14172 0.051
5624 14314 0.557
5625 14236 0.094
5625 14314 0.088
5626 9727 0.035
5626 9732 0.244
5626 31665 0.2
5627 16626 0.046
5627 16629 0.179
5627 16634 0.205
5627 16635 0.455
5628 20665 0.024
5628 20666 0.035
5628 20667 0.035
5629 5670 0.398
5629 5673 0.432
5629 25253 0.108
5629 26540 0.387
5630 5721 0.939
5630 14236 0.28
5630 29031 0.119
5630 29032 0.129
5631 5702 0.616
5632 5680 0.123
5632 11738 0.063
5633 5634 0.318
5633 5682 0.35
5633 23991 0.41
5633 30379 0.37
5634 24128 0.052
5634 24142 0.085
5635 20672 0.281
5636 14281 0.045
5636 14282 0.071
5636 14285 0.052
5636 30738 0.138
5637 14052 0.202
5637 14724 0.036
5637 32575 0.034
5638 5696 0.866
5638 30380 0.247
5638 32577 0.031
5639 14147 0.042
5639 14148 0.038
5639 14150 0.191
5640 13440 0.091
5640 13509 0.134
5640 14507 0.411
5641 14593 0.215
5641 14594 0.041
5641 14597 0.087
5641 14606 0.181
5642 14266 0.229
5642 14271 0.044
5642 30739 0.155
5643 16672 0.204
5643 20666 0.068
5643 29036 0.203
5644 5686 0.348
5645 15314 0.041
5645 15315 0.13
5645 15365 0.217
5645 32669 0.548
5646 15401 0.305
5647 5696 0.42
5647 16528 0.106
5648 5662 0.408
5648 14661 0.219
5648 14667 0.048
5649 14673 0.44
5649 14680 0.327
5649 14682 0.043
5650 14145 0.242
5650 14146 0.064
5650 14148 0.271
5651 5652 0.082
5651 25251 0.177
5652 5665 0.106
5652 5668 0.124
5652 25253 0.168
5653 23983 0.074
5653 26547 0.071
5653 26551 0.026
5654 15074 0.092
5654 15075 0.134
5654 15076 0.211
5655 14565 0.101
5655 14596 0.264
5655 14625 0.103
5655 14627 0.059
5656 15015 0.098
5656 15016 0.116
5656 15017 0.152
5656 15018 0.31
5657 15007 0.178
5657 15008 0.072
5657 15013 0.187
5658 23981 0.038
5658 23982 0.065
5658 23990 0.217
5659 23984 0.036
5659 24167 0.06
5659 24168 0.122
5659 26547 0.05
5660 5667 1.134
5660 8812 2.391
5660 25261 0.053
5660 25262 0.084
5661 16634 0.05
5661 16637 0.143
5662 5698 0.474
5662 14669 0.12
5662 14681 0.145
5663 5698 0.454
5663 11418 0.363
5663 11426 0.092
5663 11427 0.043
5664 14687 0.134
5664 32572 0.096
5665 5669 0.202
5665 5694 0.125
5666 5679 0.578
5666 25251 0.407
5666 25252 0.945
5666 26543 0.547
5667 5668 0.128
5667 5683 0.229
5667 31668 0.067
5668 5669 0.234
5669 5670 0.293
5669 5776 4.048
5671 9575 0.069
5671 9594 0.332
5672 15313 0.106
5672 32669 0.269
5673 5683 0.333
5674 23970 0.193
5674 26550 0.148
5675 15054 0.038
5675 31953 0.165
5676 5720 0.095
5676 15055 0.188
5676 15361 0.066
5676 25493 0.079
5677 5679 0.046
5677 24138 0.342
5678 24129 0.138
5678 24130 0.044
5678 24138 0.23
5679 24146 0.071
5680 13767 0.098
5680 13768 0.153
5681 5684 0.402
5681 14147 0.189
5681 14149 0.067
5682 24124 0.158
5682 24140 0.044
5683 5694 0.219
5683 5791 4.041
5684 5687 0.2
5684 14141 0.043
5684 14146 0.186
5685 5773 0.109
5685 8810 0.461
5685 14054 0.135
5686 5687 0.176
5686 5691 0.541
5686 14137 0.097
5688 5689 0.306
5688 13769 0.072
5688 20619 0.148
5688 27437 0.055
5689 13766 0.072
5689 13772 0.087
5690 13772 0.215
5690 13773 0.056
5691 5692 0.31
5691 14126 0.032
5691 14127 0.057
5692 5722 0.087
5693 5710 0.149
5693 15317 0.046
5694 32861 0.251
5695 5753 0.211
5695 25254 0.256
5695 26514 0.641
5695 31669 0.194
5696 32573 0.059
5697 5732 0.188
5697 14727 0.079
5697 14728 0.037
5698 5723 0.088
5699 5724 0.157
5699 32862 0.133
5700 7923 0.584
5700 14626 0.154
5700 26324 0.136
5700 32862 0.043
5701 23312 0.104
5701 23316 0.098
5702 23295 0.109
5702 23296 0.206
5702 23313 0.071
5703 14279 0.092
5703 16612 0.049
5703 32379 0.111
5704 14267 0.337
5704 16625 0.119
5704 30341 0.166
5705 9556 0.154
5706 24008 0.064
5706 24009 0.054
5706 24018 0.089
5707 24007 0.053
5707 24008 0.22
5708 23972 0.598
5708 24012 0.11
5708 24018 0.196
5709 15043 0.075
5709 15044 0.031
5709 31952 0.482
5710 15318 0.054
5711 13802 0.276
5711 13821 0.119
5711 13835 0.114
5711 13837 0.038
5712 13841 0.133
5712 13842 0.097
5712 13843 0.074
5712 27371 0.234
5713 13840 0.144
5713 13852 0.05
5713 27371 0.169
5714 16673 0.055
5714 16674 0.083
5715 5765 0.425
5715 8293 0.055
5715 13764 0.071
5715 27440 0.117
5716 9654 0.043
5716 9670 0.38
5716 9731 0.167
5716 31666 0.06
5717 31679 0.859
5718 6626 0.322
5718 9760 0.427
5718 9858 0.048
5718 9869 0.113
5719 15045 0.084
5719 15046 0.059
5719 15104 0.074
5719 15105 0.289
5720 15105 0.322
5720 25490 0.116
5721 5728 0.081
5721 14161 0.037
5722 14161 0.078
5722 14162 0.061
5723 13801 0.087
5723 28883 0.35
5724 13820 0.097
5724 13857 0.024
5725 13823 0.07
5725 13824 0.221
5725 13825 0.04
5726 5786 0.085
5726 15030 0.074
5726 15048 0.045
5727 5787 0.187
5727 15103 0.192
5727 25492 0.032
5728 14159 0.053
5728 32381 0.063
5729 14630 0.1
5729 14636 0.164
5730 15385 0.102
5730 15386 0.05
5730 15395 0.204
5730 28886 0.364
5731 5747 0.08
5731 14130 0.131
5732 14729 0.097
5732 16532 0.13
5733 5772 0.289
5733 24145 0.226
5735 23998 0.091
5735 24013 0.257
5737 5785 0.454
5738 9604 0.064
5738 9639 0.226
5738 9647 0.264
5739 5801 0.541
5739 9609 0.152
5739 9610 0.059
5739 9637 0.286
5740 5749 0.082
5741 5804 0.22
5741 15303 0.263
5741 15304 0.035
5741 15305 0.037
5742 15310 0.087
5742 15311 0.042
5742 15313 0.151
5743 5805 0.408
5743 14131 0.062
5743 14132 0.157
5743 14137 0.404
5744 5778 0.275
5744 5806 0.406
5744 14132 0.054
5744 14142 0.054
5745 5747 0.164
5745 5811 0.485
5745 14131 0.109
5746 25269 0.134
5746 26514 0.308
5746 26515 0.054
5747 14111 0.078
5747 30741 0.149
5748 5749 0.434
5748 5768 0.289
5748 8349 0.572
5749 30440 0.425
5750 13776 0.067
5750 13777 0.037
5750 27290 0.028
5751 25683 0.046
5751 27345 0.3
5751 27346 0.157
5752 14836 0.236
5752 16649 0.532
5753 5754 0.065
5753 31681 0.499
5754 25252 0.071
5754 26511 0.659
5755 7905 0.277
5755 15018 0.28
5755 27017 0.191
5756 14641 0.137
5756 14646 0.059
5756 14647 0.037
5756 14651 0.495
5757 16536 0.037
5757 26364 0.235
5757 29182 0.412
5758 14643 0.044
5758 14644 0.042
5758 29182 0.395
5759 5760 0.098
5759 5770 0.274
5759 5771 0.308
5759 30741 0.095
5760 14163 0.263
5761 13844 0.337
5761 27344 0.113
5762 8852 0.119
5762 16604 0.366
5762 29030 0.038
5763 5771 0.217
5763 14160 0.164
5763 14835 0.159
5764 5765 0.198
5764 8298 0.091
5764 13781 0.033
5765 8208 0.265
5766 15020 0.043
5766 27009 0.292
5766 27013 0.078
5766 31526 0.038
5767 9656 0.127
5767 9657 0.123
5767 9672 0.192
5768 27016 0.185
5768 29183 0.185
5768 30435 0.136
5769 8297 0.5
5769 13789 0.157
5769 13795 0.043
5769 13796 0.102
5770 14108 0.072
5770 14109 0.133
5771 14117 0.07
5771 14118 0.245
5772 24147 0.156
5773 14055 0.085
5773 14057 0.18
5774 14056 0.152
5774 14151 0.137
5775 16539 0.035
5775 16541 0.037
5775 27756 0.023
5776 5777 0.459
5776 6079 5.879
5777 5792 0.162
5777 24019 0.288
5778 14153 0.159
5778 14154 0.126
5779 16534 0.052
5779 16535 0.056
5779 28244 0.519
5780 9646 0.119
5780 9647 0.091
5780 9681 0.045
5781 9706 0.139
5781 9733 0.053
5781 9734 0.054
5781 31667 0.309
5782 9660 0.047
5782 9701 0.248
5782 9702 0.164
5782 9737 0.107
5783 20588 0.109
5783 20618 0.304
5783 27296 0.042
5784 15377 0.03
5784 15378 0.093
5784 28886 0.366
5785 30435 0.237
5785 30442 0.42
5786 15027 0.039
5786 15028 0.054
5787 15102 0.105
5787 29185 0.131
5788 15098 0.052
5788 15099 0.049
5788 15106 0.159
5788 15107 0.153
5789 9560 0.195
5789 9570 0.041
5789 28887 0.476
5790 8295 0.272
5790 9771 0.024
5790 9772 0.156
5791 5792 0.437
5791 6094 6.252
5792 6051 2.564
5793 5830 0.452
5793 8810 0.234
5793 14151 0.037
5793 14152 0.03
5794 5795 0.085
5794 5803 0.075
5794 28882 0.328
5795 15148 0.107
5796 5850 0.404
5796 24118 0.067
5796 24147 0.2
5796 24148 0.074
5797 24150 0.128
5797 28888 0.024
5798 8827 0.066
5798 23309 0.024
5798 25293 0.642
5799 25297 0.121
5799 26500 0.101
5799 26508 0.034
5800 31679 0.142
5801 9607 0.08
5801 9608 0.08
5801 28889 0.304
5802 15112 0.065
5802 15113 0.051
5802 15114 0.103
5802 31954 0.147
5803 15147 0.044
5804 5810 0.073
5804 15306 0.064
5805 5806 0.212
5805 30381 0.186
5806 5832 0.354
5807 5864 0.641
5807 16620 0.032
5807 16621 0.046
5807 28203 0.695
5808 13977 0.16
5808 14329 0.104
5808 16621 0.141
5809 5861 0.134
5809 16614 0.05
5809 16624 0.034
5810 15148 0.406
5811 30080 0.092
5812 16618 0.112
5812 16620 0.056
5813 16615 0.08
5813 16649 0.09
5813 16650 0.214
5814 8303 0.486
5814 13779 0.053
5814 13780 0.126
5815 13871 0.06
5815 13890 0.091
5815 27350 0.089
5816 15035 0.15
5816 15036 0.044
5816 26122 0.05
5816 29184 0.194
5817 15033 0.073
5817 15034 0.065
5817 26114 0.043
5818 8802 0.301
5818 13945 0.033
5818 13946 0.053
5818 30742 0.124
5819 15378 0.118
5819 15379 0.04
5819 15380 0.04
5820 5849 1.002
5821 9693 0.401
5821 9697 0.213
5821 9698 0.079
5821 9699 0.171
5822 9772 0.025
5822 9773 0.088
5822 9885 1.169
5823 9565 0.283
5824 8302 2.23
5824 9883 0.165
5824 9884 0.165
5824 9901 0.094
5825 5914 0.699
5825 8294 0.512
5825 8303 0.281
5826 5845 0.435
5826 14104 0.227
5826 14123 0.047
5826 14124 0.073
5827 14093 0.096
5827 14105 0.068
5827 14106 0.054
5828 5829 0.096
5828 14651 0.046
5828 14652 0.399
5829 14632 0.202
5829 14633 0.228
5830 5831 0.049
5830 5863 0.564
5831 13910 0.208
5831 14157 0.044
5832 5835 0.203
5832 5866 0.232
5832 14158 0.135
5833 5834 0.191
5833 32367 0.067
5833 32370 0.242
5834 15379 0.155
5834 29186 0.272
5835 5837 0.138
5835 5869 0.23
5835 30381 0.17
5836 8303 0.455
5836 10118 0.039
5836 10119 0.087
5836 29187 0.234
5837 5871 0.244
5837 14094 0.076
5837 29998 0.166
5838 14104 0.047
5838 14105 0.057
5838 14114 0.046
5839 14093 0.034
5839 14094 0.044
5839 14095 0.132
5839 14114 0.194
5840 15336 0.16
5840 26971 0.337
5841 15160 0.077
5841 15161 0.064
5841 26110 0.247
5841 32783 0.057
5842 7907 0.056
5842 15159 0.101
5842 27019 0.098
5842 27020 0.169
5843 5908 0.058
5843 15116 0.035
5843 15117 0.032
5844 13846 0.145
5844 13888 0.034
5844 13891 0.033
5845 8807 0.154
5845 8808 0.298
5845 8856 0.221
5846 15308 0.22
5846 15396 0.027
5846 32370 0.056
5847 23284 0.116
5847 23285 0.078
5847 31622 0.105
5848 23264 0.042
5848 23274 0.065
5848 31622 0.288
5849 25698 3.097
5850 5923 0.566
5851 15107 0.181
5851 15125 0.151
5852 15109 0.075
5852 15110 0.185
5852 26125 0.062
5852 29188 0.118
5853 5856 0.114
5853 15331 0.033
5853 15332 0.05
5853 26973 0.062
5854 15400 0.247
5854 15440 0.476
5854 15448 0.035
5854 29186 0.456
5855 15336 0.037
5855 15337 0.129
5855 15338 0.035
5856 30081 0.19
5857 24082 0.05
5857 24083 0.057
5857 24096 0.504
5858 5859 0.217
5858 16546 0.033
5858 16570 0.043
5858 32584 0.054
5859 8675 0.107
5859 13917 0.121
5860 5898 0.047
5860 13948 0.05
5860 13952 0.107
5860 32933 0.114
5861 5865 0.103
5861 30743 0.047
5862 5886 0.115
5862 13917 0.037
5862 13918 0.074
5862 16570 0.169
5863 13911 0.058
5863 13916 0.253
5864 5894 0.165
5864 13958 0.065
5864 13983 0.134
5865 13983 0.193
5866 8677 0.03
5866 13908 0.201
5867 13897 0.024
5867 13908 0.025
5867 13909 0.02
5867 13910 0.02
5868 5919 0.604
5868 5954 1.47
5868 30441 0.499
5869 5871 0.079
5869 5900 0.199
5869 8677 0.149
5870 13864 0.109
5870 13868 0.099
5870 13869 0.068
5870 27370 0.039
5871 5901 0.198
5871 14096 0.074
5872 14095 0.09
5872 14096 0.044
5872 14097 0.099
5873 26995 0.048
5873 27001 0.142
5874 5917 0.429
5874 13925 0.021
5874 30744 0.029
5875 14047 0.052
5876 15339 0.071
5876 15463 0.194
5877 5916 0.035
5877 5925 0.168
5877 26109 0.085
5877 26111 0.121
5878 16549 0.132
5878 16553 0.337
5878 16557 0.036
5879 14025 0.267
5879 14050 0.042
5879 14051 0.037
5880 5947 0.62
5880 13884 0.137
5880 27428 0.022
5881 8304 0.627
5881 9919 0.106
5881 9922 0.102
5882 14073 0.137
5882 14650 0.061
5882 26371 0.074
5883 14074 0.26
5883 26362 0.059
5883 26363 0.199
5884 5968 2.059
5885 5928 0.241
5885 8678 0.232
5885 13895 0.03
5885 13896 0.028
5886 8679 0.116
5886 13915 0.138
5887 9505 0.046
5887 9506 0.188
5887 28889 0.573
5887 28891 0.616
5888 9547 0.106
5889 5910 0.094
5889 25305 0.152
5889 30382 0.427
5890 25302 0.144
5890 25303 0.128
5890 25304 0.169
5891 26498 0.063
5891 26499 0.096
5891 26505 0.173
5892 13960 0.088
5892 14015 0.083
5892 14016 0.117
5892 14017 0.123
5893 13956 0.068
5893 13957 0.128
5893 13958 0.077
5893 16623 0.086
5894 13957 0.035
5894 13961 0.349
5894 30745 0.106
5895 5975 0.338
5895 29187 0.188
5896 26333 0.21
5896 27357 0.072
5896 27358 0.236
5897 5950 0.52
5897 8856 0.305
5897 13950 0.051
5897 13951 0.034
5898 13949 0.036
5898 32933 0.114
5899 5916 0.416
5899 5926 0.286
5899 30442 0.761
5900 8680 0.128
5900 14099 0.035
5901 5902 0.132
5901 5931 0.218
5901 14099 0.046
5902 14097 0.048
5902 14098 0.03
5903 6186 1.313
5903 8219 0.292
5903 9612 0.147
5904 27300 0.086
5904 27326 0.137
5904 27327 0.134
5905 14022 0.028
5905 14023 0.227
5905 14024 0.026
5906 9925 0.059
5906 9926 0.291
5906 9927 0.046
5906 9929 0.13
5907 15460 0.06
5907 15462 0.239
5907 15463 0.035
5908 15119 0.039
5908 32683 0.057
5909 25221 0.353
5909 25240 0.25
5909 28888 1.02
5909 28893 0.302
5910 6006 1.115
5910 25242 0.266
5911 8144 0.64
5911 14653 0.11
5911 14654 0.102
5912 5960 0.112
5912 13954 0.087
5912 13955 0.251
5912 30746 0.218
5913 14014 0.164
5913 30747 0.1
5914 8306 0.11
5914 27299 0.023
5915 5973 0.158
5915 27310 0.157
5915 27311 0.079
5915 27312 0.12
5916 5919 0.208
5917 5918 0.088
5917 6015 0.632
5917 13931 0.073
5918 5930 0.08
5918 14098 0.134
5919 5925 0.071
5919 26124 0.133
5920 5983 0.188
5920 15134 0.023
5921 5935 0.147
5921 6028 0.831
5921 9509 0.06
5921 9524 0.271
5922 13865 0.062
5922 13882 0.215
5922 27337 0.196
5922 27338 0.145
5923 24163 0.026
5923 25243 0.138
5924 5986 0.965
5924 23259 0.061
5924 23260 0.057
5925 5926 0.377
5926 5951 0.858
5927 5953 0.386
5927 5956 0.391
5927 13913 0.043
5927 13914 0.124
5928 13902 0.128
5928 13903 0.038
5929 13903 0.063
5929 13904 0.126
5929 13905 0.034
5930 5931 0.183
5930 5992 0.583
5931 5933 0.027
5932 5976 0.453
5932 23265 0.072
5932 23285 0.297
5933 14100 0.047
5933 14101 0.234
5934 15398 0.277
5934 15399 0.026
5934 15400 0.048
5934 15424 0.039
5935 5939 0.654
5935 9521 0.069
5935 9623 0.162
5936 9974 0.108
5936 9975 0.06
5936 9976 0.052
5936 10126 0.058
5937 8308 0.38
5937 9950 0.147
5937 9951 0.069
5938 15439 0.026
5938 15440 0.041
5938 15456 0.264
5939 9611 0.086
5939 29189 0.686
5940 27303 0.026
5940 27304 0.277
5940 27324 0.23
5940 27325 0.044
5941 15162 0.416
5941 29188 0.275
5942 25300 0.064
5942 25301 0.074
5943 23257 0.088
5943 23258 0.146
5944 16573 0.253
5944 16574 0.06
5944 16575 0.271
5945 16578 0.179
5945 16594 0.104
5945 16598 0.118
5945 16602 0.044
5946 5947 0.116
5946 5961 0.347
5946 13882 0.196
5947 5957 0.119
5948 5961 0.063
5948 25694 0.235
5948 27384 0.051
5949 5952 0.125
5949 15111 0.098
5949 15151 0.056
5950 13955 0.12
5950 13990 0.079
5951 5952 0.677
5951 29610 1.29
5952 5965 0.065
5953 5956 0.331
5953 5967 0.55
5953 6013 0.384
5953 6023 0.418
5954 5965 0.629
5954 29611 1.152
5955 28237 0.122
5955 30482 0.156
5956 5996 0.275
5957 6002 0.305
5957 27427 0.097
5958 23232 0.085
5958 23238 0.129
5958 23268 0.193
5959 23232 0.397
5959 26123 0.713
5959 29190 1.001
5960 5998 0.196
5960 6010 0.621
5961 6003 0.219
5962 13921 0.048
5962 13929 0.045
5962 16523 0.1
5963 24093 0.198
5963 24094 0.048
5964 5989 0.409
5964 13963 0.05
5964 13964 0.028
5964 13965 0.061
5965 15153 0.36
5966 5988 0.333
5966 14071 0.059
5966 14072 0.322
5967 13920 0.223
5967 16514 0.24
5967 32583 0.264
5968 7097 19.044001
5969 14026 0.192
5969 14027 0.059
5969 30642 0.248
5970 5971 1.214
5970 15450 0.144
5970 32671 0.365
5971 15399 0.27
5971 15425 0.046
5972 8310 0.05
5972 27317 0.079
5972 31843 0.081
5973 8313 0.201
5973 27318 0.155
5973 31842 0.06
5974 5991 0.25
5974 23256 0.027
5974 23257 0.153
5975 10110 0.032
5975 10112 0.172
5976 5986 0.088
5976 23254 0.101
5977 6088 0.911
5977 8313 0.099
5977 10114 0.043
5978 15743 0.625
5978 15745 0.205
5978 26503 0.02
5979 26493 0.122
5979 26494 0.147
5979 26495 0.216
5980 10112 0.085
5980 10113 0.119
5981 13934 0.034
5981 13935 0.041
5981 13942 0.088
5981 13991 0.236
5982 5983 0.152
5982 15152 0.101
5982 27003 0.222
5983 28895 0.251
5984 6065 0.199
5984 30421 0.292
5984 30422 0.179
5985 14027 0.224
5985 14032 0.27
5985 14046 0.366
5986 23255 0.076
5987 9479 0.06
5987 9482 0.111
5988 28212 1.62
5989 5990 0.279
5989 14028 0.031
5989 28202 0.674
5990 14020 0.034
5990 30748 0.315
5991 23292 0.052
5991 23293 0.054
5992 14103 0.034
5992 16525 0.063
5993 8407 0.078
5993 14102 0.026
5993 14103 0.131
5994 15121 0.507
5994 32670 0.336
5994 32679 0.189
5995 5996 0.173
5995 6012 0.188
5995 13907 0.055
5995 30749 0.233
5996 6013 0.257
5997 8311 0.051
5997 27323 0.038
5997 27424 0.137
5998 6031 0.517
5998 6036 0.535
5999 6029 0.595
5999 15457 0.069
5999 15459 0.414
5999 15465 0.093
6000 26345 0.116
6000 26348 0.177
6000 26351 0.166
6001 26327 0.275
6001 26351 0.473
6001 26352 0.286
6002 26172 0.135
6002 27425 0.085
6003 26171 0.114
6003 26172 0.211
6003 28397 0.084
6003 28975 0.06
6004 13928 0.127
6004 14089 0.179
6004 16524 0.252
6005 8199 0.345
6005 27423 0.06
6005 27424 0.028
6005 31846 0.092
6006 6040 0.206
6006 25237 0.395
6007 25235 0.122
6007 25237 0.213
6007 28893 0.291
6008 6061 0.212
6008 16525 0.478
6008 30750 0.209
6008 30751 0.266
6009 14020 0.058
6009 14021 0.15
6010 13940 0.049
6010 13941 0.123
6011 15740 0.239
6011 26493 0.201
6011 28075 0.041
6012 6013 0.384
6012 16500 0.052
6013 6037 0.325
6014 8442 0.458
6014 14090 0.053
6014 14091 0.037
6014 29193 0.27
6015 16526 0.035
6015 29193 0.11
6016 9494 0.03
6016 9495 0.094
6017 6028 0.537
6017 9500 0.147
6017 9501 0.148
6017 9514 0.045
6018 9918 0.344
6018 9938 0.269
6018 9940 0.031
6019 8309 0.324
6019 9931 0.131
6019 9932 0.042
6019 9933 0.035
6020 14043 0.043
6020 14044 0.053
6021 14039 0.137
6021 14041 0.076
6022 6023 0.186
6022 16512 0.031
6022 16513 0.045
6023 32585 0.113
6024 6034 0.795
6024 23291 0.36
6025 25706 0.072
6025 25707 0.348
6025 25720 0.232
6025 25733 0.049
6026 26375 0.263
6026 27379 0.131
6026 28892 0.197
6026 29194 0.344
6027 26164 0.645
6027 27410 0.178
6027 28394 0.282
6028 9551 0.204
6029 15471 0.049
6029 15472 0.065
6030 15456 0.283
6030 15466 0.053
6030 15467 0.13
6031 13938 0.048
6031 13939 0.03
6031 30752 0.215
6032 14021 0.104
6032 30753 0.15
6033 28073 0.152
6033 28074 0.144
6033 28077 0.032
6034 28073 0.112
6034 28078 0.333
6035 13980 0.049
6035 13982 0.023
6035 28896 0.717
6036 6057 0.391
6036 13972 0.046
6036 13982 0.326
6037 32585 0.259
6037 32589 0.521
6038 8442 0.199
6038 15545 0.279
6038 30752 1.048
6039 6062 0.328
6039 6063 0.328
6039 6069 0.774
6039 6070 0.546
6039 15473 0.262
6040 6135 1.058
6040 25219 0.111
6040 25245 0.107
6041 15763 0.315
6041 25245 0.083
6041 25246 0.093
6042 6054 0.245
6042 14069 0.151
6043 13973 0.026
6043 13974 0.115
6043 15534 0.038
6044 9960 0.063
6044 9961 0.097
6044 9962 0.038
6044 9970 0.114
6045 8309 0.328
6045 9948 0.07
6045 9980 0.112
6046 16580 0.042
6046 16581 0.064
6046 16582 0.12
6046 16584 0.364
6047 16510 0.056
6047 16512 0.106
6047 32587 0.02
6048 14036 0.059
6048 14037 0.049
6048 28808 0.112
6048 30754 0.218
6049 14033 0.046
6049 14034 0.171
6049 30753 0.041
6050 28486 0.077
6050 28487 0.032
6050 30551 0.811
6051 6055 7.42
6052 8319 0.374
6052 8321 0.452
6052 8322 0.468
6053 8318 0.062
6053 27321 0.049
6053 27420 0.783
6054 14068 0.223
6055 24190 0.432
6056 8200 0.246
6057 6180 1.112
6057 15536 0.198
6058 26338 0.163
6058 26344 0.11
6058 26353 0.072
6059 16499 0.052
6059 16500 0.313
6059 32588 0.08
6060 6081 0.199
6060 30577 0.096
6060 32589 0.049
6061 6086 0.149
6061 16516 0.128
6061 30755 0.121
6062 6063 0.269
6062 6109 0.512
6063 6066 0.138
6064 16502 0.046
6064 16503 0.108
6064 16507 0.039
6065 15138 0.715
6065 15141 0.084
6066 6068 0.498
6066 26976 0.195
6067 6068 0.265
6067 6073 0.128
6067 15472 0.063
6067 26976 0.043
6068 6097 0.385
6069 6070 0.365
6069 6072 0.103
6070 6116 0.413
6071 6086 0.221
6071 6093 0.101
6071 6099 0.325
6072 6073 0.218
6072 6096 0.517
6073 15477 0.096
6073 26977 0.037
6073 32372 0.129
6074 6128 0.679
6074 15744 0.328
6074 26510 0.105
6075 6149 0.793
6075 15750 0.062
6075 15757 0.116
6076 14068 0.118
6076 16591 0.061
6076 32579 0.363
6077 6121 0.422
6077 16587 0.049
6077 16588 0.18
6077 32579 0.408
6078 6112 0.188
6078 20621 0.282
6078 27420 0.212
6078 31844 0.242
6079 6080 0.261
6079 6226 4.177
6080 6094 0.51
6080 25741 0.684
6080 28069 0.104
6081 6120 0.244
6081 16505 0.064
6082 6115 0.257
6082 6151 0.404
6082 16501 0.046
6082 16584 0.369
6083 6100 0.179
6083 6107 0.323
6083 28377 0.635
6084 6085 0.169
6084 6100 0.215
6084 6101 0.101
6084 28079 0.151
6085 6101 0.245
6085 28375 0.259
6086 6093 0.121
6086 16517 0.132
6087 8319 0.115
6087 10136 0.094
6087 27322 0.058
6088 6104 0.442
6088 9968 0.156
6088 10124 0.042
6089 6090 0.085
6089 9980 0.228
6090 6091 0.126
6090 9949 0.057
6091 9983 0.093
6092 9944 0.213
6092 9956 0.065
6092 9957 0.083
6093 6098 0.08
6094 6276 4.183
6095 25737 0.208
6095 25740 0.438
6095 28068 0.074
6096 6097 0.385
6096 26977 0.274
6097 15455 0.149
6098 6099 0.118
6098 13070 0.059
6098 14092 0.26
6099 15546 0.34
6100 6107 0.187
6100 26475 0.243
6101 6106 0.143
6102 6105 0.43
6102 15544 0.188
6102 15545 0.036
6102 15546 0.2
6103 11142 0.154
6103 26164 0.194
6103 26169 0.293
6103 26170 0.052
6104 9945 0.029
6104 10131 0.235
6105 15541 0.222
6105 30756 0.618
6106 6107 0.149
6106 26487 0.143
6106 28074 0.765
6107 26474 0.092
6108 26469 0.368
6108 26486 0.031
6108 32666 0.219
6109 6117 0.542
6110 6141 0.13
6110 27379 0.204
6110 27380 0.067
6111 6203 0.837
6111 23230 0.354
6111 23288 0.076
6111 27034 0.047
6112 20622 0.068
6113 6114 0.237
6113 26376 0.242
6113 29195 0.061
6113 30383 0.382
6114 6154 0.299
6114 7941 0.092
6115 6120 0.201
6116 28477 0.468
6117 28471 0.067
6117 28477 0.076
6117 28480 0.078
6118 13071 0.073
6118 15549 0.475
6118 16519 0.135
6118 16520 0.047
6119 6164 0.161
6119 26475 0.266
6119 26479 0.063
6120 16506 0.049
6121 6181 0.626
6121 16592 0.211
6121 16593 0.039
6122 6123 0.113
6122 13068 0.069
6122 30759 0.292
6123 6136 0.196
6123 16498 0.115
6124 15478 0.142
6124 15479 0.18
6124 32371 0.283
6125 14038 0.319
6125 16424 0.198
6125 30683 0.18
6126 16590 0.077
6126 20652 0.055
6126 20653 0.051
6126 20654 0.052
6127 16589 0.096
6127 16590 0.197
6128 25312 0.068
6128 25313 0.275
6129 8319 0.438
6129 10127 0.057
6129 10128 0.152
6130 28472 0.037
6130 28473 0.142
6130 28479 0.152
6131 16423 0.047
6131 16424 0.098
6131 30483 0.255
6132 15135 0.338
6132 15136 0.037
6132 15533 0.284
6133 15136 0.222
6133 15139 0.075
6134 16506 0.097
6134 20647 0.092
6134 30553 0.265
6135 26451 1.009
6135 26454 0.413
6136 13065 0.222
6136 20646 0.17
6137 20645 0.049
6137 20646 0.045
6137 20649 0.056
6137 30760 0.038
6138 11142 0.302
6138 11143 0.044
6138 28695 0.432
6139 15553 0.142
6139 15557 0.167
6139 15558 0.052
6140 6155 0.291
6140 27412 0.052
6140 27413 0.029
6141 7931 0.138
6141 27415 0.086
6142 8314 0.233
6142 8316 0.141
6142 27272 0.116
6143 6160 0.139
6143 9418 0.148
6143 9419 0.096
6144 6175 0.748
6144 23179 0.872
6144 23286 1.313
6145 13999 0.029
6145 15550 0.025
6145 30648 0.233
6146 9406 0.118
6146 9407 0.153
6146 9418 0.019
6146 32935 0.304
6147 15558 0.115
6147 15559 0.061
6148 9411 0.026
6148 9415 0.024
6149 6199 0.22
6149 25311 0.302
6150 13072 0.037
6150 13073 0.06
6150 32553 0.052
6151 6162 0.205
6151 6176 0.257
6151 15734 0.072
6152 6206 0.211
6152 14736 0.043
6152 20655 0.255
6152 29196 0.155
6153 16423 0.056
6153 16425 0.064
6153 16426 0.042
6154 27411 0.166
6154 27413 0.087
6155 7931 0.293
6155 31408 0.01
6155 32799 0.611
6156 8683 0.173
6156 23140 0.184
6157 26479 0.094
6157 26480 0.024
6158 8774 0.171
6158 13074 0.325
6158 20650 0.27
6158 30759 0.085
6159 6160 0.464
6159 9407 0.147
6159 9408 0.054
6160 9417 0.179
6160 9420 0.319
6161 26989 0.305
6161 26994 0.425
6162 6185 0.178
6162 20644 0.031
6163 6174 0.213
6163 16427 0.048
6163 28467 0.038
6163 28468 0.06
6164 6195 0.267
6164 26477 0.413
6164 26482 0.238
6165 6178 0.16
6165 15559 0.129
6165 15560 0.099
6166 10139 0.134
6166 10140 0.108
6166 10141 0.165
6167 6184 0.26
6167 20648 0.06
6167 20649 0.098
6168 6169 0.117
6168 26389 0.484
6168 27416 0.022
6169 27418 0.428
6169 28604 0.196
6169 30383 0.297
6170 6180 0.158
6170 6188 0.076
6170 16490 0.065
6171 9427 0.055
6171 9428 0.123
6171 9444 0.223
6172 9420 0.255
6172 9422 0.126
6172 9423 0.264
6173 28478 0.172
6173 30484 0.294
6173 31961 0.057
6174 16428 0.037
6174 30582 0.324
6175 15653 0.033
6175 26988 0.089
6176 28000 0.208
6177 6178 0.222
6177 26981 0.307
6177 30423 0.225
6178 6187 0.86
6179 15135 0.078
6179 15593 0.218
6179 26981 0.105
6180 7942 0.082
6180 30758 0.131
6181 29197 0.157
6181 30761 0.606
6182 6215 0.157
6182 28212 0.203
6182 29197 0.241
6183 14009 0.177
6183 16490 0.039
6184 6185 0.454
6184 6204 0.179
6184 30762 0.317
6185 20639 0.02
6186 9441 0.103
6186 9442 0.107
6187 6259 0.1
6187 15587 0.15
6187 15595 0.048
6188 30766 0.06
6188 30994 0.112
6189 15498 0.034
6189 15499 0.058
6189 30547 0.064
6189 31965 0.084
6190 7942 0.028
6190 16484 0.025
6191 15480 0.22
6191 15481 0.038
6191 32938 0.39
6192 14000 0.094
6192 14001 0.047
6192 14002 0.046
6192 30767 0.107
6193 16484 0.207
6193 16485 0.061
6193 16487 0.033
6194 11137 0.047
6194 11138 0.117
6194 27401 0.206
6194 27402 0.445
6195 26478 0.092
6195 29198 0.272
6196 26469 0.415
6196 26470 0.175
6196 26472 0.088
6197 14739 0.053
6197 14740 0.043
6197 14741 0.056
6197 30761 0.547
6198 6199 0.703
6198 26454 0.171
6198 26458 0.118
6199 25310 0.052
6200 6201 0.656
6200 8685 0.103
6200 8692 0.163
6201 6251 0.366
6201 8686 0.344
6201 26490 0.062
6202 23140 0.31
6202 26490 0.292
6202 28269 0.123
6203 6230 0.382
6203 27029 0.439
6204 13067 0.124
6204 20651 0.079
6204 30768 0.107
6205 6214 0.148
6205 8773 0.099
6205 13058 0.07
6206 14735 0.205
6207 25208 0.647
6207 26460 0.05
6207 26465 0.06
6207 32663 0.077
6208 13061 0.04
6208 13062 0.039
6208 13063 0.103
6209 14735 0.043
6209 28000 0.37
6210 20635 0.09
6210 20639 0.152
6211 15565 0.071
6211 15566 0.058
6212 15563 0.099
6212 15564 0.19
6213 15482 0.194
6213 15483 0.049
6214 13056 0.16
6214 13057 0.086
6214 30769 0.38
6215 28214 0.109
6215 30384 0.216
6216 26387 0.029
6216 28215 0.106
6216 30385 0.214
6217 25203 0.413
6217 25207 0.189
6217 26451 0.315
6218 6236 0.352
6218 14002 0.141
6218 16493 0.226
6218 30769 0.111
6219 6220 1.239
6219 6226 1.345
6219 6276 1.781
6219 8443 0.972
6220 23843 1.752
6221 24198 0.046
6221 25201 0.146
6221 25202 0.062
6222 13996 0.385
6222 13997 0.156
6222 30770 0.025
6223 6231 0.092
6223 14077 0.055
6223 14078 0.197
6223 30771 0.25
6224 14010 0.063
6224 30771 0.063
6224 30772 0.06
6225 9328 0.253
6226 6631 9.266
6227 14735 0.369
6227 14742 0.058
6227 14743 0.038
6227 32863 0.215
6228 8532 0.119
6228 14012 0.128
6228 14013 0.025
6229 6230 0.107
6229 23134 0.07
6229 26492 0.327
6230 23135 0.062
6231 7942 0.45
6231 16489 0.242
6231 30773 0.064
6232 6234 0.36
6232 14735 0.353
6233 25306 0.121
6233 25307 0.059
6233 25309 0.242
6234 6252 0.074
6234 20638 0.05
6235 8692 0.197
6235 26488 0.637
6235 29198 0.047
6236 6243 0.449
6236 30774 0.059
6236 30775 0.147
6237 13056 0.043
6237 30643 0.154
6237 30774 0.488
6238 32563 0.079
6238 32564 0.161
6239 13019 0.167
6239 13078 0.02
6239 30776 0.232
6240 31408 0.601
6240 32801 0.226
6240 32803 0.528
6241 13002 0.187
6241 13003 0.207
6242 6245 0.242
6242 25307 0.119
6242 29200 0.309
6243 13994 0.061
6243 13995 0.034
6243 13996 0.047
6244 6260 0.234
6244 26466 0.05
6244 26467 0.141
6245 25199 0.079
6245 26467 0.029
6245 26468 0.017
6246 15658 0.159
6246 15666 0.046
6247 9439 0.218
6247 9446 1.284
6248 6262 0.212
6248 14744 0.248
6248 14745 0.108
6249 6269 0.187
6249 14744 0.063
6249 32863 0.241
6250 23136 0.154
6250 23137 0.027
6251 6275 0.61
6251 8509 0.335
6252 6267 0.365
6252 20640 0.182
6253 8693 0.029
6253 14076 0.104
6253 16488 0.041
6254 6331 0.855
6254 13998 0.237
6254 16488 0.085
6254 16489 0.134
6254 30634 0.278
6255 8686 0.366
6255 8695 0.137
6255 8696 0.252
6255 26492 0.057
6256 13054 0.208
6256 13055 0.068
6256 30778 0.183
6256 30779 0.123
6257 8509 0.205
6257 8695 0.305
6257 8697 0.522
6258 15631 0.056
6258 15632 0.228
6258 26987 0.039
6259 6302 0.541
6259 15596 0.137
6260 6294 0.409
6260 25199 0.076
6260 25200 0.362
6261 6293 0.23
6261 25308 0.283
6261 25320 0.082
6261 29200 0.239
6262 6269 0.182
6262 27994 0.064
6263 25316 0.059
6263 25317 0.24
6263 26393 0.217
6263 26471 0.083
6264 6272 0.548
6264 15520 0.116
6264 15524 0.074
6264 15571 0.216
6265 6318 0.658
6265 13007 0.154
6265 27995 0.09
6265 29199 0.264
6266 6267 0.204
6266 6295 0.285
6266 30765 0.137
6268 6460 0.201
6268 10866 0.051
6268 10867 0.553
6270 23138 0.077
6270 23139 0.049
6270 27038 0.024
6271 27745 0.058
6271 27746 0.042
6271 27747 0.061
6272 15572 0.183
6272 15578 0.104
6273 13006 0.06
6273 13007 0.246
6273 13008 0.135
6274 6288 0.154
6274 30781 0.05
6275 23145 0.04
6275 26417 0.024
6276 6646 8.907
6277 15737 0.145
6277 15739 0.047
6277 20640 0.239
6278 15735 0.023
6278 15737 0.028
6279 6281 0.205
6279 30782 0.1
6280 13017 0.048
6280 13018 0.026
6280 30782 0.128
6281 8859 0.125
6281 8860 0.163
6281 13054 0.062
6282 8820 0.148
6282 8859 0.382
6282 30783 0.169
6282 30784 0.138
6283 6284 0.077
6283 23139 0.14
6283 23187 0.028
6283 30001 0.056
6284 27039 0.174
6284 27044 0.063
6285 8537 0.249
6285 8690 0.103
6285 16494 0.132
6286 15607 0.248
6286 15613 0.134
6286 15615 0.037
6287 6289 0.173
6287 16459 0.058
6287 29035 0.129
6288 28905 0.064
6288 29035 0.132
6289 16461 0.063
6289 16494 0.044
6289 16495 0.065
6290 6320 0.313
6290 15739 0.057
6290 20641 0.134
6291 27022 0.149
6291 27023 0.072
6291 27024 0.127
6292 6297 0.117
6292 23190 0.08
6292 27022 0.132
6293 26407 0.097
6294 25195 0.128
6294 25196 0.047
6295 6296 0.148
6295 30578 0.222
6296 6321 0.646
6296 13020 0.046
6296 20641 0.329
6297 6312 0.112
6297 25386 0.045
6298 6329 0.344
6298 25386 0.275
6298 27039 0.07
6299 8861 0.145
6299 30651 0.342
6299 30783 0.093
6299 30785 0.193
6300 26417 0.149
6300 26418 0.043
6300 26419 0.065
6300 32661 1.408
6301 8537 0.234
6301 16496 0.042
6301 16497 0.028
6301 30557 0.221
6302 6303 0.124
6302 32837 0.142
6303 15590 0.049
6303 15605 0.059
6303 28463 0.053
6303 28465 0.133
6304 15591 0.055
6304 15592 0.048
6304 15605 0.05
6305 13015 0.047
6305 13016 0.022
6305 30786 0.22
6306 6333 0.167
6306 13009 0.051
6306 30786 0.215
6307 16462 0.038
6307 16463 0.023
6307 28905 0.143
6307 30787 0.112
6308 16460 0.102
6308 16461 0.04
6309 15577 0.182
6309 15579 0.045
6310 6323 0.019
6310 15580 0.081
6310 15581 0.131
6311 8821 0.262
6311 8861 0.141
6311 30788 0.604
6311 30789 0.113
6312 28258 0.286
6313 6317 0.054
6313 30587 0.097
6313 30790 0.272
6314 11181 0.139
6314 13008 0.125
6315 14008 0.161
6315 30536 0.254
6315 30792 0.24
6316 13014 0.075
6316 13015 0.144
6316 30793 0.178
6317 30793 0.233
6317 30794 0.2
6318 6319 0.407
6318 6345 0.434
6319 11182 0.101
6319 11183 0.135
6319 11184 0.053
6320 6321 0.14
6321 11187 0.233
6321 11188 0.193
6322 13020 0.059
6322 30795 0.025
6323 15582 0.071
6323 15583 0.064
6324 6348 0.077
6324 23178 0.033
6324 27052 0.048
6325 15633 0.12
6325 15635 0.175
6326 6351 0.354
6326 16448 0.05
6326 16456 0.132
6326 16458 0.252
6327 8698 0.207
6327 16497 0.072
6327 30796 0.062
6328 6356 0.298
6328 8698 0.087
6328 30797 0.141
6329 8510 0.452
6329 8699 0.421
6329 27042 0.481
6330 8699 0.341
6330 25361 0.314
6330 27058 0.14
6330 32349 1.368
6331 6346 0.217
6331 27748 0.081
6332 14005 0.122
6332 14006 0.281
6332 27749 0.096
6333 6334 0.233
6333 13010 0.042
6334 6354 0.101
6335 13021 0.087
6335 30795 0.128
6336 6337 0.102
6336 6344 0.089
6336 27997 0.137
6337 6352 0.067
6337 27998 0.043
6337 30520 0.277
6338 6339 0.531
6338 13012 0.05
6338 13013 0.144
6338 30638 0.363
6339 6363 0.208
6339 13010 0.049
6340 15584 0.103
6340 15585 0.246
6340 15620 0.075
6341 15623 0.157
6342 6382 0.136
6342 11183 0.196
6343 14007 0.059
6343 30788 0.09
6343 30798 0.157
6344 6345 0.152
6345 6390 0.431
6345 6400 0.548
6346 6357 0.166
6346 6369 0.539
6346 8732 1.018
6347 15669 0.262
6347 15670 0.039
6348 27049 0.248
6348 28257 0.378
6349 25180 0.058
6349 25181 0.186
6350 6359 0.036
6350 32864 0.066
6350 32922 0.112
6351 6375 0.191
6351 30632 0.088
6352 30799 0.27
6353 13035 0.2
6353 16481 0.14
6353 30789 0.059
6354 6363 0.163
6354 13035 0.078
6354 13036 0.16
6355 27743 0.057
6355 27744 0.079
6355 28496 0.125
6355 28497 0.103
6356 28496 0.024
6356 28498 0.027
6357 6369 0.367
6357 28497 0.154
6357 28498 0.077
6358 6398 0.397
6358 25380 0.137
6358 28258 0.414
6359 27098 0.21
6359 32821 0.082
6360 6372 0.166
6360 32821 0.045
6361 11188 0.063
6361 11189 0.132
6362 11185 0.222
6362 11186 0.063
6363 13038 0.203
6363 30800 0.189
6364 16029 0.033
6364 27099 0.081
6364 27100 0.052
6365 16476 0.093
6365 16477 0.047
6365 30801 0.219
6365 30802 0.21
6366 6387 0.086
6366 13045 0.016
6366 13046 0.02
6367 27098 0.266
6367 28965 0.5
6367 30424 0.116
6368 6376 0.069
6368 27091 0.12
6368 28966 0.087
6369 6480 0.933
6370 13022 0.045
6370 13045 0.226
6371 13011 0.057
6371 13012 0.16
6371 30800 0.33
6372 6373 0.653
6372 27090 0.23
6372 28966 0.097
6373 28955 0.565
6373 28963 0.503
6374 27744 0.13
6374 30529 0.518
6374 30803 0.201
6375 14079 0.048
6375 16451 0.205
6375 30804 0.337
6376 27089 0.277
6376 28957 0.57
6377 28958 0.082
6377 28959 0.173
6377 28964 0.493
6378 6393 0.203
6378 27089 0.164
6378 27090 0.231
6379 11191 0.213
6379 11192 0.052
6379 30520 0.347
6380 6389 0.209
6380 13036 0.094
6380 13037 0.043
6381 16433 0.051
6381 16450 0.027
6381 16451 0.055
6381 16452 0.06
6382 10886 0.05
6383 16442 0.061
6383 16447 0.089
6383 30804 0.064
6384 6401 0.343
6384 6402 0.226
6384 15671 0.146
6384 27072 0.109
6385 11189 0.223
6385 11190 0.114
6385 11191 0.141
6386 11190 0.229
6386 30805 0.096
6387 30805 0.121
6388 6449 0.818
6388 10885 0.263
6388 10886 0.065
6389 13038 0.046
6389 13039 0.054
6389 13040 0.032
6390 6409 0.219
6390 11186 0.063
6390 11194 0.158
6391 15697 0.203
6391 15698 0.047
6392 23151 0.159
6392 27050 0.11
6393 6407 0.153
6393 15648 0.048
6393 27096 0.023
6394 6416 0.301
6394 15638 0.056
6394 15652 0.115
6395 6396 0.137
6395 6411 0.093
6395 23151 0.138
6396 23152 0.084
6396 23154 0.161
6397 6405 0.123
6397 13029 0.073
6397 13046 0.03
6397 30639 0.167
6398 23161 0.092
6398 23164 0.07
6399 13023 0.047
6399 13024 0.082
6400 6412 0.159
6400 11194 0.289
6401 6402 0.258
6401 27067 0.116
6402 27070 0.085
6402 27075 0.106
6403 14058 0.071
6403 14059 0.044
6403 14066 0.072
6403 14067 0.03
6404 6405 0.053
6404 13028 0.034
6404 13029 0.051
6404 30641 0.111
6405 6429 0.347
6405 30386 0.209
6406 23155 0.057
6406 27066 0.072
6406 27067 0.147
6407 6415 0.145
6407 6426 0.388
6408 6412 0.061
6408 11192 0.047
6408 11197 0.271
6408 11218 0.063
6409 6436 0.372
6410 6433 0.64
6410 23122 0.168
6410 23123 0.048
6410 23125 0.042
6411 23120 0.053
6411 23122 0.24
6412 11193 0.077
6413 23160 0.08
6413 23162 0.105
6413 23163 0.083
6414 6425 0.094
6414 6467 0.53
6414 13024 0.197
6414 13025 0.045
6415 6418 0.024
6415 30387 0.467
6416 27084 0.168
6416 29201 0.09
6416 30387 0.175
6417 13027 0.063
6417 30806 0.081
6418 32658 0.042
6418 32659 0.055
6419 28954 0.549
6419 28959 0.149
6419 28960 0.678
6420 16471 0.152
6420 16472 0.042
6420 30678 0.156
6421 6445 0.898
6421 28953 0.204
6421 28965 0.799
6422 6442 0.108
6422 28954 0.284
6422 28956 0.046
6422 28959 0.114
6423 7869 0.186
6423 27088 0.031
6423 29622 0.014
6424 27068 0.047
6424 27075 0.111
6424 27076 0.081
6425 6428 0.144
6426 6437 0.149
6426 27092 0.091
6427 14065 0.117
6427 14066 0.084
6428 11304 0.254
6428 13026 0.042
6429 6444 0.096
6430 13033 0.048
6430 13034 0.335
6430 30807 0.14
6431 14059 0.095
6431 14060 0.039
6431 30807 0.094
6432 9446 0.792
6432 9447 0.569
6433 7867 0.09
6433 27086 0.068
6433 27087 0.133
6434 15696 0.137
6434 15697 0.06
6434 32350 0.085
6435 6466 0.336
6435 23146 0.06
6435 27063 0.277
6436 6449 0.115
6436 6459 0.98
6437 27094 0.048
6437 32659 0.3
6438 6440 0.2
6438 6451 0.235
6438 10891 0.725
6438 31410 0.721
6439 6450 0.09
6439 13049 0.082
6439 29203 0.267
6440 6452 0.613
6440 7904 0.36
6440 7920 0.74
6440 10865 0.117
6441 10884 0.087
6441 10885 0.336
6441 32542 0.075
6442 6443 0.323
6442 29205 0.248
6443 6482 0.227
6443 32354 0.121
6444 13050 0.152
6444 13052 0.08
6444 30635 0.049
6445 6665 1.702
6445 28955 0.25
6446 6672 1.614
6446 28954 0.323
6446 28958 0.805
6447 14063 0.055
6447 14064 0.088
6447 16474 0.033
6447 30808 0.041
6448 6512 0.571
6448 23112 0.268
6448 32658 0.561
6449 6497 0.99
6450 13048 0.048
6450 29206 0.555
6451 6530 0.717
6451 10865 0.053
6451 10866 0.191
6452 6505 0.492
6452 6527 0.189
6453 6454 0.243
6453 8862 0.48
6453 32351 0.066
6454 6483 0.502
6454 28956 0.143
6455 6475 0.642
6455 6479 0.929
6455 7933 1.093
6456 27635 0.146
6456 30810 0.051
6457 14062 0.037
6457 14063 0.08
6457 30810 0.102
6457 30811 0.16
6458 6465 0.152
6458 11193 0.447
6458 11196 0.11
6459 6465 0.255
6459 11196 0.192
6459 11198 0.064
6459 11212 0.163
6460 6473 0.313
6460 10869 0.184
6461 6473 0.275
6461 10869 0.13
6461 10883 0.193
6461 10986 0.147
6462 15684 0.075
6462 15685 0.035
6462 15686 0.115
6462 15693 0.061
6463 15672 0.206
6463 15688 0.16
6463 28508 0.224
6464 11219 0.121
6464 13047 0.036
6465 11195 0.124
6465 11203 0.235
6466 6501 0.206
6466 23131 0.073
6467 6468 0.109
6467 8350 0.238
6468 11304 0.164
6468 30388 0.086
6469 6491 0.312
6469 30813 0.189
6470 10887 0.111
6470 10888 0.062
6470 10889 0.166
6470 10986 0.315
6471 27633 0.173
6471 30654 0.125
6471 30814 0.112
6472 15689 0.084
6472 15690 0.249
6472 15692 0.122
6473 6490 0.478
6473 10868 0.162
6474 11209 0.105
6474 11210 0.049
6474 11211 0.052
6475 6476 0.301
6475 6781 3.268
6475 32866 0.738
6475 32867 0.704
6476 6494 0.546
6476 7934 1.51
6477 6485 0.14
6477 10888 0.145
6478 13031 0.036
6478 27638 0.061
6478 27639 0.063
6479 6543 1.084
6479 32867 0.308
6480 32942 0.02
6480 32943 0.043
6481 16441 0.032
6481 30815 0.153
6482 6483 0.273
6483 8862 0.203
6484 27631 0.022
6484 28275 0.189
6485 10890 0.128
6486 6487 0.086
6486 6504 0.269
6486 30388 0.167
6487 30816 0.045
6488 25054 0.045
6488 25055 0.149
6489 6495 0.249
6489 6506 0.277
6489 27630 0.073
6490 6509 0.66
6490 10860 0.089
6490 10889 0.203
6491 30518 0.13
6491 30524 0.114
6492 23130 0.111
6492 23150 0.038
6493 23057 0.149
6493 23108 0.154
6494 32866 0.223
6494 32868 1.043
6495 6503 0.127
6496 13030 0.047
6496 27634 0.056
6496 27639 0.058
6497 11198 0.068
6497 11202 0.384
6498 6564 0.093
6498 11201 0.051
6498 11202 0.036
6499 28176 0.085
6499 30813 0.219
6499 30818 0.019
6500 6523 0.285
6500 7152 6.0
6500 26704 7.865
6501 6502 0.407
6501 6545 0.316
6502 6522 0.636
6502 23150 0.194
6503 27632 0.042
6503 30812 0.221
6504 30350 0.188
6504 30819 0.222
6505 6529 0.168
6505 32866 0.349
6505 32867 0.325
6506 6521 0.182
6506 28500 0.098
6507 27107 0.136
6507 27108 0.036
6507 28461 0.065
6508 8862 0.193
6508 27105 0.556
6508 27107 0.498
6509 6563 0.498
6510 14083 0.031
6510 28177 0.072
6510 30820 0.098
6510 30821 0.14
6511 8775 0.265
6511 32325 0.411
6511 32344 0.329
6512 23048 0.2
6512 23049 0.07
6512 32340 0.067
6513 6516 0.099
6513 6533 0.068
6513 32930 0.048
6514 8776 0.164
6514 11305 0.287
6514 30822 0.062
6515 6547 0.035
6515 8777 0.046
6515 13030 0.137
6516 32943 0.332
6516 32944 0.063
6517 11234 0.049
6517 11235 0.055
6517 29206 0.434
6518 6549 0.328
6518 11211 0.106
6518 11232 0.039
6519 6534 0.104
6519 6557 0.064
6519 32943 0.583
6520 6521 0.191
6520 6640 0.368
6520 32942 0.649
6521 8779 0.035
6521 32930 0.042
6521 32931 0.09
6522 6561 0.078
6522 23108 0.06
6522 23109 0.263
6523 6536 0.366
6523 6537 0.318
6523 6559 0.523
6524 6525 0.04
6524 6533 0.223
6524 28502 0.1
6525 14084 0.041
6525 28175 0.156
6526 6535 0.047
6526 6540 0.233
6526 8779 0.057
6527 6528 0.177
6527 6530 0.141
6528 10826 0.059
6528 10828 0.208
6529 6543 0.399
6529 10346 0.257
6529 10827 0.197
6529 32868 0.396
6530 6532 0.239
6531 6542 0.374
6531 6567 0.106
6531 28500 0.181
6532 10819 0.084
6532 10820 0.056
6532 10867 0.152
6533 6539 0.044
6534 8779 0.249
6534 32945 0.179
6535 6539 0.06
6535 6540 0.208
6536 6537 0.49
6536 6632 8.159
6537 7103 4.425
6538 8725 0.228
6538 23037 0.104
6538 23038 0.153
6539 6556 0.252
6539 28175 0.052
6539 30823 0.052
6541 6542 0.117
6541 6546 0.193
6541 30824 0.132
6542 6565 0.181
6542 6570 0.11
6543 6582 1.271
6544 6588 0.252
6544 10818 0.041
6544 10868 0.341
6544 10870 0.196
6545 6558 0.235
6545 23194 0.135
6546 6548 0.067
6547 11293 0.096
6547 28517 0.173
6548 28517 0.121
6549 11220 0.06
6549 11221 0.173
6550 6592 0.403
6550 11206 0.166
6550 11220 0.043
6551 6554 0.124
6551 23212 0.057
6552 6558 0.167
6552 23149 0.044
6552 23212 0.052
6553 6575 0.192
6553 6583 0.175
6553 30517 0.182
6553 30823 0.053
6554 6599 0.355
6555 7839 2.297
6555 20916 0.382
6555 20918 1.592
6556 6557 0.069
6556 6574 0.093
6556 6602 0.175
6557 6569 0.203
6558 23193 0.093
6559 6560 0.315
6559 6598 0.37
6560 6598 0.494
6560 6647 8.417
6561 23059 0.095
6561 23118 0.722
6562 10815 0.101
6562 10816 0.084
6562 10859 0.145
6562 10861 0.056
6563 6650 0.386
6563 6673 0.734
6563 11104 0.057
6564 11104 0.169
6564 11217 0.142
6565 6585 0.182
6566 23103 0.315
6566 23191 0.063
6566 23193 0.068
6566 23194 0.044
6567 6602 0.194
6568 6569 0.096
6568 6602 0.016
6568 6639 0.582
6568 14086 0.049
6569 6578 0.359
6569 28501 0.094
6570 6578 0.095
6570 14088 0.141
6571 6609 0.194
6571 29208 0.161
6571 30819 0.237
6572 11281 0.092
6572 30826 0.17
6572 30827 0.125
6572 30828 0.096
6573 10339 0.085
6573 10340 0.039
6573 10348 0.095
6574 6575 0.097
6574 6595 0.366
6574 29620 0.041
6575 6579 0.359
6576 23098 0.035
6576 23099 0.174
6577 23100 0.036
6577 23101 0.031
6577 23102 0.062
6578 6596 0.097
6578 30829 0.139
6579 6602 0.26
6579 6618 0.194
6580 6615 0.181
6580 27114 0.07
6580 27115 0.078
6581 6616 0.174
6581 27106 0.167
6582 6845 0.361
6582 7862 3.147
6583 27738 0.046
6584 6624 0.094
6584 30830 0.071
6585 30830 0.039
6585 30831 0.182
6586 6610 0.203
6586 11292 0.125
6586 11296 0.065
6586 30831 0.097
6587 6619 0.409
6587 10822 0.342
6587 10824 0.213
6587 10825 0.174
6588 6641 0.248
6589 9448 0.213
6589 9449 0.157
6590 23095 0.17
6590 23096 0.07
6590 23109 0.041
6590 29209 0.372
6591 23106 0.05
6591 23107 0.172
6592 6593 0.11
6593 6642 0.325
6593 11217 0.324
6594 6595 0.085
6594 14086 0.125
6594 14087 0.042
6596 6636 0.15
6596 11297 0.065
6596 14087 0.133
6597 23061 0.167
6597 32329 0.253
6597 32332 0.088
6598 7122 4.692
6599 25348 1.721
6600 6637 0.255
6600 16013 0.217
6600 16016 0.074
6601 15764 0.048
6601 16016 0.196
6601 27109 0.185
6603 23061 0.112
6603 32338 0.045
6604 6622 0.128
6604 23046 0.083
6604 23051 0.033
6605 6613 0.101
6605 27115 0.111
6606 11224 0.285
6606 11236 0.128
6606 11245 0.021
6606 11260 0.216
6607 6642 0.47
6607 11222 0.04
6607 11228 0.06
6607 11231 0.155
6608 26684 0.277
6608 26697 0.884
6609 6628 0.119
6610 8728 0.338
6610 30826 0.108
6610 30832 0.172
6611 11294 0.046
6611 11295 0.108
6611 11296 0.051
6612 23069 0.022
6612 32329 0.05
6612 32331 0.089
6613 23035 0.185
6614 23035 0.078
6614 27109 0.04
6614 27110 0.062
6614 27111 0.091
6615 6616 0.191
6615 6656 0.174
6616 6654 0.181
6617 15702 0.383
6617 15703 0.12
6617 15704 0.134
6617 29210 0.204
6618 6687 0.261
6618 32945 0.436
6619 10829 0.154
6619 10830 0.224
6620 11237 0.047
6620 11244 0.05
6620 11245 0.071
6620 11256 0.094
6621 6627 0.214
6621 6721 0.598
6621 8780 0.263
6621 23056 0.029
6622 23038 0.089
6622 23039 0.041
6623 23037 0.056
6623 23056 0.358
6623 29211 0.234
6624 6625 0.097
6624 28241 0.182
6625 6658 0.094
6625 11299 0.153
6626 8228 0.427
6626 8229 0.309
6626 8295 0.5
6627 23030 0.156
6628 6629 0.054
6628 6653 0.156
6628 11291 0.054
6629 6630 0.095
6629 30389 0.203
6630 6652 0.05
6630 11261 0.08
6630 11266 0.149
6631 6632 0.233
6631 6633 0.234
6632 6633 0.112
6633 26698 0.255
6634 6667 0.426
6634 26698 0.195
6634 26702 0.127
6635 27732 0.248
6635 27733 0.261
6636 6660 0.428
6636 27732 0.051
6636 28595 0.158
6637 15706 0.144
6637 15707 0.309
6637 15724 0.219
6638 6683 0.388
6638 15704 0.267
6638 15706 0.156
6639 6640 0.459
6639 8897 0.025
6640 6699 0.568
6641 10821 0.04
6641 10822 0.125
6641 10857 0.092
6642 6673 0.064
6642 6674 0.107
6643 6706 0.48
6643 11227 0.042
6643 11228 0.041
6643 11229 0.022
6644 6691 0.076
6644 28595 0.067
6645 6646 0.184
6645 6667 0.025
6645 26697 0.283
6646 6647 0.205
6647 6667 0.101
6648 10345 0.124
6648 10350 0.181
6649 15723 0.052
6649 15724 0.113
6649 31643 0.082
6650 6678 0.294
6650 11092 0.036
6651 6729 0.374
6651 10864 0.153
6651 11094 0.104
6652 6653 0.136
6652 11291 0.03
6653 6670 0.207
6654 6682 0.204
6654 23033 0.236
6654 23036 0.05
6655 23032 0.042
6655 23033 0.032
6655 27105 0.337
6656 6681 0.171
6656 23034 0.133
6656 23036 0.145
6657 23034 0.072
6657 26129 0.135
6658 30833 0.052
6658 30834 0.088
6659 6669 0.179
6659 8781 0.068
6659 11300 0.144
6659 28557 0.089
6660 6684 0.083
6660 30833 0.071
6661 10821 0.422
6661 10858 0.092
6661 10871 0.123
6662 10831 0.032
6662 10846 0.313
6662 10857 0.404
6663 23031 0.084
6663 23032 0.072
6663 29041 0.265
6664 25075 0.659
6664 25178 1.404
6665 6666 0.441
6665 6718 0.546
6666 6671 0.087
6666 23031 0.069
6668 6670 0.066
6668 30835 0.074
6669 8728 0.163
6669 28243 0.092
6669 28561 0.188
6670 8728 0.259
6670 11281 0.136
6671 6672 0.457
6671 23030 0.343
6672 6784 0.399
6673 28907 0.039
6674 6688 0.084
6674 6750 0.252
6674 11223 0.244
6674 28907 0.06
6675 23024 0.025
6675 26127 0.049
6675 27111 0.027
6675 27112 0.065
6676 6679 0.036
6676 6698 0.112
6676 8907 0.069
6676 28597 0.059
6677 6681 0.199
6677 23023 0.393
6677 26126 0.112
6678 11100 0.198
6678 11101 0.197
6679 6694 0.377
6679 6697 0.067
6679 6698 0.081
6679 8906 0.095
6680 6806 0.412
6680 10830 0.12
6681 6682 0.196
6682 6717 0.18
6683 6732 0.064
6683 15723 0.29
6684 6695 0.115
6684 8352 0.129
6684 28596 0.167
6685 6687 0.104
6685 28533 0.091
6685 28597 0.331
6686 6695 0.154
6686 6712 0.111
6686 27588 0.142
6686 28178 0.078
6686 28560 0.026
6687 6696 0.332
6688 11100 0.243
6689 28529 0.08
6689 29051 0.176
6689 29717 0.05
6689 30082 0.023
6690 6709 0.181
6690 28154 0.078
6690 30671 0.336
6691 28164 0.036
6691 29216 0.113
6691 30083 0.036
6692 6736 0.03
6692 8352 0.096
6692 29217 0.041
6693 6694 0.23
6693 6707 0.25
6693 8897 0.056
6694 6772 1.118
6695 6712 0.104
6696 30084 0.035
6696 30086 0.046
6696 30087 0.022
6697 29221 0.04
6697 30088 0.015
6698 29222 0.065
6698 30088 0.05
6699 29224 0.045
6699 30089 0.031
6699 32946 0.014
6700 29213 0.044
6700 29227 0.031
6700 30090 0.064
6700 30092 0.048
6701 6702 0.197
6701 6742 0.125
6701 23041 0.045
6702 6771 0.23
6702 32337 0.167
6703 30836 0.144
6703 30837 0.06
6704 27543 0.049
6704 30663 0.06
6704 30836 0.157
6705 30095 0.025
6705 30096 0.039
6705 30097 0.034
6706 6812 0.339
6706 11110 0.044
6706 11226 0.051
6707 28521 0.052
6707 30098 0.055
6707 30099 0.063
6708 6709 0.238
6708 6725 0.054
6708 6727 0.09
6708 30837 0.165
6709 29230 0.032
6709 30100 0.019
6710 23022 0.21
6710 23024 0.166
6711 28521 0.037
6711 29233 0.028
6711 30101 0.032
6711 30103 0.034
6712 27587 0.084
6713 27575 0.038
6713 29234 0.058
6713 30104 0.028
6713 30105 0.054
6714 30091 0.028
6714 30100 0.028
6715 15711 0.149
6715 15712 0.279
6715 15726 0.079
6715 29012 0.038
6716 15711 0.127
6716 15714 0.057
6717 6718 0.482
6717 6735 0.16
6718 6912 0.231
6719 6721 0.228
6719 6742 0.393
6719 29211 0.279
6720 6721 0.152
6720 6724 0.702
6721 6827 0.335
6722 29221 0.038
6722 29237 0.046
6722 29879 0.022
6722 30106 0.04
6723 29228 0.028
6723 29239 0.046
6723 29913 0.044
6723 30107 0.028
6724 6734 0.23
6725 6727 0.099
6725 6737 0.101
6726 29220 0.046
6726 29240 0.032
6726 30110 0.059
6726 30111 0.016
6727 6728 0.157
6728 6762 0.275
6728 28533 1.006
6729 10878 0.171
6729 11097 0.172
6729 11129 0.223
6730 25349 0.174
6730 28255 0.139
6731 29215 0.03
6731 29241 0.066
6731 29242 0.044
6731 29908 0.048
6732 6765 0.167
6732 29243 0.069
6733 29237 0.048
6733 29244 0.074
6733 30114 0.038
6733 30116 0.017
6734 6735 0.11
6734 29041 0.108
6735 6785 0.218
6736 6748 0.035
6736 30323 0.107
6737 6738 0.034
6737 6747 0.22
6737 6756 0.127
6738 27540 0.017
6738 29246 0.034
6739 27541 0.04
6739 29230 0.033
6739 29247 0.034
6739 29248 0.02
6740 6741 0.117
6740 27586 0.049
6740 27587 0.018
6741 27588 0.073
6741 29249 0.075
6741 30991 0.043
6742 6771 0.215
6743 23090 0.202
6743 23094 0.124
6744 23088 0.02
6744 23089 0.031
6744 23090 0.101
6745 29227 0.032
6745 29250 0.033
6745 30118 0.018
6745 30121 0.048
6746 6801 0.138
6746 16020 0.115
6746 16021 0.223
6747 6757 0.178
6747 6762 0.389
6748 6764 0.065
6748 27731 0.03
6748 29251 0.049
6749 6782 0.034
6749 11101 0.145
6749 32543 0.111
6750 6811 0.238
6750 11107 0.054
6750 11108 0.055
6751 27502 0.04
6751 29240 0.031
6751 29803 0.041
6751 30125 0.017
6752 25120 0.036
6752 25121 0.047
6752 25122 0.172
6753 11102 0.19
6753 11103 0.068
6753 11119 0.141
6754 15725 0.055
6754 16011 0.064
6754 30324 0.058
6755 27499 0.048
6755 27593 0.035
6755 29233 0.034
6755 30128 0.032
6756 6757 0.025
6756 6773 0.307
6756 29253 0.044
6756 30129 0.045
6757 6768 0.063
6758 28153 0.031
6758 28541 0.051
6758 29246 0.036
6758 29966 0.094
6758 30130 0.062
6759 8731 0.329
6759 8785 0.141
6759 11262 0.145
6759 11265 0.128
6760 8863 0.127
6760 8864 0.082
6760 11278 0.086
6760 11279 0.044
6761 8729 0.187
6761 11239 0.072
6761 11264 0.036
6761 11265 0.042
6762 6926 1.223
6762 32954 0.664
6763 6808 0.162
6763 27509 0.069
6763 29242 0.052
6763 29996 0.02
6763 30131 0.042
6764 6803 0.154
6764 27509 0.077
6765 6766 0.148
6765 32310 0.193
6766 31642 0.194
6767 6786 0.077
6767 28542 0.015
6767 28543 0.017
6767 29247 0.037
6768 28509 0.043
6768 29963 0.047
6768 30129 0.041
6768 30130 0.059
6769 27575 0.021
6769 29254 0.034
6769 30132 0.028
6770 29255 0.031
6770 30134 0.033
6770 30136 0.028
6771 23042 0.073
6772 6773 0.062
6772 6796 1.203
6773 6787 0.157
6774 28545 0.016
6774 28546 0.017
6774 30137 0.021
6775 28160 0.035
6775 28163 0.067
6775 29255 0.03
6775 30138 0.065
6776 6793 0.221
6776 15722 0.051
6776 23022 0.02
6776 31642 0.105
6777 29059 0.036
6777 29256 0.036
6777 30139 0.029
6777 30140 0.024
6778 6803 0.076
6778 27589 0.105
6778 29258 0.058
6779 27570 0.033
6779 27593 0.035
6779 27594 0.024
6779 27595 0.027
6780 6855 0.536
6780 10214 0.034
6780 10215 0.156
6781 10218 0.32
6781 10225 0.108
6782 11099 0.093
6782 11126 0.238
6783 28149 0.039
6783 29263 0.045
6783 30425 0.017
6783 30426 0.018
6784 6785 0.138
6784 6935 0.439
6785 6798 0.199
6786 28540 0.02
6786 28548 0.04
6787 6796 0.987
6788 6796 1.11
6788 6809 0.121
6789 10813 0.052
6789 10845 0.085
6789 10848 0.155
6789 10882 0.166
6790 27573 0.036
6790 29254 0.038
6790 29264 0.029
6791 8784 0.192
6791 11241 0.059
6791 11249 0.137
6792 8788 0.43
6792 11247 0.03
6792 11248 0.027
6792 11249 0.028
6793 23019 0.159
6793 23023 0.028
6793 32311 0.176
6794 27574 0.086
6794 27594 0.039
6794 29265 0.058
6794 30142 0.057
6795 15731 0.11
6795 16008 0.038
6795 16021 0.037
6795 30325 0.112
6797 8731 0.175
6797 11240 0.066
6797 11241 0.036
6797 11250 0.074
6798 23018 0.031
6798 23019 0.287
6799 28148 0.068
6799 30143 0.061
6799 30427 0.018
6799 30428 0.017
6800 8863 0.319
6800 8865 0.084
6800 28179 0.046
6801 6824 0.085
6801 15729 0.171
6801 16010 0.059
6802 6861 0.089
6802 6872 0.235
6802 15730 0.054
6802 29266 0.064
6802 30326 0.087
6803 27510 0.021
6803 30838 0.044
6804 27493 0.028
6804 28553 0.075
6804 29267 0.065
6804 30145 0.042
6805 23063 0.072
6805 23080 0.26
6805 23084 0.075
6806 6845 0.208
6806 7841 0.441
6807 10879 0.074
6807 11129 0.111
6807 11131 0.095
6808 29270 0.077
6808 30146 0.03
6808 30839 0.039
6809 6976 0.548
6810 11263 0.125
6810 11277 0.032
6810 11280 0.076
6810 30840 0.037
6811 11111 0.134
6811 11118 0.063
6812 6892 0.079
6812 11112 0.034
6813 6863 0.182
6813 15729 0.054
6813 29243 0.259
6813 32309 0.121
6814 27558 0.021
6814 28548 0.04
6814 30147 0.041
6815 27558 0.016
6815 28170 0.025
6815 28172 0.047
6816 28163 0.089
6816 29273 0.042
6816 30149 0.06
6816 30150 0.059
6817 6819 0.026
6817 30151 0.028
6817 30152 0.046
6818 27556 0.026
6818 28250 0.069
6818 30153 0.017
6819 29955 0.013
6819 29963 0.071
6820 6869 0.181
6820 15719 0.226
6820 32309 0.103
6820 32310 0.049
6821 11113 0.089
6821 11116 0.084
6821 11118 0.174
6822 7856 0.152
6822 11105 0.094
6822 11106 0.08
6823 6842 0.095
6823 30540 0.048
6824 30327 0.081
6824 30841 0.048
6825 29262 0.064
6825 29272 0.046
6825 30155 0.029
6825 30157 0.023
6826 6857 0.08
6826 8865 0.059
6826 30842 0.134
6826 30843 0.135
6827 23054 0.159
6827 23055 0.061
6828 23045 0.037
6828 23052 0.245
6828 23071 0.03
6828 23073 0.06
6829 29278 0.044
6829 29895 0.039
6829 30158 0.027
6829 30159 0.072
6830 15720 0.044
6830 15721 0.059
6830 23021 0.169
6830 29038 0.115
6831 29279 0.056
6831 30160 0.031
6831 30161 0.046
6832 11303 0.097
6832 30842 0.033
6833 6834 0.046
6833 11301 0.05
6833 11302 0.105
6833 11303 0.071
6834 6848 0.152
6834 28516 0.087
6835 29278 0.055
6835 29280 0.032
6835 29898 0.038
6835 30162 0.032
6836 29285 0.061
6836 30163 0.033
6836 30164 0.033
6837 6838 0.077
6837 6853 0.06
6837 29064 0.068
6837 29286 0.073
6838 6847 0.048
6838 30992 0.021
6839 29269 0.057
6839 29286 0.084
6839 29287 0.035
6839 30166 0.045
6840 30167 0.032
6840 30170 0.032
6841 29055 0.024
6841 30172 0.045
6841 30173 0.023
6841 30175 0.022
6842 30326 0.081
6842 30329 0.057
6842 30844 0.043
6843 6844 0.424
6843 6855 0.46
6843 10349 0.034
6844 10351 0.209
6845 10356 0.635
6846 27580 0.054
6846 29273 0.044
6846 29293 0.034
6846 30176 0.044
6847 6853 0.074
6847 27591 0.061
6848 11287 0.258
6848 30845 0.049
6849 27534 0.02
6849 27557 0.057
6849 30177 0.024
6849 30178 0.053
6850 27742 0.027
6850 30172 0.034
6850 30182 0.017
6851 27584 0.058
6851 29275 0.047
6851 29292 0.122
6851 29296 0.034
6852 6863 0.222
6852 6875 0.054
6852 30328 0.107
6852 30841 0.051
6853 6896 0.173
6853 27592 0.023
6853 32547 0.023
6854 29081 0.033
6854 29291 0.071
6854 29659 0.049
6854 29703 0.02
6854 29705 0.034
6854 30183 0.046
6856 28524 0.018
6856 29295 0.046
6856 29300 0.054
6857 8867 0.065
6858 6971 0.394
6858 23020 0.085
6858 23021 0.054
6858 32311 0.064
6859 23052 0.224
6859 23053 0.126
6860 27578 0.048
6860 27592 0.133
6860 29287 0.032
6860 30184 0.031
6861 6871 0.048
6861 6879 0.103
6862 27566 0.022
6862 29279 0.059
6862 29301 0.035
6862 30185 0.027
6863 32308 0.118
6864 27576 0.044
6864 27577 0.047
6864 29293 0.03
6864 30186 0.076
6865 27583 0.039
6865 29296 0.033
6865 29303 0.078
6865 31392 0.153
6866 29045 0.043
6866 29046 0.036
6866 29304 0.026
6867 29305 0.034
6867 29763 0.058
6867 30187 0.051
6867 30290 0.049
6868 28555 0.022
6868 29981 0.035
6869 32308 0.106
6870 29280 0.035
6870 30190 0.033
6870 30191 0.037
6870 31392 0.013
6871 6872 0.133
6871 6873 0.198
6872 6888 0.115
6873 6875 0.249
6873 6898 0.051
6873 30329 0.053
6874 27504 0.043
6874 27505 0.058
6875 6890 0.316
6876 6886 0.048
6876 27568 0.093
6876 29301 0.034
6877 6913 0.425
6877 23020 0.154
6877 31384 0.1
6878 6897 0.069
6878 27579 0.016
6878 29934 0.094
6879 6893 0.026
6879 6918 0.127
6880 27537 0.021
6880 27539 0.043
6880 29307 0.034
6880 30330 0.038
6881 6905 0.04
6881 15993 0.039
6881 15994 0.042
6882 28271 0.037
6882 28526 0.018
6883 6884 0.051
6883 15972 0.069
6883 23029 0.046
6883 31383 0.099
6884 6936 0.564
6884 31384 0.058
6885 27506 0.03
6885 29305 0.034
6885 29311 0.03
6885 30193 0.025
6886 28174 0.132
6886 29310 0.039
6887 15971 0.115
6887 23028 0.101
6887 23029 0.165
6888 6889 0.451
6888 6905 0.077
6889 6890 0.49
6889 6891 0.27
6890 6951 0.287
6891 6967 2.45
6892 11123 0.083
6892 11124 0.077
6893 6895 0.415
6893 6937 0.189
6894 29081 0.033
6894 29312 0.034
6894 30195 0.033
6894 30196 0.038
6895 6914 1.193
6895 6927 0.499
6896 6897 0.034
6896 28513 0.121
6897 28514 0.02
6897 29940 0.029
6898 6904 0.026
6898 6921 0.462
6899 15950 0.052
6899 15961 0.039
6899 32320 0.091
6900 29314 0.029
6900 29315 0.084
6900 30036 0.061
6900 30198 0.02
6901 29316 0.047
6901 29317 0.04
6901 30199 0.038
6901 30200 0.029
6902 6946 0.022
6902 29320 0.059
6902 30201 0.095
6902 30846 0.027
6903 6920 0.852
6903 6962 1.041
6904 6915 0.06
6904 6916 0.356
6904 6928 0.261
6905 6927 0.134
6906 28908 0.025
6906 29314 0.029
6906 30203 0.035
6907 7856 0.205
6907 7861 0.253
6907 8408 0.213
6908 29312 0.031
6908 30204 0.027
6908 30205 0.044
6909 29311 0.031
6909 30206 0.032
6910 11251 0.193
6910 11252 0.024
6910 11253 0.123
6911 7002 0.239
6911 11121 0.075
6911 11252 0.121
6911 30848 0.089
6912 6913 0.361
6912 32869 0.473
6913 6951 0.608
6914 6971 0.296
6914 32869 0.271
6915 6917 0.225
6915 6924 0.133
6916 6919 0.146
6916 6923 0.254
6917 6918 0.069
6917 6937 0.045
6918 6919 0.119
6919 6954 0.143
6920 6922 0.152
6920 6943 0.151
6921 6922 0.906
6921 6923 0.159
6922 32870 0.305
6923 6934 0.422
6924 6925 0.241
6924 6929 0.041
6925 32870 0.424
6926 6927 0.489
6928 6958 0.505
6929 6938 0.075
6929 15978 0.312
6930 27484 0.129
6930 27485 0.058
6930 32547 0.255
6931 7004 0.326
6931 15970 0.188
6931 15972 0.077
6932 25350 0.177
6932 25351 0.032
6932 28256 0.176
6933 6934 0.284
6935 6936 0.422
6935 6944 0.787
6936 29612 0.173
6937 16017 0.116
6938 6978 0.129
6939 28174 0.03
6939 29324 0.043
6939 30207 0.074
6940 27508 0.032
6940 29321 0.047
6940 29326 0.061
6941 11254 0.042
6941 30680 0.129
6942 11267 0.1
6942 11268 0.047
6942 11269 0.15
6942 30850 0.09
6943 6944 0.273
6943 6981 0.305
6944 6983 0.335
6945 6952 0.132
6945 6963 0.089
6945 15721 0.257
6946 27482 0.095
6946 30851 0.106
6947 6977 0.367
6947 27598 0.086
6947 29326 0.038
6947 29664 0.045
6947 30208 0.118
6948 6987 0.163
6948 29320 0.121
6948 30209 0.044
6949 27490 0.052
6949 27491 0.086
6949 29327 0.088
6949 32549 0.087
6950 6961 0.261
6950 6986 0.073
6950 29316 0.042
6950 29328 0.074
6950 30210 0.053
6951 6952 0.226
6953 7032 0.452
6953 8409 0.35
6953 25070 0.103
6953 25074 0.366
6954 16017 0.063
6954 16018 0.08
6954 16019 0.038
6954 30478 0.228
6955 29330 0.044
6955 29331 0.159
6955 30211 0.034
6956 8868 0.086
6956 11285 0.186
6956 11286 0.057
6956 30854 0.038
6957 15997 0.035
6957 16007 0.148
6957 28277 0.113
6958 6999 0.447
6959 29332 0.102
6959 32549 0.104
6960 27488 0.029
6960 27489 0.031
6960 27532 0.054
6961 6967 0.226
6961 32954 0.549
6963 29613 0.046
6964 6990 0.344
6964 7854 0.02
6964 7861 0.358
6964 11115 0.054
6965 30849 0.081
6965 30857 0.048
6965 30869 0.226
6966 6975 1.287
6967 6968 0.354
6968 7848 0.401
6968 31399 0.035
6969 7005 0.365
6969 15978 0.426
6970 6984 0.177
6970 11283 0.04
6970 11290 0.016
6970 30859 0.123
6971 6983 0.062
6972 6980 0.087
6972 29612 0.448
6972 32870 0.081
6973 7022 0.62
6973 25098 0.284
6973 25126 0.046
6974 11270 0.035
6974 11271 0.036
6974 11272 0.031
6974 30858 0.091
6975 6976 0.215
6975 6977 0.568
6976 6986 0.242
6977 7049 0.039
6978 15982 0.317
6978 16018 0.431
6978 30486 0.369
6979 7010 0.089
6979 7885 0.267
6979 27491 0.087
6979 29334 0.087
6980 6981 0.13
6980 6994 0.217
6981 6989 0.037
6982 25097 0.28
6982 25098 0.031
6983 7008 0.127
6984 7016 0.163
6984 11288 0.022
6984 30860 0.115
6985 7011 0.019
6985 7885 0.025
6985 29337 0.102
6987 27518 0.048
6987 27519 0.022
6988 6989 0.044
6988 6994 0.032
6988 29613 0.054
6988 29614 0.031
6989 6994 0.056
6990 7002 0.371
6990 7853 0.022
6990 11125 0.121
6991 7071 0.065
6991 8355 0.085
6991 10892 0.093
6992 7001 0.088
6992 27486 0.028
6992 30608 0.109
6992 30861 0.079
6993 7016 0.147
6993 11290 0.146
6993 27511 0.127
6993 30862 0.081
6994 6999 0.048
6995 11271 0.213
6995 30856 0.049
6995 30865 0.062
6996 10355 0.063
6996 10356 0.123
6996 10359 0.213
6996 10360 0.326
6997 10354 0.15
6997 10355 0.058
6998 7014 0.172
6998 7023 0.084
6998 30853 0.131
6998 30866 0.039
6999 7005 0.153
6999 7009 0.059
7000 7885 0.077
7000 29335 0.059
7001 7003 0.093
7001 30867 0.045
7002 30869 0.253
7003 7012 0.093
7003 7020 0.102
7003 27483 0.089
7004 7064 0.31
7005 7043 0.158
7006 7053 0.912
7006 10617 0.061
7006 10854 0.393
7007 7008 0.203
7007 7009 0.035
7007 29614 0.054
7008 7042 0.183
7009 7041 0.165
7010 7018 0.086
7010 32548 0.046
7011 7024 0.089
7011 30871 0.063
7012 7019 0.083
7012 30866 0.076
7013 10358 0.029
7013 10359 0.251
7014 7018 0.175
7014 27520 0.023
7014 27521 0.021
7015 7851 0.022
7015 7857 0.177
7015 11273 0.065
7015 30870 0.192
7016 7047 0.141
7016 7843 0.156
7017 7022 0.223
7017 25130 0.195
7017 25131 0.11
7017 32871 1.286
7018 7039 0.084
7018 27492 0.07
7019 7020 0.15
7019 7023 0.115
7019 7034 0.086
7020 7028 0.107
7021 7843 0.144
7021 30861 0.091
7022 25128 0.054
7022 25129 0.164
7023 7040 0.085
7023 30872 0.039
7024 7038 0.083
7024 27492 0.151
7024 30873 0.041
7025 25051 0.487
7025 25064 1.103
7025 25071 0.051
7026 27521 0.063
7026 28578 0.067
7026 30872 0.133
7027 25080 0.415
7027 25082 0.408
7028 31395 0.017
7029 7037 0.142
7029 8905 0.536
7029 29336 0.081
7029 29337 0.045
7029 31398 0.146
7030 25321 0.108
7030 25328 0.144
7030 28254 0.266
7031 25354 0.079
7031 25355 0.034
7031 25357 0.034
7032 7085 1.693
7033 7046 0.01
7033 28562 0.086
7033 28565 0.114
7034 27522 0.066
7034 30874 0.104
7035 7222 2.5
7035 25087 0.235
7035 25088 0.067
7035 25090 0.055
7036 7097 2.456
7036 7224 6.147
7036 7256 2.554
7037 7038 0.264
7037 7057 0.199
7037 31398 0.009
7038 7039 0.22
7038 7884 0.02
7039 7850 0.009
7039 7888 0.13
7040 7050 0.172
7040 7056 0.104
7040 27522 0.05
7041 7042 0.149
7041 7043 0.135
7042 7064 0.573
7042 7074 0.235
7042 7881 0.221
7043 7065 0.099
7043 28580 0.284
7044 7045 0.125
7044 30462 0.041
7044 30486 0.056
7045 15979 0.197
7046 7047 0.152
7046 7843 0.087
7046 31395 0.223
7047 7846 0.011
7047 28564 0.043
7048 7847 0.114
7048 7860 0.018
7048 27511 0.103
7048 30875 0.068
7049 7057 0.277
7049 7849 0.513
7050 7051 0.175
7050 28578 0.016
7051 7850 0.071
7051 7886 0.061
7051 28165 0.068
7052 7060 0.214
7052 7847 0.014
7052 28002 0.025
7052 28003 0.197
7052 28563 0.045
7053 10621 0.229
7053 10897 0.649
7054 7055 0.256
7054 25095 0.174
7054 25096 0.09
7055 25100 0.215
7055 25101 0.052
7056 7066 0.175
7057 7069 0.08
7057 31390 0.04
7057 31391 0.046
7058 10219 0.327
7058 10225 0.298
7058 29338 0.176
7059 27487 0.07
7059 27523 0.038
7059 27524 0.053
7060 7068 0.171
7061 7860 0.09
7061 7889 0.81
7061 28002 0.168
7061 28003 0.012
7061 31188 0.385
7062 7072 0.105
7062 7884 0.061
7062 7886 0.159
7062 27526 0.049
7063 7075 0.069
7063 8925 0.106
7063 27527 0.138
7064 15976 0.102
7065 7074 0.158
7065 28580 0.161
7065 28585 0.12
7066 7081 0.096
7066 7909 0.119
7066 8929 0.059
7067 7072 0.22
7067 28165 0.038
7067 28166 0.063
7068 7911 0.335
7068 27524 0.047
7068 27525 0.112
7068 28566 0.17
7069 8924 0.051
7069 8925 0.088
7070 7092 0.113
7070 15988 0.088
7071 10740 0.028
7071 10897 0.201
7073 10542 0.086
7073 10614 0.056
7074 7076 0.25
7074 7881 0.021
7076 7110 0.225
7076 7881 0.261
7076 15942 0.244
7077 7079 0.083
7077 25153 0.075
7077 25154 0.068
7078 7149 0.42
7078 25158 0.062
7078 25159 0.066
7078 25160 0.044
7079 7128 0.439
7079 25103 0.337
7080 7093 0.157
7080 7171 0.701
7080 28166 0.05
7081 7102 0.119
7081 7911 0.116
7081 8928 0.027
7082 7093 0.046
7082 7117 0.259
7082 8927 0.036
7082 28166 0.213
7082 28574 0.068
7083 7084 0.385
7083 27497 0.078
7083 28567 0.143
7084 7844 0.2
7084 28003 0.131
7084 29339 0.189
7085 7165 0.308
7085 25064 0.284
7086 25162 0.054
7086 25163 0.225
7087 10219 0.176
7087 10220 0.039
7087 29340 0.315
7088 7089 12.615
7088 7112 1.189
7088 7137 1.217
7089 7224 2.201
7089 7343 1.705
7090 10357 0.061
7090 10536 0.37
7090 10539 0.44
7090 29341 0.108
7091 7107 0.169
7091 10360 0.462
7091 10539 0.262
7092 15940 0.207
7092 30487 0.179
7093 7118 0.24
7093 29342 0.054
7094 7099 0.155
7094 7106 0.223
7094 27497 0.028
7095 7882 0.119
7095 15937 0.075
7096 7880 0.047
7096 15938 0.033
7096 28585 0.176
7097 7256 2.211
7098 28576 0.031
7098 28577 0.094
7098 29342 0.022
7099 27498 0.035
7100 25166 0.165
7100 25175 0.023
7100 32871 0.161
7101 20623 0.149
7101 20625 0.046
7101 29343 0.454
7102 7910 0.147
7102 7916 0.129
7103 7113 0.561
7103 7138 0.928
7104 7127 0.205
7104 29344 0.12
7104 29345 0.188
7105 7194 0.603
7105 10205 0.136
7105 10221 0.36
7106 7129 0.195
7107 7108 0.227
7107 7151 0.354
7108 7109 1.082
7109 10220 0.192
7109 10311 0.107
7110 7111 0.261
7110 7123 0.126
7111 7880 0.039
7111 28583 0.175
7111 28586 0.061
7112 7113 0.388
7112 7181 1.371
7113 7166 0.497
7114 7121 0.119
7114 7126 0.081
7114 28575 0.151
7115 8914 0.167
7115 8915 0.311
7115 8926 0.033
7116 8915 0.065
7116 8916 0.055
7117 7118 0.067
7117 8898 0.033
7117 28573 0.097
7118 7119 0.09
7118 8898 0.033
7118 28569 0.119
7119 7121 0.136
7119 7140 0.254
7119 28577 0.099
7120 7139 0.319
7120 28570 0.076
7120 28571 0.043
7120 31397 0.159
7121 7140 0.159
7121 29346 0.204
7122 7153 0.476
7122 7157 0.411
7123 7135 0.186
7123 15949 0.068
7123 15969 0.126
7124 7133 0.658
7124 31194 0.323
7124 31252 0.176
7125 7172 0.498
7125 25169 0.088
7125 32257 0.078
7126 8922 0.048
7127 8919 0.093
7127 8920 0.043
7127 8921 0.046
7129 8941 0.09
7129 28568 0.027
7130 7146 0.202
7130 8940 0.127
7130 28568 0.022
7131 8917 0.074
7131 8918 0.029
7132 7162 0.092
7132 8920 0.201
7132 27562 0.029
7132 29346 0.158
7133 10736 0.071
7133 10900 0.046
7134 7142 0.201
7134 7154 0.222
7134 29339 0.278
7135 15908 0.245
7135 28584 0.087
7135 29026 0.167
7136 15844 0.057
7136 15927 0.09
7136 30487 0.345
7137 7138 0.349
7137 7166 0.441
7138 7503 5.365
7139 7160 0.171
7139 7910 0.231
7140 7141 0.103
7140 7159 0.284
7141 7145 0.141
7141 28569 0.058
7142 7143 0.122
7143 7148 0.02
7143 27498 0.224
7144 7883 0.109
7144 15932 0.25
7144 28582 0.283
7144 29026 0.224
7145 7158 0.137
7145 7171 0.02
7145 28570 0.071
7146 7161 0.133
7147 7148 0.288
7147 8942 0.05
7147 8943 0.112
7148 7163 0.129
7149 25110 0.423
7149 25167 0.263
7150 10519 0.095
7150 10520 0.108
7150 10535 0.115
7150 10536 0.054
7151 10523 0.189
7151 10538 0.101
7152 7153 0.356
7152 7156 0.405
7153 7185 0.258
7154 7155 0.448
7155 7205 0.096
7155 20626 0.364
7156 7157 0.521
7156 7180 0.154
7157 7527 5.862
7158 7159 0.258
7159 7162 0.166
7160 7161 0.021
7160 7170 0.299
7161 32545 0.152
7162 27561 0.012
7163 20629 0.123
7164 10546 0.033
7164 10547 0.136
7164 10613 0.073
7165 7186 0.168
7165 25073 0.057
7166 7182 0.377
7167 7169 0.092
7167 8943 0.047
7167 27512 0.028
7168 7199 0.226
7168 27515 0.228
7168 32545 0.135
7169 31394 0.292
7170 7174 0.056
7170 7177 0.201
7170 28571 0.056
7171 8898 0.295
7171 8903 0.926
7172 27627 0.079
7172 27628 0.097
7173 10547 0.178
7173 10549 0.061
7174 8908 0.064
7174 28570 0.108
7175 7208 0.729
7175 15902 0.06
7175 15903 0.127
7176 7190 0.072
7176 15906 0.039
7176 15907 0.076
7177 7210 0.157
7177 8939 0.055
7177 28572 0.038
7178 10522 0.038
7178 10523 0.116
7178 10524 0.127
7179 10447 0.148
7179 10522 0.267
7180 7181 0.031
7180 7182 0.093
7181 7185 0.12
7182 7195 0.171
7183 10312 0.06
7183 10313 0.039
7183 10316 0.093
7183 10446 0.286
7184 8357 0.066
7184 8360 0.276
7184 10593 0.131
7185 7195 0.133
7186 8871 0.444
7186 24777 0.956
7187 10313 0.106
7187 10314 0.04
7188 10224 0.281
7188 10315 0.049
7188 10318 0.348
7188 32540 0.037
7189 7196 0.273
7189 7201 0.166
7189 20629 0.228
7190 7191 0.166
7190 7200 0.122
7191 15896 0.061
7191 15947 0.156
7192 10733 0.063
7192 10734 0.082
7192 10735 0.194
7193 7353 2.755
7193 8871 1.624
7194 7211 0.234
7194 10222 0.138
7195 26711 9.55
7196 7197 0.13
7196 7219 0.359
7197 7198 0.211
7197 31394 0.087
7198 7204 0.237
7198 27514 0.051
7199 7203 0.142
7199 27514 0.224
7200 15899 0.056
7200 29348 0.313
7201 7218 0.288
7201 27516 0.07
7202 10731 0.125
7202 10734 0.111
7203 7210 0.253
7204 10997 0.037
7205 7206 0.035
7205 10980 0.21
7205 29343 0.636
7206 7228 0.412
7206 27516 0.05
7207 15835 0.166
7207 15841 0.073
7208 7234 0.052
7208 15836 0.073
7209 10552 0.081
7209 10553 0.129
7209 10600 0.17
7209 31205 0.195
7210 26152 0.084
7211 10204 0.078
7211 10210 0.33
7212 10683 0.111
7212 10732 0.042
7212 29349 0.213
7213 8362 0.145
7213 10569 0.052
7213 10570 0.246
7213 10603 0.205
7214 24199 0.202
7214 25173 0.194
7214 25174 0.074
7214 27628 0.154
7215 7294 1.671
7215 24202 0.235
7215 25172 0.214
7215 25173 0.072
7216 7227 0.462
7216 10604 0.081
7216 10605 0.038
7216 10606 0.224
7217 7223 0.26
7217 7227 0.242
7217 29349 0.127
7217 31208 0.592
7218 7219 0.079
7219 7221 0.181
7220 26152 0.149
7220 26153 0.055
7220 26154 0.072
7221 7228 0.255
7221 7240 0.456
7221 10998 0.16
7222 7289 1.751
7223 7239 0.189
7223 10682 0.02
7224 19330 0.11
7224 19331 0.793
7225 7243 0.247
7225 26135 0.027
7225 26136 0.027
7226 8935 0.052
7226 26134 0.386
7226 26147 0.19
7227 7238 0.027
7228 7233 0.261
7229 10181 0.06
7229 10182 0.037
7229 10202 0.242
7230 7231 0.143
7230 7234 0.088
7231 7232 0.262
7232 7236 0.118
7232 15886 0.249
7232 29348 0.25
7233 10993 0.032
7233 10994 0.033
7233 10995 0.062
7234 15816 0.11
7235 7244 0.236
7235 7908 0.023
7235 20632 0.249
7235 28145 0.116
7236 7237 0.31
7237 7245 0.251
7237 15901 0.092
7237 15924 0.066
7238 7239 0.389
7238 7250 0.14
7239 10680 0.098
7240 11002 0.113
7240 20630 0.087
7241 7242 0.273
7241 20630 0.055
7241 28147 0.179
7242 7263 0.329
7242 7908 0.384
7243 7244 0.235
7244 7255 0.369
7245 7248 0.199
7245 15909 0.177
7245 15925 0.15
7246 10389 0.3
7246 10548 0.03
7247 10389 0.148
7247 10550 0.051
7247 10554 0.051
7247 10562 0.385
7248 7253 1.716
7248 7277 0.442
7249 7264 0.372
7249 7274 0.284
7249 10556 0.077
7249 10570 0.209
7250 10666 0.062
7250 10673 0.06
7250 10681 0.264
7251 7264 0.121
7251 7268 0.143
7251 10606 0.207
7251 10668 0.064
7251 10669 0.107
7252 7351 1.206
7252 10981 0.27
7252 10982 0.061
7252 10994 0.195
7253 25029 0.123
7253 25031 0.023
7254 7279 0.333
7254 24200 0.104
7254 24207 0.232
7255 7257 0.167
7256 7497 5.037
7257 7295 0.41
7257 11091 0.13
7257 26130 0.206
7258 15873 0.026
7258 15892 0.146
7258 15925 0.242
7259 15887 0.038
7259 15893 0.05
7259 15923 0.073
7260 7288 0.112
7260 15889 0.13
7260 31972 0.137
7261 7262 0.514
7261 10982 0.081
7261 10983 0.068
7262 7299 0.537
7262 29350 0.239
7263 8700 0.336
7263 11088 0.428
7264 7268 0.113
7265 24230 0.113
7265 24236 0.306
7266 24229 0.09
7266 24230 0.157
7267 10670 0.101
7267 10671 0.031
7267 10674 0.03
7267 10679 0.205
7268 10591 0.05
7268 10592 0.037
7269 7286 0.312
7269 10728 0.043
7269 10729 0.318
7270 10460 0.132
7270 10462 0.069
7270 10463 0.028
7270 10464 0.037
7271 10677 0.047
7271 10691 0.048
7271 10717 0.061
7271 10738 0.353
7272 20631 0.024
7272 20632 0.202
7272 26132 0.046
7273 7295 0.266
7273 11081 0.749
7273 26130 0.21
7273 26131 0.146
7274 10567 0.189
7274 10581 0.195
7275 7285 0.475
7275 10910 0.048
7275 29350 0.227
7276 10996 0.155
7276 10999 0.06
7276 11088 0.158
7277 15856 0.145
7277 15862 0.208
7277 15877 0.056
7278 24206 0.079
7278 24207 0.065
7278 24208 0.06
7279 7281 0.236
7279 24206 0.064
7279 24301 0.079
7280 15798 0.032
7280 15799 0.124
7280 15837 0.15
7281 24204 0.141
7281 24205 0.202
7282 25027 0.072
7282 25028 0.148
7282 25037 0.266
7283 10718 0.286
7283 10720 0.04
7283 10721 0.028
7283 10723 0.129
7284 8333 0.048
7284 10911 0.084
7284 10912 0.164
7285 7286 0.272
7285 10912 0.089
7286 7341 0.752
7286 10722 0.039
7287 24981 0.082
7287 24982 0.131
7287 28807 0.13
7288 7292 0.096
7288 15831 0.049
7289 7290 1.783
7289 7294 0.497
7290 7519 4.407
7291 15792 0.049
7291 15825 0.268
7291 15833 0.061
7291 15834 0.051
7292 15791 0.032
7292 15817 0.016
7293 10686 0.051
7293 10687 0.047
7293 10688 0.034
7293 10689 0.046
7294 29477 0.242
7295 11076 0.084
7296 24218 0.224
7296 24219 0.079
7297 7307 0.196
7297 10580 0.183
7297 10592 0.355
7298 7302 0.199
7298 25030 0.262
7299 8330 0.245
7299 8333 0.414
7299 10979 0.277
7300 10985 0.042
7300 28142 0.048
7300 31404 0.094
7301 7302 0.13
7301 24983 0.063
7301 25024 0.228
7303 11078 0.025
7303 29351 0.34
7304 10989 0.032
7304 11000 0.184
7305 7310 0.073
7305 10989 0.066
7305 28140 0.154
7306 24776 0.21
7306 24777 1.102
7307 10576 0.222
7307 10583 0.133
7307 10589 0.034
7308 7327 0.469
7308 10576 0.035
7308 10582 0.066
7309 15783 0.079
7309 15789 0.13
7310 7316 0.088
7310 29351 0.11
7311 11072 0.213
7311 11073 0.067
7311 11074 0.041
7312 7340 0.355
7312 10623 0.261
7312 10676 0.17
7312 10684 0.303
7313 15853 0.035
7313 15854 0.227
7314 11081 0.067
7314 11084 0.114
7315 10684 0.275
7315 10692 0.024
7315 10693 0.029
7315 10694 0.024
7316 7322 0.046
7316 28141 0.194
7317 10990 0.025
7317 11089 0.037
7317 28144 0.054
7318 10914 0.086
7318 10919 0.214
7318 10979 0.15
7318 10992 0.249
7319 10991 0.034
7319 10992 0.064
7319 28193 0.352
7319 31403 0.187
7320 24232 0.064
7320 24233 0.109
7320 32657 0.143
7321 24234 0.068
7321 24979 0.124
7321 24980 0.165
7321 25023 0.178
7321 25026 0.049
7322 10988 0.201
7323 7334 0.266
7323 24246 0.087
7323 24247 0.166
7324 15880 0.034
7324 32872 0.059
7325 7326 0.142
7325 10380 0.085
7325 10562 0.659
7326 7327 0.208
7326 10398 0.035
7326 10557 0.022
7327 7365 0.445
7327 10573 0.222
7328 7329 0.248
7328 26156 0.038
7328 26157 0.028
7329 7331 0.17
7330 24231 0.197
7330 32655 0.09
7331 26156 0.111
7331 27517 0.102
7332 7340 0.571
7332 10573 0.222
7332 10584 0.161
7332 10586 0.077
7333 10906 0.054
7333 10907 0.092
7333 10908 0.069
7333 10909 0.071
7333 10975 0.563
7334 24231 0.104
7334 24255 0.077
7335 7336 0.343
7335 7383 0.953
7335 24977 0.113
7335 24980 0.149
7336 25024 0.225
7336 29003 0.674
7337 10704 0.048
7337 10705 0.029
7337 10706 0.077
7337 10707 0.289
7338 10457 0.064
7338 10461 0.072
7338 10462 0.066
7339 7377 0.444
7339 10450 0.057
7339 28912 0.016
7340 7375 0.444
7340 29352 0.247
7341 7356 0.13
7341 10707 0.061
7341 10715 0.121
7342 24219 0.242
7342 24220 0.331
7343 7344 0.343
7343 7369 0.313
7344 7370 0.378
7344 7371 0.243
7344 19337 0.41
7345 11072 0.22
7345 11145 0.041
7346 7347 0.071
7346 11146 0.088
7347 11055 0.158
7348 10971 0.053
7348 10972 0.063
7348 10973 0.029
7349 10362 0.052
7349 10363 0.038
7349 10366 0.064
7350 10695 0.026
7350 10697 0.023
7350 10698 0.032
7350 29352 0.211
7351 10938 0.103
7351 10987 0.189
7351 28192 0.13
7352 10974 0.044
7352 10987 0.135
7352 10988 0.376
7353 24715 2.434
7353 32949 2.768
7354 24488 0.032
7354 24489 0.085
7355 10915 0.04
7355 10916 0.114
7355 10917 0.12
7355 29353 0.169
7356 7357 0.156
7356 10710 0.046
7356 10711 0.175
7357 10702 0.03
7357 10703 0.061
7358 7372 0.182
7358 10708 0.044
7358 10908 0.209
7359 15767 0.079
7359 15768 0.209
7360 10587 0.042
7360 10588 0.031
7360 10630 0.221
7361 10938 0.16
7361 10939 0.077
7361 28193 0.33
7361 29353 0.265
7362 7363 0.219
7362 24978 0.136
7362 24995 0.053
7363 7374 0.204
7364 7366 0.297
7364 10380 0.418
7364 10561 0.034
7365 10396 0.112
7365 10577 0.106
7366 10377 0.03
7366 10378 0.03
7367 24962 0.028
7367 24963 0.049
7367 24965 0.035
7368 24969 0.028
7368 24970 0.332
7368 28298 0.071
7369 7370 0.371
7369 7371 0.218
7370 7395 0.075
7371 7395 0.248
7371 19338 0.947
7372 10714 0.047
7373 7374 0.064
7373 24975 0.028
7373 25000 0.044
7374 24997 0.268
7375 10628 0.262
7375 10700 0.083
7376 24257 0.098
7376 24277 0.179
7377 10372 0.035
7377 10376 0.021
7378 24772 0.345
7378 24776 0.583
7379 10961 0.064
7379 10962 0.063
7379 10974 0.088
7380 7381 0.131
7380 24278 0.34
7380 24926 0.028
7380 24927 0.043
7381 7390 0.218
7381 24928 0.078
7382 10917 0.201
7382 10918 0.031
7383 7436 0.783
7384 10645 0.024
7384 10646 0.037
7384 10647 0.04
7384 10700 0.331
7385 7400 0.237
7385 10939 0.202
7386 10942 0.089
7386 10962 0.078
7387 24276 0.052
7387 24277 0.028
7387 24278 0.195
7388 24973 0.046
7388 24974 0.077
7388 24984 0.1
7388 25008 0.678
7389 24964 0.056
7389 24974 0.101
7389 25001 0.205
7390 7413 0.202
7391 7392 0.229
7391 10632 0.159
7391 10652 0.236
7391 10716 0.032
7392 7396 0.092
7392 10714 0.213
7393 32949 1.829
7393 32950 1.687
7394 10371 0.07
7394 10372 0.216
7395 7548 5.871
7396 7428 0.744
7396 10657 0.06
7397 7405 0.144
7397 24307 0.103
7397 32873 0.065
7398 11049 0.05
7398 11063 0.116
7398 11064 0.328
7399 10967 0.724
7399 11064 0.049
7400 7401 0.424
7400 7403 0.617
7400 10943 0.185
7401 10924 0.055
7401 10925 0.063
7402 24922 0.159
7402 24925 0.065
7403 10941 0.089
7403 10953 0.025
7404 7405 0.101
7404 24312 0.045
7404 24313 0.078
7405 24310 0.114
7406 24274 0.221
7406 24275 0.039
7407 7408 0.484
7407 8872 0.147
7408 24772 0.23
7408 24773 0.733
7409 24292 0.053
7409 24293 0.167
7409 32279 0.314
7410 10945 0.071
7410 10951 0.034
7410 10954 0.09
7410 10967 0.554
7411 7412 0.041
7411 10644 0.229
7411 28605 0.106
7412 10650 0.015
7412 10651 0.019
7413 24905 0.052
7413 24906 0.058
7413 24921 0.04
7414 24901 0.033
7414 24902 0.048
7414 24922 0.043
7414 31385 0.267
7415 24984 0.097
7415 24986 0.412
7416 24903 0.245
7416 24907 0.053
7416 24908 0.049
7416 25009 0.261
7417 7418 0.36
7417 27611 0.75
7418 24313 0.099
7418 24314 0.108
7419 24311 0.314
7419 24516 0.401
7419 32013 0.15
7420 7454 0.535
7420 24515 0.078
7420 24516 0.37
7421 7422 0.429
7421 7426 0.043
7421 10943 0.073
7422 10921 0.035
7422 10922 0.058
7423 7425 0.301
7423 10656 0.165
7423 10664 0.209
7424 24272 0.135
7424 24274 0.05
7424 31385 0.209
7425 10920 0.154
7425 10921 0.043
7426 7432 0.655
7426 10932 0.2
7427 24903 0.016
7427 24904 0.078
7427 24923 0.043
7427 24924 0.05
7428 10636 0.058
7429 24272 0.066
7429 24273 0.032
7429 24279 0.209
7429 24288 0.142
7430 11041 0.041
7430 11050 0.251
7431 10417 0.042
7431 10941 0.192
7431 10951 0.347
7432 7443 0.082
7432 7445 0.418
7432 10416 0.073
7433 10634 0.159
7433 10635 0.041
7434 7440 0.654
7434 28914 0.048
7435 10423 0.027
7435 10424 0.113
7435 10928 0.22
7436 7441 0.21
7436 24273 0.176
7437 7446 0.374
7437 24289 0.098
7437 24467 0.061
7437 24474 0.207
7438 7439 0.334
7438 24479 0.304
7438 27620 0.029
7438 29478 0.058
7439 24472 0.088
7439 29479 0.405
7440 10658 0.026
7440 10659 0.023
7440 10662 0.155
7441 24283 0.059
7441 24284 0.035
7442 24474 0.284
7442 24475 0.072
7442 24476 0.055
7443 7471 0.681
7443 10415 0.04
7444 24259 0.05
7444 30212 0.226
7445 7458 0.31
7445 7473 0.418
7445 10954 0.072
7446 24464 0.037
7446 24465 0.2
7447 10928 0.107
7447 10929 0.035
7447 10935 0.097
7448 24445 0.262
7448 24912 0.035
7448 24913 0.039
7448 24915 0.22
7449 24280 0.144
7449 24281 0.017
7449 24445 0.208
7450 7451 0.072
7450 11042 0.172
7450 32874 0.274
7451 11043 0.058
7451 11044 0.054
7452 7453 0.209
7452 28206 0.154
7453 24910 0.117
7453 24911 0.048
7454 7470 0.444
7455 11038 0.06
7455 11039 0.2
7455 32874 0.575
7456 10944 0.266
7456 11040 0.09
7456 31969 0.338
7457 7467 0.414
7457 10414 0.048
7457 10415 0.246
7458 10412 0.029
7458 10413 0.023
7458 10418 0.357
7459 10757 0.086
7459 10758 0.31
7459 10764 0.299
7459 11045 0.243
7460 7469 0.147
7460 24513 0.091
7461 27614 0.068
7461 27615 0.111
7461 27624 0.04
7462 24442 0.225
7462 27612 0.056
7462 27613 0.034
7462 32270 0.056
7463 11008 0.139
7463 11046 0.169
7464 11003 0.082
7464 11004 0.079
7464 11006 0.217
7465 7479 0.547
7465 11007 0.038
7465 11008 0.208
7466 11006 0.03
7466 11016 0.304
7467 7471 0.172
7467 10420 0.046
7468 10418 0.081
7468 10419 0.048
7468 10421 0.11
7469 24512 0.04
7469 32008 0.262
7470 24843 0.118
7470 24890 0.076
7471 10422 0.199
7472 24282 0.024
7472 24449 0.217
7473 7474 0.038
7473 7478 0.058
7474 10412 0.211
7475 24495 0.068
7475 24496 0.071
7475 24507 0.055
7475 24508 0.103
7476 24498 0.076
7476 24499 0.045
7476 27603 0.169
7477 7478 0.453
7477 10960 0.086
7477 31969 0.177
7478 10955 0.138
7479 7488 0.127
7479 10778 0.056
7480 24503 0.042
7480 24531 0.145
7481 24518 0.033
7481 24526 0.021
7481 28999 0.02
7482 10959 0.259
7482 10960 0.02
7482 11051 0.411
7483 7510 0.192
7483 11051 0.494
7484 7485 0.405
7484 7487 0.3
7484 27603 0.313
7485 24438 0.151
7485 24443 0.303
7486 24842 0.066
7486 24846 0.037
7486 28998 0.274
7487 24437 0.075
7487 24886 0.269
7487 31996 0.163
7488 10767 0.208
7488 10771 0.182
7489 24929 0.306
7489 24961 0.047
7490 10775 0.105
7490 10795 0.052
7491 10780 0.114
7491 10788 0.098
7491 10789 0.109
7492 10794 0.073
7492 11005 0.118
7493 10775 0.081
7493 10776 0.079
7493 10777 0.112
7494 24336 0.055
7494 24337 0.058
7494 24338 0.176
7495 24522 0.095
7495 24523 0.183
7495 24529 0.258
7496 24919 0.037
7496 28210 0.104
7497 7505 3.281
7497 7720 15.457
7498 7504 0.052
7498 24444 0.18
7498 29024 0.415
7499 24386 0.143
7499 24387 0.081
7499 29024 0.236
7500 10787 0.248
7500 10796 0.209
7501 24351 0.068
7501 31984 0.063
7502 24353 0.049
7502 24388 0.054
7502 24389 0.086
7502 24485 0.095
7503 7528 1.097
7503 7556 1.241
7504 24439 0.101
7504 24440 0.041
7506 24819 0.272
7506 24820 0.055
7506 32037 0.305
7507 7508 0.093
7507 24450 0.155
7508 7512 0.241
7508 24452 0.148
7509 10753 0.027
7509 10755 0.02
7509 10762 0.111
7509 31970 0.106
7510 10752 0.044
7510 10754 0.049
7510 31970 0.519
7511 10766 0.311
7511 10767 0.027
7511 10772 0.152
7512 24340 0.176
7512 32302 0.12
7513 10400 0.029
7513 10959 0.157
7514 10401 0.159
7514 10406 0.049
7514 10956 0.428
7514 28967 0.455
7515 10403 0.168
7515 10404 0.026
7515 10406 0.289
7516 10773 0.042
7516 10776 0.186
7517 10782 0.167
7517 11035 0.028
7517 11036 0.214
7518 7519 0.266
7518 7523 0.71
7519 29043 0.821
7520 24319 0.078
7520 24323 0.038
7520 24324 0.081
7520 24326 0.076
7521 7530 0.094
7521 24324 0.057
7521 24325 0.133
7522 10410 0.184
7522 10411 0.098
7523 24824 0.164
7523 24832 0.546
7524 7536 0.174
7524 24341 0.283
7524 24460 0.208
7525 10779 0.164
7525 10786 0.272
7526 27604 0.056
7526 31994 0.094
7527 7528 0.531
7527 7560 0.958
7528 7559 0.371
7528 8410 0.55
7529 24383 0.045
7529 24384 0.038
7529 31988 0.107
7530 24317 0.035
7530 24323 0.146
7530 31983 0.385
7531 24691 0.256
7531 24692 0.049
7532 24853 0.38
7532 24868 0.182
7532 24877 0.644
7533 24931 0.031
7533 29354 0.015
7533 31981 0.2
7534 24933 0.025
7534 24954 0.052
7534 29008 0.029
7534 29355 0.26
7535 24418 0.071
7535 24887 0.208
7535 24889 0.195
7536 24342 0.028
7536 24461 0.193
7537 24463 0.101
7537 24934 0.041
7537 24935 0.022
7537 24936 0.056
7538 24948 0.24
7538 29355 0.096
7539 24540 0.054
7539 24541 0.248
7539 29006 0.224
7540 24511 0.268
7540 24537 0.067
7540 24879 0.236
7541 24446 0.145
7541 24951 0.215
7542 24839 0.075
7542 24840 0.06
7542 24841 0.033
7543 32030 0.151
7543 32037 0.371
7544 7583 0.381
7544 32031 0.348
7545 7546 0.142
7545 7558 0.109
7545 24948 0.123
7545 24950 0.342
7546 24943 0.323
7546 31981 0.175
7547 24429 0.056
7547 24435 0.159
7547 24888 0.052
7547 24889 0.049
7548 7549 0.293
7548 7562 0.214
7549 7561 0.121
7549 7570 0.457
7549 19341 0.694
7550 7585 1.286
7550 24570 0.161
7550 24858 0.077
7551 24390 0.057
7551 24391 0.029
7552 24755 0.068
7552 24756 0.169
7552 24757 0.378
7552 32044 0.15
7553 24684 0.294
7553 24707 0.185
7554 24394 0.132
7554 24395 0.051
7554 24408 0.069
7554 32003 0.101
7555 7557 0.219
7555 26710 0.514
7555 32128 0.085
7556 7557 0.201
7556 7606 6.122
7557 7559 0.243
7558 24940 0.111
7558 28806 0.533
7559 7560 0.409
7560 7620 6.654
7561 7562 0.134
7561 7567 0.16
7561 19343 0.12
7562 7567 0.285
7563 7572 0.365
7563 24544 0.069
7563 24876 0.221
7564 24542 0.088
7564 24543 0.063
7564 24547 0.092
7565 24533 0.2
7565 24534 0.048
7565 32007 0.407
7566 24536 0.032
7566 24881 0.125
7566 24885 0.188
7567 7570 0.236
7568 24762 0.158
7568 24769 0.045
7568 24770 0.05
7569 24378 0.168
7569 24379 0.151
7569 24423 0.427
7570 7605 1.413
7571 24870 0.496
7571 24871 0.029
7571 24872 0.043
7572 7578 1.115
7572 24874 0.084
7572 24875 0.166
7573 7594 0.588
7573 24862 0.09
7574 8818 0.963
7574 8880 0.371
7574 24768 0.177
7575 19367 0.147
7575 19374 0.042
7575 19375 0.048
7576 19353 0.034
7576 19354 0.162
7576 29480 0.493
7577 24392 0.043
7577 24420 0.019
7577 24421 0.024
7578 7596 0.202
7578 24546 0.352
7579 24744 0.401
7579 24757 0.108
7579 24758 0.137
7580 24947 0.146
7580 31980 0.374
7581 24432 0.04
7581 24433 0.096
7581 24436 0.526
7582 7587 0.172
7582 7589 0.313
7582 28337 0.154
7583 28993 0.288
7583 28994 0.224
7584 19353 0.237
7584 19373 0.077
7584 29481 2.743
7585 7592 0.191
7585 32024 0.134
7586 24802 0.322
7586 24865 0.056
7586 28994 0.081
7587 24866 0.08
7587 32029 0.133
7588 19368 0.067
7588 19372 0.217
7588 19374 0.078
7589 24816 0.056
7589 24817 0.071
7590 8880 0.428
7590 24794 0.413
7590 24796 0.056
7591 24818 0.117
7591 24863 0.133
7592 24563 0.136
7592 24864 0.111
7593 24814 0.833
7593 24863 0.134
7593 24864 0.038
7594 24566 0.123
7594 24567 0.238
7595 8882 0.315
7595 24716 0.485
7595 24743 0.165
7596 24567 0.273
7597 8883 0.093
7597 24740 0.131
7597 24745 0.198
7598 24727 0.253
7598 24739 0.038
7598 24741 0.05
7599 7610 0.568
7599 21308 1.272
7599 21349 0.061
7600 19371 0.31
7600 26723 1.984
7600 28417 1.811
7601 21110 4.421
7601 21230 1.49
7601 21231 1.098
7602 24716 0.221
7602 24717 0.153
7602 24718 0.059
7602 24719 0.061
7603 24749 0.035
7603 24790 0.091
7603 24794 0.132
7604 21385 0.128
7604 21388 0.047
7604 29481 4.24
7605 7606 0.577
7605 7611 0.6
7605 7619 0.731
7606 7611 0.603
7607 24791 0.229
7607 24805 0.351
7608 24803 0.175
7608 24804 0.113
7608 32039 0.108
7609 7645 0.516
7609 21346 0.18
7609 21347 0.069
7609 21348 0.102
7610 7612 0.08
7610 21304 0.109
7611 7696 5.856
7612 21305 0.095
7612 32070 0.031
7613 7635 0.777
7613 21278 0.045
7613 21279 0.137
7614 24725 0.061
7614 24726 0.262
7614 29022 0.052
7615 7616 0.336
7615 7617 0.782
7615 29482 1.208
7616 24675 0.254
7616 24682 0.282
7617 7632 0.024
7617 24667 0.233
7618 24651 0.084
7618 24656 0.054
7618 24666 0.162
7619 7620 0.27
7619 7621 0.677
7620 7621 0.656
7621 7697 5.164
7622 24678 0.065
7622 24679 0.212
7622 24689 0.364
7623 24680 0.075
7623 24681 0.031
7623 32053 0.072
7624 7642 0.429
7624 24689 0.068
7624 24726 0.417
7625 24623 0.137
7625 24624 0.204
7626 24627 0.123
7626 24628 0.024
7626 24629 0.028
7627 24648 0.062
7627 24658 0.24
7627 24661 0.101
7628 21133 0.072
7628 21251 0.13
7628 21272 0.144
7629 7636 0.054
7629 21182 0.07
7630 7631 0.026
7630 7633 0.122
7630 26722 0.104
7630 28417 0.283
7631 7634 0.119
7631 26723 0.081
7632 24669 0.054
7632 32053 0.124
7632 32055 0.423
7633 7634 0.022
7633 26720 0.238
7634 8412 0.044
7634 26719 0.069
7635 21192 0.027
7635 21193 0.177
7636 21177 0.389
7636 21193 0.192
7637 7663 0.238
7637 21172 0.168
7637 21213 0.055
7637 32876 0.115
7638 22709 0.025
7638 22710 0.057
7639 26762 0.026
7639 26765 0.231
7640 24632 0.08
7640 24633 0.191
7641 7642 0.383
7641 32052 0.18
7643 21191 0.033
7643 21192 0.056
7643 28920 0.447
7644 21290 0.071
7644 21291 0.091
7644 21293 0.041
7645 7655 0.725
7645 21344 0.222
7645 21345 0.064
7646 21374 0.066
7646 21377 0.136
7646 21382 0.073
7647 21343 0.18
7647 21356 0.048
7647 21357 0.121
7648 21289 0.089
7648 21290 0.114
7648 21309 0.068
7649 21344 0.07
7649 21356 0.203
7649 32086 0.215
7650 7651 0.535
7650 28331 0.056
7650 28332 0.058
7650 28333 0.03
7651 28325 0.611
7652 24673 0.547
7652 28325 0.169
7653 24573 0.038
7653 24577 0.264
7653 28760 0.206
7654 21339 0.077
7654 21378 0.117
7654 32612 0.069
7655 21336 0.224
7655 21342 0.061
7655 21373 0.148
7656 7657 0.575
7656 24583 0.652
7656 24594 0.075
7657 24593 0.052
7657 24595 0.195
7658 7659 0.016
7658 28411 0.062
7658 28415 0.227
7659 26716 0.357
7659 26732 0.098
7659 28410 0.16
7660 28317 0.086
7660 28320 0.04
7660 28321 0.029
7661 21314 0.118
7661 21335 0.129
7661 21338 0.06
7662 24603 0.15
7662 28301 0.035
7662 28302 0.075
7663 7664 0.108
7663 28228 0.663
7664 28921 0.372
7664 32609 0.215
7665 28308 0.26
7665 28313 0.036
7666 8701 0.114
7666 21860 0.492
7666 21871 0.227
7667 8702 0.222
7667 26735 0.054
7667 28421 0.526
7668 7671 0.46
7668 26724 0.154
7668 26734 0.394
7669 7672 0.545
7669 7673 0.11
7669 26726 0.156
7669 28413 0.79
7670 7671 0.54
7670 26725 0.253
7670 26733 0.323
7671 7675 0.545
7671 26727 0.166
7672 7674 0.446
7672 28423 0.1
7673 26727 0.115
7673 26728 0.057
7674 7677 0.121
7674 26756 0.059
7674 26757 0.125
7675 21698 0.142
7675 26731 0.46
7676 7681 0.22
7676 26729 0.055
7676 26730 0.031
7676 32613 0.103
7677 7684 0.444
7677 26744 0.037
7677 26745 0.048
7678 26740 0.077
7678 26741 0.056
7678 26742 0.034
7679 7680 0.464
7679 21877 0.061
7679 21891 0.045
7680 7683 0.182
7680 8701 0.322
7681 7682 0.222
7681 8446 1.103
7682 7684 0.728
7682 28420 0.11
7683 8703 0.187
7683 21853 0.139
7684 26758 0.214
7684 28425 0.578
7685 8540 0.713
7685 21894 0.113
7685 21895 0.086
7686 21150 0.185
7686 21365 0.053
7687 21151 0.283
7687 21152 0.406
7687 21153 0.072
7688 26758 0.113
7688 28923 0.113
7689 21820 0.318
7689 21844 0.159
7689 21845 0.149
7690 21687 0.188
7690 21693 0.023
7690 26739 0.152
7691 21687 0.015
7691 21692 0.091
7691 26739 0.131
7692 21461 0.111
7692 21464 0.165
7693 21463 0.434
7693 21471 0.08
7693 21478 0.687
7694 21321 0.06
7694 21411 0.441
7694 32080 0.136
7695 21412 0.405
7695 21415 0.253
7695 32080 2.056
7696 7701 0.375
7696 7702 0.744
7697 7700 0.403
7697 7703 0.832
7698 7708 0.27
7698 21938 0.166
7698 21939 0.076
7699 8885 0.152
7699 8886 0.06
7699 21959 0.124
7700 7701 0.18
7700 7703 0.467
7700 7704 0.142
7700 32617 1.053
7701 7702 0.387
7702 7727 4.814
7703 7730 4.759
7704 7705 0.806
7704 21960 0.047
7705 8887 0.774
7705 21966 0.354
7706 21612 0.111
7706 21613 0.054
7706 21626 0.388
7707 21619 0.076
7707 21627 0.21
7707 21654 0.251
7708 21934 0.069
7708 28924 0.089
7709 30997 0.47
7709 30998 1.15
7709 30999 3.243
7710 21632 0.253
7710 21655 0.307
7710 26779 0.312
7711 21473 0.074
7711 21474 0.056
7712 21472 0.229
7712 21502 0.327
7713 21646 0.238
7713 21647 0.155
7713 21680 0.309
7713 32123 0.295
7714 7715 1.038
7714 7721 1.581
7715 22247 0.516
7715 22248 2.165
7716 21714 0.14
7716 21795 0.62
7717 21701 1.175
7717 21703 0.078
7717 21704 0.077
7718 21505 0.141
7718 21506 0.161
7718 21510 0.085
7719 21502 0.194
7719 21511 0.145
7719 28925 0.085
7720 7725 0.747
7720 8447 1.78
7721 7728 0.119
7721 22249 1.064
7722 21417 2.468
7722 21555 1.839
7723 21506 0.102
7723 21507 0.142
7723 21508 0.114
7724 28435 0.604
7724 28436 0.37
7724 28437 1.095
7725 22650 0.888
7725 28437 0.611
7726 21701 0.159
7726 21711 1.19
7726 21739 1.201
7727 7728 0.329
7727 7729 0.791
7728 7729 0.495
7728 7731 0.259
7729 7742 8.111
7730 7731 0.381
7730 7734 0.805
7731 7734 0.454
7731 7739 0.529
7732 21484 0.043
7732 21485 0.06
7732 21509 0.22
7733 21489 0.076
7733 21493 0.094
7733 21498 0.272
7734 7746 8.184
7735 7750 0.563
7735 22238 0.171
7735 28430 0.334
7735 32246 0.115
7736 21494 0.496
7736 21569 0.231
7736 21573 1.925
7737 22179 1.647
7737 22222 0.765
7737 29483 0.166
7738 7747 1.349
7738 21706 0.034
7738 21707 0.029
7739 22246 0.414
7739 28431 0.319
7740 7743 0.495
7740 22666 0.565
7740 22669 1.657
7741 8448 0.812
7741 22237 0.04
7741 22238 0.061
7742 7743 0.503
7742 7749 1.013
7743 7748 0.271
7743 7749 0.543
7744 7753 0.355
7744 22646 0.083
7744 22648 0.142
7744 22650 0.618
7745 8449 0.434
7745 22259 0.248
7745 32247 0.716
7746 7748 0.422
7746 7755 0.924
7747 21737 0.797
7747 21739 1.121
7748 7755 0.525
7748 22667 0.898
7749 7774 1.093
7750 22235 0.124
7750 32240 0.162
7750 32245 0.222
7751 22193 0.87
7751 22209 0.16
7751 22210 0.227
7751 29483 1.495
7752 7753 0.222
7752 22632 0.038
7752 22633 0.061
7752 22649 0.22
7753 7759 0.247
7753 22647 0.222
7754 7757 0.173
7754 8706 0.279
7754 8707 0.276
7755 7775 1.145
7756 21648 0.079
7756 21710 0.736
7756 32122 0.22
7757 22633 0.192
7757 22634 0.09
7758 22637 0.041
7758 22643 0.09
7758 22647 0.066
7759 7760 0.107
7759 22644 0.199
7760 22634 0.023
7760 28053 0.395
7761 22641 0.051
7761 22642 0.052
7761 22644 0.023
7762 7769 0.065
7762 21573 0.868
7762 21735 0.109
7763 21649 0.164
7763 21651 0.089
7763 21652 0.068
7764 7765 0.035
7764 22640 0.032
7764 22641 0.438
7765 7766 0.695
7765 22659 0.124
7766 22654 0.157
7766 22661 0.147
7767 22171 0.254
7767 22172 0.219
7767 22173 0.114
7767 22186 0.689
7768 22143 0.108
7768 22144 0.069
7768 28427 0.363
7769 21588 0.151
7769 21589 0.031
7770 21535 0.071
7770 21538 0.176
7770 21568 0.118
7771 22252 0.332
7771 22636 0.127
7771 32193 0.21
7772 21564 0.094
7772 21566 0.085
7772 21572 0.473
7773 22653 0.171
7773 22663 0.118
7773 22664 0.252
7774 7776 4.22
7774 8792 6.184
7775 7776 4.167
7775 8793 5.969
7777 7822 0.286
7777 8792 1.369
7777 8793 1.355
7778 32193 1.001
7778 32194 0.109
7779 21762 0.213
7779 21763 0.062
7779 21773 0.33
7780 7781 0.578
7780 7783 0.606
7780 28453 0.377
7781 7782 0.468
7781 21586 0.035
7782 21594 0.093
7782 21595 0.046
7783 21728 0.157
7783 21729 0.238
7783 28451 0.066
7784 21761 0.081
7784 21762 0.167
7784 21774 0.368
7785 22668 1.214
7786 22046 0.134
7786 22128 0.046
7786 22175 0.185
7787 21777 0.127
7787 21778 0.071
7787 21779 0.387
7788 21998 1.277
7788 22042 0.171
7788 22043 0.123
7789 7794 1.004
7789 32194 1.026
7789 32205 0.129
7790 7791 0.075
7790 22276 0.054
7790 22278 0.181
7791 22277 0.046
7791 32196 0.178
7792 7794 0.958
7792 22260 0.281
7792 22261 0.069
7793 7794 1.652
7793 22267 0.302
7793 22270 0.256
7795 22279 0.078
7795 22280 0.071
7795 32199 0.364
7795 32206 0.203
7796 22517 0.073
7796 22525 0.072
7796 22543 0.838
7797 22017 0.069
7797 22034 0.072
7798 22526 0.214
7798 22530 0.193
7798 32238 0.135
7799 22529 0.169
7799 22530 0.177
7800 22019 0.343
7800 22037 0.394
7800 30213 0.403
7801 21988 0.066
7801 21989 0.085
7801 28929 0.317
7802 22067 0.15
7802 22068 0.294
7802 22072 0.107
7802 28049 0.305
7803 22024 0.283
7803 22033 0.229
7804 22292 0.046
7804 22293 0.056
7804 32209 0.039
7805 7812 1.032
7805 22511 0.325
7805 22512 0.128
7805 22513 0.311
7806 22313 0.091
7806 28446 0.243
7806 32210 0.053
7806 32211 0.097
7807 22320 0.793
7807 32207 0.071
7807 32208 0.077
7808 22504 0.072
7808 22505 0.405
7809 7810 0.872
7809 22094 0.155
7809 22105 0.21
7810 22117 0.109
7811 7812 0.102
7811 22506 0.314
7811 22509 0.056
7812 32223 0.122
7813 22505 0.27
7813 22508 0.137
7813 22553 0.228
7813 32222 0.169
7814 22122 0.028
7814 22124 0.347
7815 22320 0.468
7815 22321 0.139
7815 22322 0.188
7816 22117 0.453
7816 22119 0.137
7816 22124 0.101
7816 22125 0.091
7817 8910 0.289
7817 8911 0.061
7817 8912 0.114
7818 8713 0.27
7818 8795 0.163
7819 22334 0.597
7819 22338 0.217
7819 22339 0.037
7820 28447 0.223
7821 22401 4.839
7821 32147 0.219
7822 7823 0.936
7822 22601 0.325
7823 8711 1.356
7823 22610 0.183
7823 32177 0.186
7824 28448 1.102
7825 22630 1.102
7825 22631 0.16
7825 28449 0.96
7826 28448 1.129
7826 28449 0.511
7827 22450 0.77
7827 22463 0.2
7827 22464 0.685
7827 22481 0.119
7828 22407 0.156
7828 22408 0.081
7828 32148 0.156
7829 22420 1.593
7829 22428 0.104
7829 32160 0.059
7830 22620 0.785
7830 22621 0.136
7830 32171 0.119
7831 22425 1.665
7831 22613 3.071
7832 28450 0.759
7834 7835 1.282
7834 29096 5.262
7835 20941 0.594
7836 20943 0.036
7836 20944 0.223
7836 20951 0.283
7837 20947 0.123
7837 20948 0.151
7837 31579 0.58
7838 20911 0.244
7838 20915 1.613
7840 20863 0.724
7840 20888 0.09
7841 8408 2.72
7841 32868 1.263
7842 7844 0.074
7842 7859 1.284
7842 7887 0.626
7844 31393 0.45
7845 7858 0.3
7845 31389 0.545
7846 28562 0.066
7846 28563 0.084
7847 28002 0.014
7847 28564 0.098
7848 7864 0.393
7849 7884 0.196
7849 7887 1.041
7850 7884 0.222
7851 7852 0.652
7851 7860 0.667
7851 20627 0.186
7852 7853 0.342
7852 7859 0.095
7853 7854 0.347
7853 31190 0.63
7854 7862 0.393
7854 10743 0.13
7855 7858 0.932
7855 7861 1.27
7855 30870 0.236
7856 8408 0.157
7857 7858 0.328
7857 30876 0.123
7859 7862 1.175
7860 28002 0.11
7863 7889 0.852
7864 8905 0.506
7865 7868 0.091
7865 7870 0.331
7865 23114 0.206
7865 27087 0.045
7866 27072 0.08
7866 27073 0.15
7866 32355 0.094
7867 7868 0.177
7867 27088 0.078
7868 7869 0.11
7869 29201 0.105
7870 27085 0.02
7870 27086 0.085
7871 12783 0.05
7871 32393 0.047
7872 14550 0.023
7872 14551 0.041
7872 31838 0.123
7873 8284 0.514
7873 9753 0.099
7873 9759 0.149
7874 9748 0.251
7874 9749 0.083
7874 9752 0.162
7875 9864 0.153
7875 32423 0.035
7876 7879 0.172
7876 9880 0.031
7876 9906 0.37
7877 9906 0.228
7877 9907 0.106
7877 10001 0.346
7878 10000 0.274
7878 28027 0.357
7878 28028 0.115
7879 9881 0.164
7879 9902 0.05
7882 7883 0.436
7882 15939 0.054
7883 15926 0.031
7886 8901 0.11
7887 8901 0.632
7888 32955 0.152
7889 31389 0.056
7890 31389 0.477
7891 31406 0.073
7892 31407 0.095
7893 7894 0.252
7895 7896 0.236
7899 7900 0.158
7901 7902 0.153
7903 31409 0.125
7903 32802 0.263
7904 7919 0.445
7905 7906 0.84
7905 27019 0.381
7906 26125 0.162
7906 27020 0.208
7906 27021 0.189
7907 15022 0.085
7907 27018 0.097
7907 27021 0.186
7908 28147 0.036
7909 8930 0.076
7909 8931 0.02
7909 8932 0.114
7910 28566 0.346
7911 8930 0.043
7911 8933 0.031
7912 7913 0.257
7912 12865 0.124
7912 12869 0.055
7913 12894 0.204
7913 20577 0.041
7913 30390 0.121
7914 30322 0.143
7914 30390 0.493
7915 20697 0.078
7916 8933 0.052
7916 8940 0.24
7917 7918 0.18
7917 27419 0.128
7918 32802 0.382
7919 7920 0.303
7921 7923 2.479
7922 7926 2.298
7923 7925 0.103
7924 7926 0.093
7924 7932 4.478
7924 7940 0.414
7925 7927 3.968
7925 32877 0.604
7926 32862 0.78
7927 7930 0.366
7927 7941 0.093
7928 7931 0.23
7928 7932 0.26
7928 7933 1.735
7929 7930 0.255
7929 7931 0.245
7929 7934 1.694
7930 7931 0.03
7931 7932 0.052
7931 31408 0.297
7932 27415 0.094
7933 27405 0.222
7934 27404 0.204
7935 7937 0.504
7935 19433 0.247
7936 12057 0.067
7936 29127 0.394
7937 12044 0.119
7937 12045 0.239
7938 12073 0.385
7938 12075 0.138
7938 16927 0.646
7939 13674 0.107
7940 27458 0.124
7940 32877 0.017
7941 26375 0.122
7942 30994 0.039
7943 7966 0.263
7943 7972 0.463
7943 7974 0.498
7944 18749 0.238
7944 18775 0.045
7944 31592 0.051
7945 18775 0.246
7945 18788 0.037
7945 18789 0.081
7946 18749 0.08
7946 18750 0.122
7946 18753 0.171
7947 7948 0.762
7947 18787 0.034
7947 18788 0.152
7948 18768 0.042
7948 18769 0.087
7949 7983 1.143
7949 7985 0.411
7950 11849 0.135
7950 11850 0.053
7950 29356 0.423
7951 12228 0.04
7951 12229 0.053
7952 8001 0.433
7952 8005 0.848
7952 11784 0.081
7953 11780 0.042
7953 11781 0.114
7954 12842 0.082
7954 16753 0.104
7954 16757 0.668
7955 8023 0.682
7955 12795 0.11
7955 12839 0.071
7956 7957 0.312
7956 8035 0.636
7956 13654 0.063
7956 30391 0.248
7957 13317 0.059
7957 30367 0.245
7958 8021 0.419
7958 13296 0.347
7958 13302 0.219
7959 8014 0.21
7959 12549 0.098
7959 12550 0.14
7959 31867 0.311
7960 12584 0.062
7960 12585 0.082
7960 29357 0.353
7961 8008 0.168
7961 12347 0.055
7961 30392 0.205
7962 29358 0.091
7962 29359 0.222
7962 30392 0.602
7963 7964 0.223
7963 8011 0.438
7963 12347 0.284
7964 7965 0.652
7964 8009 0.254
7965 12364 0.114
7965 12365 0.06
7966 7973 0.748
7967 12926 0.097
7967 12927 0.066
7968 12687 0.04
7968 12689 0.07
7968 31885 0.066
7969 19202 0.378
7969 19236 0.121
7969 19245 0.684
7969 19269 0.155
7970 19292 0.728
7970 19304 0.091
7970 19308 0.18
7971 18848 1.106
7971 19216 0.605
7972 7973 0.938
7972 19217 0.199
7973 19226 0.597
7975 19223 0.343
7976 19200 0.683
7976 19211 0.405
7976 19212 0.704
7976 19230 0.851
7977 18782 0.064
7977 18795 0.219
7978 18803 0.068
7979 18755 0.25
7979 18756 0.077
7979 18757 0.117
7980 28825 0.497
7981 18277 0.117
7982 12485 0.077
7982 12486 0.161
7982 19437 1.169
7983 19411 0.347
7983 19424 0.092
7984 19411 0.052
7984 19412 0.134
7985 19438 0.436
7985 19453 0.119
7986 11824 0.113
7986 11850 0.222
7986 11851 0.1
7987 11868 0.054
7987 11869 0.047
7987 11870 0.074
7988 11966 0.033
7988 11967 0.091
7988 19443 0.073
7989 11787 0.091
7989 11788 0.185
7990 11799 0.073
7990 11800 0.348
7990 12010 0.946
7991 12027 0.052
7991 12028 0.153
7991 12037 0.133
7992 11790 0.287
7992 11803 0.045
7992 29356 0.609
7993 11757 0.245
7993 11774 0.061
7993 29132 0.261
7994 11746 0.073
7994 11747 0.061
7994 11797 0.113
7995 11759 0.059
7995 11760 0.126
7996 7997 0.124
7996 11997 0.04
7997 11996 0.042
7998 11994 0.071
7998 11995 0.074
7999 12018 0.212
7999 12019 0.076
8000 11761 0.12
8000 11762 0.054
8000 29139 0.171
8001 12257 0.051
8001 12258 0.047
8002 12003 0.052
8002 12230 0.11
8003 12232 0.643
8003 12248 0.234
8003 12249 0.035
8004 11962 0.066
8004 11963 0.033
8004 12350 0.262
8004 12352 0.182
8005 12263 0.065
8005 12339 0.216
8006 17064 0.208
8006 17082 0.43
8006 29360 0.099
8007 12348 0.03
8007 31714 0.187
8008 8009 0.105
8010 12374 0.188
8010 29143 0.961
8010 29359 0.46
8011 12356 0.703
8011 29144 0.05
8012 12371 0.365
8012 12373 0.359
8012 12384 0.187
8013 12692 0.073
8013 31882 0.101
8013 31884 0.09
8014 8015 0.229
8015 12586 0.147
8016 12550 0.085
8016 12551 0.047
8016 31868 0.054
8017 12598 0.307
8017 12611 0.399
8017 12624 0.253
8018 8020 0.528
8018 12582 0.071
8018 12583 0.041
8019 8020 0.939
8019 12558 0.037
8019 12559 0.149
8021 8160 0.205
8021 13307 0.19
8022 16785 0.207
8022 22774 0.115
8023 12834 0.036
8023 12835 0.076
8024 12825 0.078
8024 12826 0.037
8025 12937 0.051
8025 12938 0.128
8026 13292 0.057
8027 12951 0.459
8028 8762 1.034
8028 12776 0.195
8028 28933 0.042
8029 12846 0.054
8029 12856 0.439
8030 12930 0.092
8030 12931 0.036
8031 12931 0.056
8031 12932 0.032
8032 12803 0.051
8032 12804 0.082
8032 29160 0.298
8033 8034 0.577
8033 8764 0.36
8035 13281 0.138
8035 13313 0.135
8036 13323 0.352
8036 13326 0.174
8037 13715 0.042
8037 13716 0.033
8037 30391 0.232
8038 13606 0.168
8038 13607 0.115
8039 13656 0.042
8039 13657 0.108
8040 8099 0.296
8040 11825 0.241
8040 12482 0.064
8041 19474 0.088
8041 19515 0.211
8041 28934 0.173
8042 19486 0.099
8042 19514 0.11
8042 19515 0.076
8043 8047 0.068
8043 19517 0.078
8043 29361 0.136
8044 8045 0.177
8044 19469 0.078
8044 19470 0.075
8044 32504 0.13
8045 19526 0.217
8045 29362 0.07
8046 8050 0.439
8046 20487 0.185
8046 20488 0.154
8047 8087 0.393
8047 19518 0.043
8048 8100 0.585
8048 20484 0.258
8048 20485 0.063
8048 20486 0.154
8049 19530 0.231
8049 20487 0.164
8049 22824 0.124
8050 8052 0.332
8050 22823 0.253
8051 8069 0.222
8051 12130 0.03
8051 12131 0.038
8051 22833 0.297
8052 8053 0.039
8052 22814 0.046
8053 8054 0.348
8053 12124 0.177
8054 11891 0.161
8054 22815 0.054
8055 12100 0.134
8055 12101 0.208
8055 28936 0.088
8056 22828 0.029
8056 22829 0.189
8056 29362 0.304
8058 8064 0.634
8058 12429 0.076
8058 12430 0.086
8059 8060 0.078
8059 8063 0.47
8059 12422 0.157
8060 8082 0.262
8060 12440 0.07
8061 12430 0.124
8061 12431 0.114
8062 12434 0.091
8062 12445 0.09
8062 31723 0.097
8063 12423 0.283
8063 12424 0.031
8064 12422 0.117
8064 12423 0.045
8065 8113 0.836
8065 28120 0.543
8065 28937 0.054
8066 8112 0.732
8066 12209 0.056
8066 12210 0.138
8066 22866 0.421
8067 8118 0.578
8067 8119 0.443
8067 12216 0.15
8067 12217 0.054
8068 12395 0.09
8068 12409 0.03
8068 12410 0.086
8070 8124 0.533
8070 12295 0.195
8070 12296 0.123
8071 12312 0.263
8071 12313 0.103
8072 11172 0.029
8072 20493 0.181
8073 11159 0.111
8073 11160 0.095
8073 30877 0.044
8074 11153 0.044
8074 11156 0.188
8074 12333 0.499
8075 8076 0.403
8075 12543 0.623
8076 8077 0.485
8076 8130 0.615
8077 8131 0.641
8078 11904 0.162
8078 12083 0.048
8078 12084 0.024
8079 12543 0.101
8079 12544 0.078
8080 12324 0.222
8080 12325 0.039
8082 12439 0.031
8082 12441 0.314
8083 12446 0.026
8083 12447 0.044
8083 12448 0.042
8083 31722 0.396
8084 8085 0.662
8084 19467 0.091
8084 19511 0.09
8085 19473 0.06
8085 19480 0.332
8086 12473 0.069
8086 12474 0.067
8086 19486 0.258
8087 19520 0.226
8087 19522 0.06
8088 12515 0.067
8088 12516 0.033
8088 12518 0.115
8089 19472 0.294
8089 19474 0.165
8089 29363 0.246
8090 19467 0.113
8090 19468 0.107
8090 29363 0.564
8090 29364 0.339
8091 12510 0.155
8091 12511 0.06
8091 29364 0.391
8092 12505 0.065
8092 12506 0.102
8092 12512 0.166
8093 12396 0.061
8093 12397 0.238
8093 22839 0.125
8093 22840 0.12
8094 12414 0.083
8094 12415 0.093
8094 12417 0.066
8094 12419 0.098
8095 12479 0.224
8095 12483 0.089
8095 12484 0.292
8096 12405 0.047
8096 27814 0.072
8097 12399 0.03
8097 12400 0.147
8098 20661 0.137
8098 20662 0.091
8098 28829 0.09
8100 11864 0.039
8100 28950 0.051
8101 20529 0.062
8101 20530 0.029
8101 20531 0.157
8102 11821 0.198
8102 11824 0.241
8102 11853 0.289
8103 8104 0.296
8103 22834 0.113
8103 22835 0.227
8104 12134 0.09
8104 12135 0.14
8105 12103 0.161
8105 12129 0.214
8105 12135 0.109
8106 22843 0.285
8106 22908 0.6
8106 28937 0.06
8107 8108 0.346
8107 22909 0.116
8108 20517 0.077
8108 22902 0.068
8108 22903 0.075
8109 12102 0.033
8109 27827 0.172
8110 11862 0.17
8110 11867 0.146
8111 22857 0.123
8111 22858 0.053
8111 28120 0.042
8112 22859 0.167
8112 22860 0.048
8112 28121 0.246
8113 22867 0.269
8114 12206 0.14
8115 12097 0.042
8115 12098 0.224
8115 12110 0.176
8116 12086 0.136
8116 12087 0.088
8116 12094 0.163
8117 22869 0.04
8117 22870 0.042
8117 22872 0.4
8118 22883 0.044
8118 22884 0.035
8119 22881 0.051
8119 22882 0.053
8119 22885 0.056
8120 8122 0.188
8120 27841 0.265
8120 27843 0.073
8121 12153 0.069
8121 27831 0.111
8121 27841 0.266
8121 30333 0.178
8122 29137 0.096
8123 12310 0.206
8123 12311 0.117
8124 12271 0.032
8124 12272 0.097
8125 11173 0.188
8125 12318 0.063
8125 31834 0.175
8125 32395 0.097
8126 12297 0.108
8126 12298 0.071
8127 12294 0.035
8128 11165 0.09
8129 12292 0.027
8130 12545 0.047
8131 12306 0.046
8131 12307 0.327
8132 8161 0.57
8132 8162 0.767
8132 8166 0.472
8133 13150 0.126
8133 13161 0.121
8134 8165 0.637
8134 13154 0.115
8134 13155 0.287
8135 8165 0.631
8135 13126 0.1
8136 8177 0.183
8136 14382 0.045
8136 14383 0.094
8137 11576 0.153
8137 11577 0.05
8137 11626 0.084
8138 13424 0.398
8138 13449 0.027
8138 13450 0.016
8139 8183 0.329
8139 13450 0.059
8139 13452 0.247
8140 14415 0.316
8140 30370 0.243
8140 30878 0.135
8141 8181 0.427
8141 13428 0.028
8141 13429 0.027
8142 13434 0.041
8142 13435 0.123
8142 13436 0.242
8143 8188 0.211
8143 13479 0.076
8143 13499 0.158
8144 14633 0.046
8144 14634 0.139
8145 8146 0.171
8145 8147 0.652
8145 8190 0.197
8145 11672 0.223
8146 11676 0.206
8146 11709 0.151
8147 8148 0.172
8147 8156 0.223
8147 13475 0.362
8148 11706 0.066
8148 11712 0.053
8149 13804 0.131
8149 27455 0.228
8149 29028 0.139
8149 32561 0.607
8150 13804 0.109
8150 13812 0.105
8151 8196 0.491
8151 8198 0.664
8151 13892 0.082
8151 13893 0.185
8152 13200 0.044
8152 13201 0.049
8152 29365 0.302
8153 13493 0.19
8153 13504 0.038
8154 14373 0.138
8154 14507 0.159
8155 13802 0.131
8155 13803 0.049
8155 13827 0.117
8156 8189 0.388
8156 11653 0.156
8156 13474 0.278
8157 8164 0.089
8157 10290 0.024
8157 13127 0.2
8158 13195 0.042
8158 13196 0.1
8159 10300 0.063
8159 10305 0.134
8160 12561 0.072
8160 29365 0.445
8161 13119 0.021
8161 29366 0.068
8162 13135 0.05
8162 13136 0.242
8163 10078 0.039
8163 10279 0.403
8163 28845 0.235
8164 10289 0.037
8165 8324 0.093
8167 13183 0.058
8167 13247 0.107
8167 13733 0.67
8168 8171 0.251
8168 8173 0.281
8168 13283 0.05
8169 13147 0.019
8169 13148 0.018
8169 13149 0.026
8170 13165 0.024
8170 13167 0.186
8171 13662 0.119
8172 11466 0.278
8172 13265 0.055
8173 13736 0.122
8174 13349 0.067
8174 13350 0.094
8175 13527 0.227
8175 26183 0.112
8176 26178 0.06
8176 26208 0.195
8177 14526 0.349
8177 26189 0.472
8178 26175 0.47
8178 26200 0.027
8179 13345 0.026
8179 13383 0.053
8180 13420 0.148
8180 13425 0.028
8180 13426 0.037
8181 13378 0.041
8181 13379 0.175
8182 13462 0.038
8182 13464 0.031
8182 13465 0.035
8183 11613 0.251
8183 11622 0.252
8184 13436 0.159
8184 13437 0.153
8185 8186 0.293
8185 14437 0.07
8185 14438 0.029
8186 14484 0.201
8186 31859 0.234
8187 14416 0.06
8187 14522 0.04
8187 14523 0.034
8188 13503 0.26
8188 13506 0.078
8189 8282 0.199
8189 13470 0.055
8190 11655 0.224
8190 11656 0.112
8191 13475 0.018
8191 13476 0.02
8191 13488 0.097
8192 11708 0.045
8192 13476 0.168
8192 27442 0.108
8193 11660 0.192
8193 11665 0.171
8193 11725 0.049
8194 13818 0.194
8194 27456 0.102
8194 29027 0.151
8195 11686 0.076
8195 27276 0.439
8195 31851 0.063
8196 13814 0.037
8196 13847 0.015
8197 13843 0.162
8197 13893 0.109
8197 27345 0.172
8198 27292 0.016
8198 27293 0.049
8199 8200 0.214
8200 8311 0.336
8200 8312 0.287
8201 9913 0.02
8201 9914 0.02
8201 9939 0.204
8202 8204 0.742
8202 8206 0.044
8202 20586 0.06
8203 8298 0.454
8203 13784 0.171
8203 20587 0.079
8204 8207 0.206
8204 8290 0.33
8204 20578 0.25
8205 8285 0.334
8205 11438 0.127
8205 13798 0.084
8205 20584 0.124
8206 8208 0.372
8206 20587 0.028
8207 8208 0.608
8207 8291 0.154
8209 11648 0.32
8210 8273 0.093
8210 11378 0.142
8210 32786 0.013
8211 8257 0.395
8211 8258 0.486
8212 8213 0.295
8212 8248 0.224
8212 8249 0.761
8212 8255 0.491
8213 10060 0.051
8213 10069 0.231
8214 8265 0.251
8214 8266 0.227
8214 9177 0.188
8215 8277 0.338
8215 9362 0.152
8215 9385 0.165
8216 8287 0.377
8216 9642 0.054
8216 27271 0.054
8216 32878 0.035
8217 8222 0.29
8217 9531 0.064
8217 9532 0.089
8218 8221 0.125
8218 8315 0.254
8218 29367 0.279
8219 9534 0.071
8219 9535 0.143
8220 9511 0.076
8220 9512 0.125
8220 9550 0.192
8221 9526 0.065
8221 9527 0.08
8222 9434 0.256
8222 9438 0.3
8223 8224 0.15
8223 9433 0.067
8223 9525 0.036
8224 8316 0.263
8224 28938 0.306
8225 8226 0.316
8225 8261 1.073
8225 9270 0.299
8226 9261 0.021
8226 9267 0.367
8227 8228 0.183
8227 9758 0.155
8227 9767 0.048
8228 8296 0.329
8229 9908 0.762
8230 9617 0.353
8230 9618 0.604
8230 9684 0.052
8231 8233 0.394
8231 9013 0.082
8231 9014 0.353
8231 28939 0.103
8232 8253 0.071
8232 9062 0.043
8232 9063 0.082
8233 9020 0.35
8233 30214 0.148
8233 30700 0.389
8234 8237 0.081
8234 20303 0.35
8234 20317 0.127
8234 31819 0.147
8235 20286 0.174
8235 20310 0.086
8235 20311 0.193
8236 20283 0.185
8236 20301 0.171
8236 20316 0.198
8237 20322 0.088
8238 20329 0.092
8238 20330 0.191
8238 20332 0.146
8239 27304 0.026
8239 27305 0.147
8239 27316 0.147
8239 29191 0.257
8240 11379 0.171
8240 11380 0.033
8241 9247 0.045
8241 9269 0.238
8241 28676 0.155
8242 9695 0.239
8242 9696 0.156
8243 28645 0.179
8243 28847 0.796
8243 28939 0.325
8244 19808 0.519
8244 19824 0.178
8245 9164 0.07
8245 28864 0.694
8245 28952 0.223
8246 10055 0.111
8246 10056 0.18
8246 10057 0.471
8247 20059 0.059
8247 20060 0.061
8247 32397 0.098
8248 10083 0.05
8248 10084 0.045
8249 10080 0.309
8249 10081 0.044
8250 9015 0.128
8250 9016 0.045
8251 9011 0.045
8251 9013 0.27
8251 30077 0.062
8252 9012 0.079
8252 30214 0.093
8253 9053 0.194
8254 10063 0.038
8254 10064 0.039
8254 10099 0.014
8255 10065 0.028
8255 10106 0.024
8256 8347 0.617
8256 9238 0.075
8256 32425 1.396
8257 11458 0.048
8258 11457 0.314
8258 11468 0.054
8259 11508 0.15
8259 11522 0.083
8259 11530 0.06
8260 11335 0.036
8260 11336 0.037
8260 11358 0.054
8261 28603 0.381
8262 11543 0.042
8262 11544 0.057
8263 8270 0.492
8263 11542 0.067
8263 11543 0.152
8264 8271 0.492
8264 11542 0.071
8264 11555 0.161
8265 8268 0.359
8265 28600 0.146
8266 9170 0.115
8266 9171 0.076
8267 9380 0.035
8267 9381 0.046
8267 9779 0.142
8268 9791 0.323
8269 9779 0.276
8270 11571 0.073
8270 11572 0.042
8271 11570 0.135
8271 11571 0.044
8272 11376 0.074
8272 32785 0.452
8273 11565 0.168
8273 11566 0.231
8274 11602 0.04
8274 11604 0.025
8274 11605 0.043
8274 11627 0.164
8275 11567 0.031
8275 11644 0.091
8276 11646 0.256
8276 30393 0.1
8277 9384 0.198
8277 28874 0.021
8278 9363 0.065
8278 9707 0.157
8279 11649 0.038
8279 11743 0.036
8279 11744 0.026
8280 11442 0.046
8280 11443 0.027
8280 11444 0.033
8281 30373 0.211
8281 30394 0.139
8282 11629 0.145
8282 11632 0.187
8283 27270 0.514
8284 9756 0.069
8285 11425 0.029
8285 11426 0.255
8286 8287 0.511
8286 9641 0.036
8287 32879 0.322
8288 28036 0.167
8288 28038 0.025
8288 28042 0.231
8289 11440 0.082
8289 28042 0.222
8289 28043 0.086
8290 11735 0.057
8291 11735 0.22
8291 27440 0.361
8292 9776 0.162
8292 9777 0.099
8292 9908 0.343
8293 13765 0.018
8293 28253 0.123
8294 13763 0.057
8294 20614 0.104
8295 9768 0.277
8295 9769 0.144
8296 9759 0.258
8296 9760 0.026
8297 13794 0.071
8297 28883 0.111
8298 13782 0.142
8299 9683 0.144
8299 9684 0.294
8299 9691 0.014
8300 9926 1.04
8300 9977 0.039
8300 10125 0.044
8301 20598 0.345
8301 20600 0.041
8301 20602 0.182
8302 9909 0.06
8302 9920 0.051
8302 9921 0.055
8304 8305 0.535
8304 9937 0.019
8304 9938 0.063
8305 8308 0.253
8305 9928 0.256
8305 9930 0.05
8306 27306 0.12
8306 27308 0.099
8306 27314 0.233
8307 8317 0.759
8307 9950 0.236
8307 9978 0.214
8308 8309 0.159
8310 8311 0.237
8310 27316 0.102
8312 27319 0.03
8312 27320 0.045
8313 27311 0.083
8314 9515 0.218
8314 28901 0.116
8315 8316 0.226
8315 9551 0.374
8317 8320 0.339
8317 9958 0.027
8317 9959 0.123
8318 27322 0.375
8318 29192 0.561
8320 9954 0.031
8320 9955 0.057
8321 10142 0.144
8321 10148 0.042
8322 10127 0.206
8322 10140 0.314
8323 9423 0.064
8323 9424 0.035
8323 28938 0.158
8324 13130 0.358
8324 13178 0.567
8325 8345 0.199
8325 20175 0.179
8325 20205 0.194
8326 8344 0.161
8326 20175 0.268
8326 20176 0.037
8327 20202 0.085
8327 20203 0.229
8327 20206 0.148
8328 20201 0.104
8328 20202 0.04
8328 20207 0.038
8329 8341 0.481
8329 20211 0.069
8329 20249 0.098
8330 31403 0.038
8330 31404 0.082
8331 8332 0.313
8331 8360 0.235
8331 31224 0.25
8332 8357 0.316
8332 31210 0.356
8333 10913 0.065
8334 19924 0.459
8334 19927 0.197
8334 20126 0.086
8335 9150 0.121
8335 9152 0.105
8336 20325 0.251
8336 20326 0.098
8337 21064 0.597
8337 21079 0.104
8337 21080 0.067
8338 20231 0.309
8338 20232 0.265
8339 11175 0.24
8339 20228 0.131
8340 11177 1.151
8340 20235 0.13
8341 20247 0.107
8341 20255 0.144
8342 20245 0.184
8342 20246 0.048
8342 20247 0.072
8343 20274 0.171
8343 20275 0.076
8343 20276 0.074
8344 20172 0.04
8344 31823 0.305
8345 20173 0.148
8345 31823 0.222
8346 29368 1.82
8347 8441 0.645
8347 28948 0.301
8349 23341 0.265
8350 11305 0.054
8350 30350 0.167
8351 11294 0.098
8351 30831 0.109
8351 30834 0.193
8353 27576 0.031
8353 29930 0.053
8353 30202 0.024
8354 29664 0.017
8354 30198 0.026
8355 10903 0.228
8356 10603 0.138
8356 29347 0.203
8357 10532 0.238
8358 10521 0.216
8358 10531 0.236
8358 30331 0.201
8359 10524 0.221
8359 10529 0.28
8360 31204 0.315
8361 10319 0.067
8361 10320 0.197
8361 31234 0.59
8362 10600 0.169
8363 10466 0.163
8363 10467 0.248
8363 31152 0.099
8364 19346 0.664
8364 19347 0.661
8365 21394 0.067
8365 21395 0.13
8365 21408 0.282
8366 21324 0.332
8366 21330 0.285
8367 21644 0.123
8367 21645 0.074
8367 26768 0.067
8368 21549 0.453
8368 21554 0.292
8369 22279 0.72
8369 22520 0.621
8370 22600 0.049
8370 22601 0.119
8370 32179 0.53
8371 23669 0.127
8371 23670 0.068
8371 23671 0.219
8372 23674 0.086
8372 23675 0.084
8373 17554 0.077
8373 17563 0.217
8373 17564 0.256
8374 17513 0.097
8374 17554 0.253
8374 27989 0.043
8375 8376 0.653
8375 8396 0.365
8375 27989 0.322
8376 8391 0.195
8376 8393 0.839
8377 17490 0.091
8377 17496 0.74
8377 17500 0.203
8378 8382 1.202
8378 21041 0.221
8378 26602 2.19
8379 21889 0.123
8379 21890 0.253
8380 26607 0.074
8380 26620 0.479
8380 26626 1.005
8381 19111 0.135
8381 19120 0.107
8381 19127 0.137
8382 21039 0.5
8382 26603 0.096
8383 21036 1.72
8383 21037 1.549
8384 21021 0.244
8384 21023 0.286
8384 21029 1.204
8385 21036 0.398
8386 8388 0.164
8386 18143 0.056
8386 31498 0.043
8387 18148 0.024
8387 31336 0.336
8387 31520 0.231
8388 17999 0.213
8388 31493 0.045
8389 17643 0.048
8389 17644 0.08
8389 18142 0.183
8390 25484 0.045
8390 25485 0.043
8390 25486 0.072
8391 17548 0.08
8391 17558 0.091
8392 17538 0.212
8392 17539 0.053
8392 17540 0.144
8393 17539 0.038
8393 17541 0.173
8394 17541 0.096
8394 17542 0.046
8394 17543 0.092
8395 17489 0.283
8395 17547 0.149
8396 17489 0.061
8396 17508 0.217
8397 17496 0.185
8397 17508 0.03
8397 27990 0.091
8398 17504 0.082
8398 17509 0.085
8398 28949 0.197
8399 23673 0.267
8399 23690 0.119
8399 23691 0.216
8400 23675 0.094
8400 23691 0.063
8400 23692 0.316
8401 31405 0.399
8402 8403 0.342
8403 31405 0.06
8404 8405 0.281
8404 29369 0.533
8405 20712 0.502
8405 30395 0.742
8406 20706 0.328
8407 30749 0.155
8407 30750 0.277
8409 25081 0.057
8410 19375 0.612
8410 32126 0.091
8411 26705 0.054
8411 26706 0.225
8411 26712 0.361
8411 32614 1.266
8412 26717 0.11
8413 21529 0.343
8413 21544 0.033
8413 32101 0.029
8414 18916 0.359
8414 18921 0.084
8414 18922 0.122
8415 18911 0.356
8415 18917 0.182
8415 18928 0.446
8415 18943 0.141
8416 18819 0.616
8416 18867 0.098
8416 18868 0.053
8417 18869 0.138
8417 18870 0.106
8418 8712 0.17
8418 16791 0.214
8419 8423 0.501
8419 16420 0.224
8420 8444 0.322
8420 32085 0.056
8420 32086 0.095
8421 8443 0.207
8422 23657 0.79
8422 25461 0.476
8422 29371 0.562
8423 8439 0.102
8424 25466 0.638
8424 31471 0.308
8424 31484 0.426
8424 32880 0.389
8425 10250 1.015
8425 27866 0.04
8426 18924 0.668
8426 18941 0.104
8427 18928 0.121
8428 18911 0.476
8429 18873 0.261
8429 18887 0.571
8430 18905 0.094
8430 18916 0.423
8431 31606 0.063
8431 31607 0.205
8432 18823 0.216
8432 18824 0.386
8432 31607 0.524
8433 18867 0.235
8433 18872 0.259
8433 18876 0.057
8433 18877 0.202
8434 19929 0.082
8435 25475 0.455
8435 29372 0.427
8435 31328 0.07
8435 31329 0.07
8435 31332 0.949
8435 31333 0.95
8436 23656 0.677
8436 25468 0.077
8436 29372 0.415
8437 29373 0.32
8438 16809 0.076
8438 16817 0.109
8439 17350 0.045
8439 17351 0.163
8440 16421 0.335
8441 8451 0.725
8441 29609 0.593
8442 13937 0.066
8443 28066 0.064
8444 21357 0.162
8444 21358 0.098
8445 8446 0.263
8445 21691 0.072
8445 21700 0.127
8446 26739 0.425
8447 22249 0.884
8447 22250 1.127
8448 8449 0.982
8448 8450 0.416
8449 22242 0.456
8449 22251 1.315
8450 22236 0.08
8450 32247 0.267
8451 9155 0.13
8451 9237 0.028
8452 8652 0.438
8452 8656 1.378
8452 29161 0.443
8453 8456 0.4
8453 8606 0.677
8454 8456 0.261
8454 17215 0.069
8454 17216 0.15
8455 8458 0.099
8455 17207 0.05
8455 17209 0.189
8456 8457 0.372
8457 8458 0.501
8457 8600 0.984
8459 8460 0.231
8459 17217 0.051
8459 17218 0.275
8461 8603 0.197
8461 8607 0.605
8461 17410 0.182
8461 17416 0.031
8462 8464 0.094
8462 17410 0.03
8462 17415 0.112
8463 8464 0.179
8463 8613 0.323
8464 17381 0.478
8465 8550 0.078
8465 17399 0.095
8466 8612 0.138
8466 8617 0.512
8466 17399 0.184
8467 8468 0.48
8467 8469 0.344
8467 8470 0.314
8467 8621 0.282
8468 8627 0.376
8468 17404 0.037
8468 17405 0.114
8469 17407 0.209
8469 17408 0.043
8470 8618 0.245
8470 8620 0.307
8471 8551 0.72
8471 8590 0.436
8471 32881 0.571
8472 8588 0.978
8472 8589 0.629
8472 8591 0.269
8473 8567 1.184
8473 19091 0.347
8473 19092 0.116
8474 19091 0.256
8474 19096 0.031
8475 8477 0.319
8475 19086 0.038
8475 19087 0.19
8476 8477 0.522
8476 8478 0.076
8476 19095 0.105
8477 19099 0.161
8478 19072 0.068
8478 19073 0.11
8479 19053 0.22
8479 19054 0.045
8479 19097 0.206
8480 18960 0.255
8480 19060 0.053
8480 31560 0.056
8481 18960 0.235
8481 18961 0.072
8481 18962 0.08
8482 8485 0.074
8482 18966 0.082
8482 29101 0.27
8483 19051 0.025
8483 19052 0.028
8483 19053 0.114
8484 19061 0.182
8484 31556 0.105
8484 31557 0.093
8485 18967 0.048
8485 19062 0.075
8486 19046 0.018
8486 19048 0.215
8486 31558 0.037
8487 8488 0.882
8487 8489 0.832
8487 8575 1.149
8488 8495 0.075
8488 22955 0.276
8489 8555 2.362
8489 22958 0.954
8490 8493 0.624
8490 22949 0.098
8490 22950 0.61
8491 8577 0.648
8491 22935 1.5
8491 22949 0.186
8492 8494 0.908
8492 22934 0.513
8492 22935 0.061
8492 22936 0.482
8493 8494 1.543
8493 22959 0.383
8494 8581 1.189
8495 8574 1.913
8495 22954 0.513
8496 8547 0.388
8496 8667 0.189
8496 8668 0.224
8497 8499 0.082
8497 8641 0.399
8497 13618 0.049
8498 8500 0.333
8498 8503 0.124
8498 29374 0.349
8499 13706 0.378
8499 13710 0.326
8500 8502 0.413
8500 13706 0.342
8501 13616 0.167
8501 13617 0.03
8501 13708 0.373
8502 8643 0.45
8502 13708 0.342
8503 13711 0.192
8504 12778 0.187
8504 12780 0.041
8504 28843 0.523
8505 16729 0.486
8505 16737 0.449
8506 8683 0.243
8506 8685 0.111
8506 26485 0.061
8507 8508 0.229
8507 8695 0.301
8507 23141 0.108
8508 8696 0.391
8508 27042 0.243
8509 8686 0.296
8510 8699 0.161
8510 25379 0.101
8511 8512 0.79
8511 8548 0.351
8511 23467 0.05
8512 8548 1.083
8512 26552 0.072
8512 29375 0.474
8513 8514 0.633
8513 23441 0.049
8513 23454 0.254
8514 23421 0.248
8514 23453 0.194
8515 8516 0.261
8515 8632 0.124
8515 17522 0.031
8516 8517 0.692
8516 25597 0.075
8517 8629 0.193
8517 8635 0.475
8518 23700 0.07
8518 23704 0.171
8518 23705 0.063
8519 8524 0.104
8519 8525 0.461
8519 8638 0.179
8519 23722 0.052
8520 23716 0.735
8520 23717 0.061
8520 23731 0.143
8521 23554 0.147
8521 23733 0.08
8521 31691 0.389
8522 23553 0.07
8522 23554 0.177
8522 29376 0.511
8523 8525 0.216
8523 8634 0.25
8523 23720 0.114
8523 23740 0.286
8524 23742 0.108
8524 30332 0.129
8525 30332 0.127
8526 23732 0.165
8526 23733 0.091
8526 23739 0.812
8527 17559 0.06
8527 17560 0.17
8527 17561 0.07
8528 25455 0.462
8528 25456 0.27
8528 29371 0.424
8529 8631 0.453
8529 20563 0.18
8530 8531 0.274
8530 8687 0.19
8530 8688 0.131
8531 8532 0.237
8531 8693 0.132
8531 30879 0.348
8532 30880 0.283
8533 8534 0.101
8533 8536 0.113
8533 30882 0.169
8534 8535 0.199
8534 30881 0.076
8535 8694 0.115
8535 30879 0.124
8536 8537 0.16
8536 8690 0.256
8538 8539 0.281
8538 8708 0.432
8538 8709 1.01
8539 8706 0.03
8539 8707 0.503
8540 8704 0.514
8540 29475 0.923
8541 8543 0.496
8541 21625 0.072
8541 21628 0.175
8542 8796 0.112
8542 21622 0.051
8542 21623 0.124
8543 8544 0.461
8543 8796 0.761
8544 21617 0.238
8544 21618 0.073
8545 21613 0.034
8545 21628 0.164
8545 21630 0.104
8546 23862 0.049
8546 23863 0.058
8546 29377 0.711
8547 14826 0.366
8549 17209 0.037
8549 17214 0.205
8551 8588 0.462
8552 18123 0.989
8552 18888 1.618
8554 8564 1.446
8554 10240 0.087
8554 31764 0.201
8554 31766 0.262
8555 8579 0.433
8556 8570 1.045
8556 31575 0.106
8557 27871 2.936
8558 26715 0.067
8558 26735 0.67
8558 28416 0.095
8559 8560 2.023
8559 27870 2.399
8560 10271 2.051
8560 27869 2.564
8561 10231 3.126
8562 8563 0.523
8562 26804 0.399
8562 26808 0.457
8563 27903 0.054
8565 10261 0.983
8565 22981 1.175
8565 27874 2.406
8566 18956 0.055
8566 18957 0.371
8566 29098 1.158
8567 19103 0.262
8568 31561 1.008
8569 8572 1.97
8569 20830 1.248
8569 26680 1.37
8570 26676 0.021
8571 19077 0.149
8572 20826 1.126
8572 26683 0.072
8573 23005 0.038
8573 23006 0.05
8573 23007 0.146
8573 23017 0.928
8574 22956 0.278
8575 23008 0.633
8576 18633 0.09
8577 19555 1.0
8577 22951 0.486
8578 18547 0.083
8578 18550 0.416
8578 28282 0.036
8579 22960 0.725
8580 18571 0.054
8580 18572 0.061
8580 18573 0.036
8581 8582 0.924
8581 22940 0.567
8582 22936 0.545
8583 20217 0.15
8583 20353 0.075
8584 18408 0.096
8584 18409 0.199
8584 18410 0.052
8585 8586 0.787
8587 18300 0.603
8587 18320 0.118
8588 17912 0.1
8588 17951 0.071
8589 17907 0.053
8589 17908 0.074
8590 17885 0.129
8590 17886 0.034
8591 31450 0.107
8591 31553 0.14
8592 28831 0.422
8593 17968 0.044
8593 18132 0.316
8594 17939 0.111
8594 31530 0.058
8594 31531 0.272
8595 25443 1.248
8595 25460 0.04
8595 31697 0.378
8596 17164 0.679
8596 17232 0.201
8596 17233 0.039
8597 17230 0.038
8598 17086 0.184
8598 17087 0.062
8599 17203 0.044
8599 17204 0.025
8599 17205 0.032
8599 17208 0.246
8600 19613 0.122
8601 17226 0.027
8601 17227 0.118
8601 31672 0.273
8602 17416 0.09
8602 17417 0.065
8602 17418 0.075
8603 32772 0.182
8604 8605 0.275
8604 17415 0.102
8604 32772 0.075
8606 17371 0.074
8606 17372 0.376
8607 17386 0.126
8607 17387 0.045
8608 17382 0.053
8608 17383 0.071
8608 17386 0.061
8609 17220 0.096
8609 17427 0.046
8610 23690 0.118
8611 23696 0.098
8611 23697 0.079
8611 23698 0.182
8612 8613 0.05
8613 17414 0.126
8614 20561 0.124
8614 20562 0.079
8615 17475 0.08
8615 17495 0.177
8615 29379 0.695
8616 12754 0.188
8616 12764 0.062
8617 8618 0.172
8618 17403 0.361
8619 17403 0.035
8619 17404 0.151
8620 8621 0.487
8622 23707 0.042
8622 23708 0.177
8623 16798 0.025
8623 16799 0.028
8624 17519 0.033
8624 17520 0.037
8624 29379 0.514
8625 23703 0.046
8625 23704 0.102
8626 23601 0.078
8626 23606 0.066
8627 17374 0.063
8627 17375 0.229
8628 17409 0.045
8629 31649 0.096
8630 12959 0.093
8631 20567 0.024
8632 8633 0.385
8633 25597 0.194
8633 31648 0.184
8634 23723 0.217
8635 31641 0.023
8636 23547 0.068
8636 23548 0.19
8636 29376 0.409
8637 16358 0.348
8637 16369 0.035
8637 16370 0.108
8638 23721 0.126
8638 23745 0.239
8639 23474 0.598
8639 23724 0.401
8639 23764 0.271
8640 30883 0.279
8641 13705 0.047
8641 30396 0.57
8642 15276 0.074
8642 15277 0.089
8642 16345 0.187
8643 13614 0.066
8644 26561 0.119
8644 26562 0.058
8645 23422 0.113
8645 23423 0.243
8645 31646 0.027
8646 16192 0.087
8646 16193 0.061
8646 16210 0.039
8647 23418 0.356
8647 23419 0.042
8647 29380 0.509
8648 23415 0.086
8648 23416 0.102
8648 23782 0.108
8649 23405 0.379
8649 23406 0.107
8649 29380 0.404
8650 23402 0.079
8650 25539 0.622
8651 15271 0.037
8651 15289 0.21
8652 14772 0.497
8653 8655 0.204
8653 23388 0.23
8653 23389 0.084
8654 25539 0.122
8654 25540 0.028
8654 25542 0.108
8654 25543 0.038
8655 23385 0.104
8655 23386 0.23
8657 15290 0.033
8657 26924 0.113
8659 14797 0.048
8660 16740 0.16
8660 16745 0.059
8661 14800 0.1
8661 14801 0.094
8661 14803 0.041
8662 23351 0.155
8662 23352 0.033
8662 30358 0.363
8662 32734 0.5
8663 8665 0.098
8663 15093 0.086
8663 15094 0.077
8664 14476 0.042
8665 27202 0.02
8666 32746 0.194
8667 14195 0.131
8667 14196 0.057
8669 23867 0.274
8669 23873 0.921
8670 27249 0.07
8670 29377 0.265
8671 15362 0.196
8671 15423 0.162
8672 15413 0.064
8672 15419 0.026
8672 15420 0.069
8673 23857 0.044
8673 31624 0.289
8674 26950 0.19
8675 8679 0.104
8675 13916 0.062
8675 27755 0.141
8676 8678 0.205
8676 13899 0.029
8676 13900 0.03
8677 8680 0.201
8678 8681 0.24
8678 13912 0.291
8679 13912 0.456
8680 8682 0.228
8680 13894 0.111
8681 13901 0.094
8681 13902 0.105
8682 13904 0.047
8682 14100 0.147
8683 8684 0.257
8684 26480 0.075
8684 26483 0.095
8685 29381 0.147
8687 14076 0.123
8687 14077 0.084
8688 14010 0.06
8688 14011 0.111
8689 8690 0.101
8689 14075 0.09
8691 8696 0.396
8691 23135 0.152
8691 23136 0.029
8692 26489 0.541
8693 8694 0.497
8694 30797 0.316
8696 27044 0.384
8697 23143 0.229
8697 23144 0.063
8697 26425 0.298
8698 30882 0.178
8700 11001 0.204
8700 11002 0.064
8701 21874 0.066
8702 28416 0.55
8702 28423 0.444
8703 21858 0.575
8703 21859 0.612
8704 21896 0.391
8704 21897 0.041
8705 21620 0.344
8705 21621 0.096
8705 21655 0.067
8706 22259 0.484
8707 22632 0.133
8708 22635 0.057
8708 28053 0.075
8709 22252 0.193
8709 22253 0.116
8710 22604 0.121
8710 32178 0.067
8710 32179 0.069
8710 32180 0.067
8711 22484 0.257
8711 22491 0.045
8712 16794 0.581
8712 16847 0.355
8713 8794 0.291
8713 28238 0.294
8714 13572 0.057
8714 13725 0.049
8715 8769 0.426
8715 14360 0.05
8715 14361 0.181
8716 8717 0.267
8716 8770 0.301
8716 8771 0.293
8717 8733 0.235
8717 8768 0.79
8718 8719 1.367
8718 8744 3.172
8718 8797 1.945
8719 20833 2.375
8719 20834 0.857
8720 8722 0.849
8720 19610 0.843
8721 8723 0.276
8721 18223 0.502
8722 8760 0.979
8722 18223 0.042
8723 18226 0.555
8724 8737 0.883
8724 8750 0.819
8724 8751 0.839
8725 8775 0.405
8725 32323 0.149
8726 8727 0.141
8726 8776 0.164
8726 8778 0.127
8727 30832 0.079
8727 30884 0.091
8728 28243 0.099
8729 30592 0.088
8729 30597 0.163
8729 30886 0.16
8730 11243 0.043
8730 11248 0.193
8730 29382 0.155
8731 8784 0.117
8733 8768 0.524
8734 8753 0.685
8735 8755 0.926
8735 8758 0.825
8735 19610 0.453
8736 8764 0.181
8736 12923 0.028
8736 12924 0.204
8736 12954 0.462
8737 31789 0.45
8737 31791 0.209
8738 22595 0.077
8738 22596 0.076
8739 26801 0.419
8740 27896 0.884
8741 26803 0.047
8741 26805 0.052
8741 26806 0.231
8742 29383 1.533
8743 8744 1.594
8743 20835 0.071
8744 20836 1.402
8745 19102 0.355
8746 29383 1.595
8747 20839 0.861
8747 20843 0.107
8747 26655 0.447
8748 20841 0.113
8748 26657 0.678
8749 26653 0.05
8749 26654 0.03
8750 20382 0.263
8750 20387 0.057
8751 20375 0.122
8751 20376 0.13
8751 20377 0.099
8752 10264 0.241
8752 10265 0.042
8753 29384 1.26
8754 19590 0.083
8755 19609 0.133
8756 8757 0.516
8757 17904 0.243
8757 17905 0.267
8758 19612 0.028
8759 18198 0.096
8759 18210 0.074
8760 18221 0.631
8761 22742 0.08
8761 22766 0.162
8762 8763 0.906
8765 13588 0.041
8765 13589 0.046
8765 26312 0.341
8765 26315 0.221
8766 13586 0.099
8766 13587 0.071
8767 14358 0.071
8767 14359 0.051
8767 14445 0.071
8769 14439 0.187
8770 14467 0.067
8770 14468 0.13
8771 14474 0.061
8771 14475 0.163
8772 13073 0.062
8772 13074 0.051
8772 30889 0.055
8773 13075 0.035
8773 13076 0.034
8774 13061 0.172
8774 27640 0.275
8775 32340 0.268
8776 8777 0.199
8777 30884 0.128
8778 11282 0.137
8778 30653 0.23
8778 30822 0.14
8779 32930 0.015
8780 32324 0.224
8780 32325 0.104
8781 11295 0.047
8781 28243 0.185
8782 11225 0.047
8782 11238 0.064
8782 11258 0.084
8783 8784 0.08
8783 11242 0.115
8783 11243 0.119
8783 30590 0.131
8785 11266 0.162
8785 30397 0.222
8785 30590 0.332
8786 11278 0.056
8786 30397 0.151
8786 30835 0.163
8787 11263 0.023
8787 11264 0.183
8787 30885 0.103
8788 11240 0.115
8788 11251 0.087
8788 30886 0.168
8789 11254 0.067
8789 11267 0.113
8789 30888 0.133
8790 21708 0.823
8790 21764 0.055
8790 21768 0.217
8791 21727 0.058
8791 21728 0.172
8791 26780 0.067
8792 8793 0.058
8793 22590 0.138
8794 8912 0.062
8794 32883 0.168
8795 8911 0.061
8795 8913 0.089
8796 21629 0.144
8797 26679 1.021
8797 29378 2.152
8798 8863 0.081
8798 8864 0.121
8798 8865 0.293
8798 8866 0.081
8799 8866 0.095
8799 30890 0.067
8799 30892 0.133
8800 8868 0.128
8800 8869 0.144
8800 30891 0.101
8801 16880 0.037
8801 16890 0.083
8801 17139 0.196
8802 8807 0.094
8802 26979 0.126
8803 8809 0.336
8803 8856 0.187
8803 30893 0.168
8804 8809 0.111
8804 13924 0.057
8804 13925 0.116
8805 8806 0.106
8805 13923 0.049
8805 13926 0.212
8806 13922 0.105
8806 30893 0.279
8807 14122 0.111
8808 8809 0.194
8808 8855 0.198
8810 8849 0.543
8811 8842 0.593
8811 8843 0.367
8811 23414 0.264
8811 27239 0.344
8812 25291 0.115
8812 25293 0.357
8813 8814 0.927
8813 8815 1.058
8813 8816 1.628
8814 8817 0.073
8814 24700 0.469
8815 8872 1.073
8815 8873 0.635
8816 8874 0.877
8816 8875 1.732
8817 24751 0.161
8817 24752 0.047
8818 24787 0.302
8818 24799 0.064
8819 8876 0.35
8819 24758 0.094
8819 24759 0.057
8819 24760 0.262
8820 8821 0.141
8820 8822 0.305
8820 8861 0.262
8821 8822 0.391
8822 8859 0.166
8822 8860 0.128
8823 26063 0.226
8823 28980 0.018
8824 8826 0.536
8824 29021 0.083
8824 29022 0.05
8825 8826 0.639
8825 29016 0.042
8825 29485 0.422
8826 8884 0.227
8827 23306 0.424
8827 23310 0.153
8828 27899 1.979
8829 32133 0.224
8829 32134 0.129
8829 32136 0.405
8830 8833 0.897
8830 26083 0.021
8830 26084 0.153
8831 26081 0.178
8831 26082 0.096
8831 26091 0.706
8831 32495 0.281
8832 8833 0.356
8832 26062 0.054
8832 26080 0.145
8833 26072 0.708
8834 31420 0.206
8835 16894 0.041
8835 16895 0.087
8835 17039 0.263
8836 16889 0.062
8836 16892 0.04
8836 16893 0.16
8837 17018 0.076
8837 17019 0.083
8837 17090 0.058
8838 16882 0.136
8839 16883 0.057
8839 16898 0.077
8839 28340 0.021
8840 16896 0.173
8840 17142 0.054
8840 17143 0.024
8841 23414 0.082
8841 27602 0.119
8842 27234 0.129
8842 27240 0.103
8843 23413 0.033
8844 27237 0.028
8844 27238 0.034
8844 27239 0.05
8845 27241 0.4
8845 27245 1.072
8845 27246 0.236
8846 23919 0.357
8847 27245 0.071
8847 31662 0.314
8848 25266 0.031
8848 25267 0.042
8848 25271 0.367
8849 14053 0.226
8849 14054 0.227
8850 23298 0.087
8850 23299 0.222
8850 31620 0.805
8851 14834 0.501
8851 16609 0.115
8851 16610 0.09
8852 8854 0.253
8852 14831 0.034
8853 16608 0.038
8853 16613 0.121
8853 29029 0.032
8853 30742 0.278
8854 13943 0.027
8854 13944 0.042
8854 14122 0.304
8855 14112 0.061
8855 14113 0.084
8855 14124 0.034
8856 26979 0.153
8857 13921 0.042
8857 13922 0.054
8857 13989 0.075
8858 13930 0.098
8858 13931 0.147
8858 16521 0.137
8860 13009 0.149
8864 30840 0.05
8866 11280 0.055
8866 30843 0.132
8867 30602 0.04
8867 30892 0.076
8868 30601 0.059
8869 11269 0.016
8869 11286 0.087
8870 8871 0.749
8870 25062 0.299
8870 25072 0.067
8872 8873 1.662
8872 32061 0.055
8873 24771 0.09
8874 24703 0.307
8874 24704 0.201
8875 24705 0.03
8875 24706 0.064
8876 32044 0.145
8876 32045 0.092
8877 24686 0.022
8877 24687 0.07
8877 32047 0.124
8878 24742 0.054
8878 24743 0.048
8878 29018 0.088
8879 24786 0.116
8879 24787 0.347
8879 28993 0.384
8880 24807 0.045
8881 24798 0.082
8881 24799 0.095
8881 28992 0.055
8882 24727 0.042
8882 24736 0.09
8883 24746 0.061
8883 32046 0.056
8884 24720 0.052
8884 24721 0.027
8885 21958 0.23
8886 8887 0.461
8886 21957 0.206
8887 21967 0.411
8888 8889 0.027
8888 8909 0.144
8889 8890 0.029
8890 8902 0.968
8891 8892 0.026
8891 8900 0.664
8892 8893 0.022
8893 29849 0.054
8894 8895 0.021
8894 8899 0.239
8895 8896 0.02
8896 8903 0.984
8897 8906 0.01
8899 8907 0.283
8899 30095 0.29
8900 8909 0.084
8900 32955 0.194
8901 8903 0.185
8902 8904 0.026
8902 31399 0.053
8904 8905 0.216
8904 30208 0.074
8906 29849 0.351
8907 32945 0.427
8908 28572 0.077
8909 31396 0.873
8910 22516 0.362
8913 22327 0.175
8914 8923 0.248
8916 28167 0.085
8917 28167 0.015
8918 8919 0.059
8921 8922 0.094
8923 8924 0.278
8927 8929 0.201
8928 28574 0.187
8931 27523 0.227
8932 30874 0.036
8934 8935 0.208
8934 8936 0.084
8936 8937 0.158
8937 28909 0.037
8938 8939 0.182
8938 28909 0.076
8941 8942 0.048
8944 8945 0.488
8944 8949 0.03
8945 8950 0.201
8946 8950 0.209
8947 8950 0.092
8948 8949 0.035
8949 8953 3.492
8951 8952 0.25
8951 8953 0.069
8952 8954 0.156
8954 8955 0.109
8955 8956 0.184
8956 8957 0.148
8957 28631 0.073
8958 8974 0.33
8958 28630 0.057
8959 8973 0.118
8959 28642 0.026
8960 8961 0.161
8960 28642 0.102
8961 28640 0.126
8962 8963 0.192
8962 28640 0.05
8963 28641 0.095
8964 8965 0.305
8964 28641 0.103
8965 8966 0.206
8966 8967 0.132
8967 8968 0.209
8968 8969 0.209
8969 28643 0.054
8970 8971 0.222
8970 28643 0.105
8971 8972 0.288
8972 8973 0.185
8974 28632 0.04
8975 8976 0.202
8975 28632 0.031
8976 8977 0.178
8977 28634 0.037
8978 28635 0.018
8978 28636 0.073
8979 8983 0.44
8979 28636 0.019
8980 28633 0.274
8980 28635 0.18
8981 28641 0.14
8981 28644 0.102
8983 8984 0.138
8984 8986 0.182
8985 8986 0.346
8985 8987 0.12
8987 28840 0.107
8988 8989 0.061
8988 28637 0.086
8989 8990 0.142
8990 28638 0.14
8991 8992 0.226
8991 28638 0.032
8992 8994 0.342
8993 8994 0.09
8993 8995 0.21
8995 28639 0.047
8996 8997 0.078
8996 28639 0.132
8997 28849 0.052
8998 8999 0.154
8998 9002 0.051
9000 28850 0.164
9000 29047 0.071
9001 28637 0.194
9001 28850 0.037
9002 28849 0.029
9003 9004 0.034
9003 9006 0.193
9004 9005 0.064
9006 9007 0.038
9007 9008 0.021
9007 30398 0.419
9008 9009 0.131
9009 9010 0.052
9009 9012 0.045
9010 9011 0.052
9014 9015 0.27
9016 9022 0.22
9017 9018 0.165
9017 28645 0.045
9018 9019 0.093
9019 28939 0.139
9020 9021 0.158
9021 28941 0.103
9022 28848 0.041
9023 28848 0.082
9024 9025 0.111
9025 9026 0.237
9026 9027 0.327
9027 28847 0.034
9028 9029 0.18
9028 28847 0.114
9029 9030 0.14
9030 9031 0.072
9031 9032 0.111
9032 9033 0.086
9033 9034 0.037
9034 9051 0.133
9035 9036 0.155
9035 28645 0.183
9036 9045 0.246
9037 9038 0.18
9037 28648 0.177
9038 28651 0.043
9039 28651 0.176
9039 28653 0.176
9040 28648 0.445
9040 28650 0.087
9041 9043 0.189
9041 28653 0.031
9042 28649 0.023
9042 28650 0.073
9043 28652 0.271
9044 28646 0.018
9044 28649 0.214
9045 28654 0.186
9046 9047 0.105
9046 28654 0.041
9047 9048 0.231
9048 9049 0.08
9049 9050 0.251
9050 28659 0.021
9051 9052 0.212
9052 9115 0.24
9053 28854 0.531
9054 9055 0.19
9054 28941 0.396
9055 9056 0.237
9056 9057 0.313
9057 9058 0.278
9058 9059 0.287
9059 9060 0.363
9060 9061 0.127
9061 9062 0.016
9062 28940 0.781
9063 28942 0.267
9064 9065 0.148
9064 28655 0.018
9065 9066 0.035
9066 9074 0.181
9067 9068 0.029
9067 28655 0.17
9068 9069 0.258
9069 28944 0.072
9070 9071 0.042
9070 28944 0.188
9070 28945 0.299
9071 9077 0.358
9072 9073 0.046
9072 9074 0.351
9073 28942 0.026
9075 9085 0.225
9075 28657 0.014
9076 28657 0.031
9076 28658 0.029
9077 28658 0.03
9078 9079 0.014
9078 9118 0.148
9078 28657 0.515
9079 9080 0.203
9080 9081 0.04
9081 9082 0.228
9082 9083 0.15
9083 9084 0.178
9084 9085 0.334
9086 28659 0.254
9086 28662 0.061
9087 9088 0.2
9087 28661 0.144
9088 9089 0.173
9089 9090 0.117
9090 28660 0.117
9091 9092 0.142
9091 28665 0.319
9092 28664 0.039
9093 9094 0.111
9093 28660 0.041
9094 9095 0.114
9095 28668 0.063
9096 9097 0.106
9096 9101 0.233
9097 9098 0.1
9098 9099 0.098
9099 28665 0.016
9100 28667 0.144
9100 28668 0.166
9101 28667 0.034
9102 9117 0.246
9103 9104 0.095
9103 9117 0.143
9104 9105 0.186
9105 9106 0.186
9106 9107 0.214
9107 9108 0.353
9108 9113 0.294
9109 9116 0.18
9109 32426 0.16
9110 9111 0.511
9110 32426 0.088
9111 9112 0.163
9112 9113 0.27
9114 9115 0.119
9114 9128 0.741
9116 9117 0.166
9116 29368 0.416
9118 28656 0.025
9119 28656 0.325
9119 28670 0.425
9120 28946 0.555
9120 28952 0.034
9121 9122 0.157
9123 9124 0.073
9123 9138 0.092
9125 9126 0.038
9126 9127 0.095
9127 9128 0.039
9129 9130 0.208
9129 9140 0.218
9130 9131 0.062
9131 9132 0.209
9132 9133 0.211
9133 9134 0.311
9134 9135 0.325
9135 28669 0.136
9136 9137 0.201
9136 28669 0.189
9137 9138 0.027
9138 9139 0.025
9139 9140 0.223
9141 9142 0.148
9141 28948 0.216
9142 9143 0.145
9143 9144 0.392
9144 9145 0.619
9145 9146 0.131
9146 9147 0.152
9147 9148 0.301
9149 9150 0.088
9149 9156 0.168
9151 9156 0.157
9151 28947 0.598
9152 9153 0.239
9153 28947 0.073
9154 9155 0.065
9154 28947 0.065
9157 9158 0.248
9157 28671 0.031
9158 28672 0.143
9159 9160 0.145
9159 28672 0.05
9160 9161 0.107
9161 9162 0.148
9162 9163 0.223
9163 28670 0.069
9164 28670 0.069
9165 28673 0.096
9165 28864 0.095
9166 9167 0.246
9166 28673 0.133
9167 9168 0.088
9168 28671 0.097
9169 9170 0.236
9169 28865 0.059
9171 9172 0.138
9172 9173 0.053
9176 9177 0.187
9178 28865 0.18
9180 28600 0.56
9181 28674 0.11
9182 28602 0.258
9182 28674 0.158
9184 9185 0.076
9184 9189 0.131
9184 9190 0.355
9185 9186 0.116
9186 9187 0.123
9187 9188 0.198
9188 9189 0.055
9190 9191 0.136
9191 9192 0.054
9192 9193 0.157
9193 9194 0.151
9194 9215 0.088
9195 9196 0.15
9195 28675 0.027
9197 9198 0.109
9197 9212 0.109
9198 9199 0.208
9200 9201 0.118
9200 9212 0.065
9202 9203 0.147
9202 9212 0.199
9203 9204 0.186
9204 9205 0.097
9205 9211 0.041
9206 9211 0.192
9206 9231 0.063
9207 9208 0.159
9207 32427 0.204
9208 32428 0.281
9209 9213 0.154
9209 9214 0.075
9210 9214 0.334
9210 30215 0.123
9211 32428 0.086
9212 9213 0.133
9215 9216 0.089
9216 9217 0.125
9217 9223 0.02
9218 9219 0.246
9218 9223 0.052
9219 9220 0.335
9220 9221 0.23
9221 9226 0.065
9222 9223 0.196
9222 9224 0.064
9224 9225 0.062
9224 9226 0.394
9226 9227 0.02
9227 9230 0.41
9228 9293 0.156
9229 9230 0.288
9231 9232 0.411
9232 9233 0.203
9233 9234 0.045
9234 9235 0.349
9236 29606 0.16
9236 29609 0.323
9237 28948 0.247
9238 28602 0.086
9239 9240 0.051
9239 9243 0.167
9239 9244 0.285
9240 9241 0.079
9241 9242 0.19
9242 9243 0.155
9244 9245 0.18
9245 9260 0.13
9246 9248 0.277
9246 28676 0.041
9247 9249 0.19
9248 9249 0.035
9249 32425 0.137
9250 9251 0.112
9250 9257 0.164
9251 28676 0.122
9252 9254 0.145
9252 9258 0.128
9253 9256 0.39
9253 9259 0.026
9253 9260 0.066
9254 9256 0.022
9254 28677 0.033
9255 9257 0.089
9255 28677 0.049
9258 9259 0.118
9261 9262 0.34
9262 9263 0.123
9263 9264 0.07
9264 9265 0.182
9265 9266 0.095
9266 10056 0.023
9267 9268 0.142
9268 9269 0.269
9271 9275 0.194
9271 9276 0.041
9272 9276 0.023
9273 9275 0.106
9274 9275 0.025
9274 29385 0.074
9276 9781 0.778
9277 9278 0.037
9277 9292 0.042
9278 9279 0.072
9279 9280 0.215
9280 9281 0.148
9281 9294 0.026
9282 9291 0.026
9282 9294 0.315
9283 9285 0.313
9283 9291 0.039
9284 9290 0.05
9284 9291 0.119
9285 9286 0.242
9286 9287 0.221
9287 9299 0.301
9289 9290 0.208
9290 9293 0.349
9292 9293 0.185
9295 9296 0.205
9296 9297 0.083
9297 9307 0.029
9298 9307 0.055
9298 9308 0.158
9299 9308 0.026
9300 9306 0.133
9300 9307 0.352
9301 9302 0.237
9301 9306 0.255
9302 9305 0.295
9303 9306 0.153
9303 28679 0.053
9304 9305 0.057
9304 28679 0.034
9305 9309 0.305
9309 9310 0.17
9310 9311 0.422
9311 9312 0.284
9312 9313 0.26
9313 28678 0.408
9314 9315 0.316
9314 28678 0.065
9315 9316 0.095
9317 9318 0.221
9317 9321 0.233
9318 9319 0.262
9319 9320 0.162
9320 28680 0.128
9321 28680 0.073
9322 9323 0.142
9322 28680 0.144
9323 9324 0.386
9324 9325 0.269
9325 9326 0.208
9326 9328 0.051
9327 9328 0.167
9329 9330 0.179
9329 28681 0.155
9330 9331 0.143
9331 9332 0.047
9332 9334 0.349
9333 9334 0.045
9333 9347 0.14
9334 9335 0.252
9335 28873 0.18
9336 9338 0.231
9336 28873 0.13
9337 9346 0.092
9337 28873 0.115
9338 28681 0.086
9339 9340 0.106
9339 9346 0.154
9340 9341 0.202
9341 28872 0.02
9342 9343 0.068
9342 28872 0.241
9343 9344 0.212
9344 9345 0.284
9345 9346 0.305
9347 9348 0.339
9348 9349 0.286
9349 9350 0.152
9350 9351 0.142
9351 9360 0.266
9352 9359 0.102
9352 9360 0.045
9353 9354 0.261
9353 9360 0.042
9354 9383 0.249
9355 9362 0.066
9355 28682 0.087
9356 9357 0.069
9356 9361 0.053
9357 9358 0.142
9358 9359 0.285
9361 9362 0.244
9361 28682 0.215
9363 9364 0.329
9364 9365 0.24
9364 28874 0.531
9365 9377 0.035
9366 9367 0.154
9366 9377 0.207
9367 9368 0.164
9368 9374 0.134
9369 9370 0.263
9369 9374 0.014
9371 9372 0.405
9372 9373 0.138
9373 28683 0.169
9374 28683 0.14
9375 28606 0.493
9375 29386 0.042
9376 9377 0.125
9376 28606 0.54
9376 29386 0.398
9378 9379 0.447
9378 9380 0.229
9379 9385 0.384
9381 9382 0.55
9383 28874 0.057
9384 9386 0.072
9386 9387 0.197
9387 9388 0.127
9389 9390 0.138
9389 9403 0.168
9390 9391 0.158
9391 9392 0.111
9391 9414 0.498
9392 9412 0.31
9393 9394 0.095
9393 9412 0.106
9394 9395 0.115
9395 9396 0.158
9396 9397 0.182
9397 9398 0.127
9398 9399 0.185
9399 9413 0.019
9400 9401 0.12
9400 9413 0.169
9401 9414 0.05
9402 9414 0.091
9402 9415 0.183
9403 9416 0.061
9404 9405 0.074
9404 9416 0.069
9405 9406 0.159
9408 9409 0.096
9409 9410 0.114
9410 9411 0.119
9412 9413 0.393
9415 9416 0.458
9417 9418 0.022
9419 28901 0.261
9421 27272 0.182
9421 28901 0.127
9422 27272 0.078
9424 9425 0.156
9425 9426 0.137
9426 9427 0.142
9428 9438 0.036
9429 9430 0.155
9429 9438 0.041
9430 9436 0.014
9431 9432 0.098
9431 9435 0.131
9432 9434 0.074
9433 9434 0.052
9435 9436 0.046
9435 28938 0.268
9436 9437 0.159
9439 9440 0.653
9440 9441 0.739
9442 9443 0.053
9442 9445 0.108
9443 9444 0.178
9447 9448 0.568
9449 9478 0.578
9450 9451 0.266
9450 9458 0.292
9451 9452 0.236
9452 9453 0.023
9453 9454 0.184
9453 9471 0.132
9454 28685 0.078
9455 9459 0.088
9455 28685 0.023
9456 9457 0.178
9456 28685 0.185
9457 9458 0.075
9459 9460 0.03
9460 9461 0.142
9461 9462 0.233
9462 9464 0.041
9463 9464 0.019
9463 9466 0.133
9464 9465 0.179
9465 9478 0.679
9466 9467 0.108
9466 28685 0.527
9467 9468 0.265
9467 9477 0.103
9468 9469 0.019
9468 9472 0.323
9469 9470 0.236
9470 9471 0.195
9472 28684 0.14
9473 9474 0.207
9473 28684 0.072
9474 9475 0.207
9475 9476 0.173
9476 9477 0.17
9479 9480 0.303
9480 9481 0.186
9481 9483 0.074
9482 9483 0.047
9483 9484 0.024
9484 9485 0.105
9485 9486 0.057
9486 9487 0.051
9487 9488 0.071
9488 9489 0.163
9489 9490 0.102
9490 9491 0.177
9491 9492 0.131
9492 9493 0.264
9493 9494 0.124
9495 9496 0.097
9496 9497 0.085
9497 9498 0.057
9498 9540 0.192
9499 9540 0.012
9499 9553 0.036
9500 9553 0.029
9501 9502 0.083
9502 9554 0.179
9503 9504 0.155
9503 9554 0.019
9504 9505 0.19
9506 9507 0.183
9507 9508 0.068
9508 9509 0.179
9510 9511 0.246
9510 9523 0.125
9512 9536 0.104
9513 9514 0.14
9513 9539 0.157
9515 9516 0.042
9516 9517 0.118
9517 9518 0.072
9518 9519 0.112
9519 9520 0.109
9520 9539 0.06
9521 9522 0.177
9522 9523 0.144
9524 9653 0.126
9525 9526 0.12
9527 9528 0.087
9528 9529 0.062
9529 9530 0.104
9530 9531 0.047
9532 9533 0.171
9533 9534 0.221
9535 9536 0.191
9537 9538 0.077
9537 9540 0.264
9538 9539 0.225
9541 9542 0.038
9541 28891 0.083
9542 9543 0.182
9542 9544 0.202
9543 9547 0.293
9544 9545 0.212
9545 9546 0.223
9546 9547 0.053
9548 9550 0.043
9549 9551 0.1
9550 29367 0.089
9552 9553 0.407
9552 9554 0.18
9552 9555 0.043
9556 9557 0.171
9557 9558 0.181
9558 9559 0.269
9559 9560 0.203
9560 9561 0.255
9561 9562 0.347
9562 9565 0.284
9563 9564 0.25
9563 28887 0.096
9564 9565 0.021
9566 9567 0.255
9566 28887 0.203
9567 9568 0.233
9568 28686 0.352
9569 9570 0.255
9569 9571 0.233
9571 9601 0.03
9572 9582 0.18
9572 9601 0.182
9573 9579 0.194
9573 9583 0.539
9574 9575 0.189
9574 9576 0.145
9576 9577 0.054
9577 9578 0.1
9578 9580 0.149
9580 9581 0.086
9581 9593 0.197
9582 9583 0.031
9583 9584 0.041
9583 9591 0.169
9584 9585 0.066
9585 9586 0.361
9586 9587 0.058
9587 9588 0.09
9587 28889 0.573
9588 28686 0.051
9589 9590 0.182
9589 28686 0.055
9590 28891 0.049
9591 9592 0.117
9592 9607 0.168
9593 9610 0.105
9594 9595 0.127
9595 9596 0.114
9596 9597 0.14
9597 9598 0.146
9598 9599 0.057
9599 9600 0.115
9600 9601 0.053
9602 9605 0.257
9602 9608 0.344
9603 9604 0.301
9603 9636 0.039
9605 9606 0.059
9606 9681 0.056
9609 9636 0.242
9611 9612 0.566
9613 9614 0.217
9613 28687 0.236
9614 9615 0.163
9615 9616 0.229
9616 9617 0.03
9617 9690 0.018
9618 9619 0.06
9618 9623 0.153
9619 9620 0.099
9620 9621 0.106
9621 9622 0.039
9622 28687 0.036
9624 9625 0.18
9624 32878 0.365
9625 9626 0.292
9626 9627 0.035
9627 9628 0.038
9627 32879 0.516
9628 9629 0.236
9629 9630 0.255
9630 9631 0.153
9632 9633 0.154
9632 9637 0.044
9633 9634 0.093
9634 9635 0.1
9635 9636 0.304
9635 9638 0.4
9638 9639 0.09
9638 9640 0.092
9640 9673 0.305
9641 32418 0.074
9642 32418 0.186
9643 9644 0.033
9643 9683 0.082
9644 9646 0.029
9645 9646 0.036
9645 9680 0.116
9648 9650 0.27
9648 9681 0.034
9649 9652 0.102
9649 9680 0.361
9650 9651 0.137
9651 9652 0.028
9651 9653 0.078
9654 9655 0.067
9655 9656 0.261
9657 9658 0.24
9658 9659 0.117
9659 9660 0.102
9661 9662 0.063
9661 9735 0.181
9662 9663 0.144
9663 9664 0.084
9664 9665 0.15
9665 9666 0.228
9667 9668 0.095
9668 9669 0.145
9669 9670 0.196
9671 9672 0.137
9671 9691 0.03
9673 9676 0.084
9673 29180 0.267
9674 9675 0.039
9674 9677 0.182
9674 31666 0.32
9675 9676 0.219
9677 9678 0.185
9678 29387 0.074
9679 9720 0.232
9679 29387 0.159
9680 30216 0.091
9681 30216 0.055
9682 9683 0.043
9682 9684 0.138
9685 9686 0.089
9685 9691 0.189
9686 9687 0.033
9686 9692 0.068
9687 9688 0.071
9688 9689 0.144
9689 9690 0.087
9690 9693 0.207
9692 9694 0.346
9694 9701 0.195
9695 9706 0.201
9696 9697 0.38
9698 29189 0.382
9699 9700 0.085
9700 9701 0.066
9702 9703 0.075
9703 9704 0.088
9704 9733 0.215
9705 9763 0.022
9705 9764 0.023
9705 28688 0.135
9706 9765 0.043
9707 9708 0.154
9709 9710 0.272
9710 9711 0.225
9713 9791 0.226
9713 9810 0.174
9714 9715 0.058
9714 9716 0.096
9717 9747 0.242
9718 9719 0.034
9718 9721 0.029
9719 9720 0.188
9720 9722 0.214
9721 9722 0.032
9721 9746 0.073
9723 9724 0.051
9723 9744 0.087
9724 9745 0.02
9724 9746 0.026
9725 9726 0.32
9725 9743 0.072
9725 9744 0.05
9726 9727 0.157
9727 9728 0.035
9728 9729 0.206
9729 9730 0.17
9730 28689 0.023
9731 28689 0.024
9731 31665 0.245
9732 9742 0.025
9732 9743 0.099
9734 9764 0.18
9735 9736 0.066
9736 9737 0.07
9738 31629 0.073
9739 9740 0.087
9741 9742 0.082
9745 31630 0.025
9747 9748 0.117
9749 9750 0.176
9750 9751 0.178
9752 9753 0.305
9754 9766 0.224
9756 9757 0.115
9757 9758 0.069
9761 27273 0.071
9761 27274 0.08
9762 9763 0.16
9762 9884 0.242
9765 28688 0.176
9767 9768 0.228
9769 9778 0.281
9770 9771 0.207
9770 32424 0.056
9773 9774 0.249
9774 9775 0.267
9775 9881 0.233
9776 32424 0.131
9777 9778 0.066
9780 28642 0.123
9781 9782 0.467
9782 9786 0.034
9782 9787 0.105
9782 9788 0.123
9783 9784 0.041
9783 9787 0.161
9783 9792 0.16
9784 9785 0.192
9785 9798 0.298
9786 9798 0.23
9788 9789 0.113
9789 9790 0.076
9790 9791 0.041
9792 9799 0.067
9792 28690 0.243
9792 32422 0.171
9793 9806 0.218
9793 9807 0.097
9793 28691 0.283
9794 9803 0.243
9794 9804 0.319
9794 9805 0.028
9795 9796 0.063
9795 9802 0.05
9796 9800 0.107
9796 9804 0.101
9797 9801 0.045
9799 9809 0.253
9800 9801 0.124
9802 9803 0.125
9804 32421 0.383
9805 9806 0.142
9806 9814 0.134
9807 9835 0.27
9808 9811 0.146
9808 28691 0.13
9811 28690 0.057
9812 9813 0.057
9812 9835 0.064
9813 9814 0.43
9813 9815 0.129
9813 9834 0.043
9815 9816 0.063
9816 9817 0.062
9817 9818 0.064
9817 9833 0.144
9818 9819 0.208
9819 9820 0.051
9819 9827 0.355
9820 9821 0.258
9821 9822 0.206
9822 9823 0.129
9823 9824 0.223
9824 9825 0.177
9825 9826 0.119
9826 9827 0.049
9827 9828 0.109
9828 9829 0.138
9829 9830 0.242
9830 9831 0.177
9831 9832 0.33
9832 9833 0.184
9834 9850 0.564
9836 9837 0.122
9836 29385 0.264
9837 9838 0.063
9838 9839 0.103
9839 9840 0.046
9840 9841 0.069
9841 9842 0.088
9842 32526 0.123
9843 9844 0.047
9843 32526 0.04
9844 9845 0.101
9846 32529 0.08
9847 32529 0.111
9848 28869 0.033
9849 9850 0.478
9851 9852 0.017
9851 9861 0.219
9851 9864 0.218
9852 9853 0.118
9852 9865 0.043
9853 9855 0.044
9853 9866 0.085
9854 9857 0.118
9854 9867 0.116
9855 9856 0.134
9856 9860 0.13
9857 9858 0.177
9859 9860 0.037
9859 9863 0.086
9859 9869 0.106
9861 9862 0.133
9862 9863 0.02
9862 32423 0.083
9865 9870 0.098
9866 9867 0.02
9867 9868 0.015
9868 9869 0.328
9870 9871 0.368
9871 9872 0.257
9872 9873 0.09
9873 9874 0.261
9873 9994 0.337
9874 9875 0.081
9875 9876 0.151
9876 9999 0.028
9877 9986 0.1
9877 28879 0.099
9878 28879 0.17
9879 9880 0.217
9882 9883 0.194
9882 9885 0.104
9885 9886 0.206
9886 9888 0.353
9887 9888 0.078
9887 9890 0.324
9888 9889 0.488
9889 9890 0.099
9889 9893 0.188
9890 9891 0.369
9891 9892 0.166
9892 9893 0.038
9893 9894 0.15
9894 9896 0.017
9895 9897 0.158
9895 9900 0.262
9895 28692 0.116
9896 9897 0.334
9898 9899 0.152
9898 28692 0.024
9899 32407 0.098
9900 9901 0.022
9900 32407 0.099
9902 9903 0.154
9903 9904 0.159
9904 9905 0.142
9905 9907 0.174
9909 9910 0.198
9910 9911 0.243
9911 9912 0.148
9912 9913 0.107
9914 9915 0.152
9915 9916 0.235
9916 9917 0.089
9917 9918 0.188
9919 28029 0.217
9920 28029 0.111
9921 28031 0.072
9922 32535 0.028
9923 9924 0.153
9923 32535 0.029
9924 9929 0.119
9925 9951 0.136
9926 32537 0.52
9927 9928 0.157
9930 9931 0.139
9932 9952 0.216
9933 9934 0.2
9934 9935 0.165
9934 9979 0.184
9935 9936 0.08
9936 9982 0.237
9937 9939 0.222
9940 9953 0.198
9941 9942 0.146
9941 28899 0.017
9942 9943 0.154
9943 29388 0.075
9944 29388 0.144
9945 9946 0.171
9946 9947 0.246
9947 28899 0.152
9948 9959 0.16
9949 9955 0.156
9952 9953 0.061
9954 9956 0.276
9957 9961 0.162
9958 9960 0.298
9962 9963 0.135
9963 9964 0.227
9964 9965 0.175
9965 28897 0.156
9966 9967 0.084
9966 28897 0.074
9967 9969 0.08
9968 9969 0.205
9970 9971 0.115
9971 9972 0.131
9972 9973 0.141
9973 9974 0.081
9975 10123 0.171
9976 9977 0.227
9978 10126 0.126
9979 9981 0.016
9979 9984 0.29
9980 9981 0.102
9982 9983 0.023
9982 9984 0.031
9985 9986 0.048
9987 28880 0.137
9987 29389 0.118
9988 28880 0.143
9989 28028 0.529
9990 9991 0.153
9991 9992 0.353
9992 9993 0.285
9993 9994 0.216
9994 9995 0.073
9995 9996 0.095
9996 9997 0.111
9997 9998 0.205
9998 9999 0.055
9999 28880 0.204
10000 10001 0.18
10000 28607 0.133
10001 28607 0.132
10002 10003 0.14
10003 10004 0.188
10004 10005 0.051
10005 10006 0.063
10006 10007 0.088
10007 10008 0.068
10008 10009 0.526
10009 10023 1.517
10010 10011 0.524
10011 10012 0.269
10013 10014 0.068
10013 10016 0.381
10013 10021 0.089
10013 10022 0.122
10014 10015 0.186
10015 10018 0.708
10016 10017 0.177
10017 10019 0.31
10017 10020 0.218
10018 10019 0.14
10020 10021 0.122
10023 10024 0.369
10024 10025 0.36
10025 32429 0.281
10026 10027 0.165
10026 10028 0.168
10027 10032 0.463
10028 10029 0.263
10029 28869 0.161
10030 32527 0.274
10031 10035 0.432
10031 32527 0.041
10032 10033 0.233
10033 10034 0.215
10034 10050 0.182
10035 10036 0.175
10036 10038 0.127
10037 10038 0.048
10037 10049 0.203
10038 10047 0.257
10039 10045 0.019
10039 10050 0.211
10040 10041 0.157
10040 10045 0.2
10041 10042 0.184
10042 10043 0.027
10043 10044 0.258
10043 10045 0.215
10044 10046 0.159
10046 10047 0.068
10047 10048 0.165
10048 10049 0.193
10051 32530 0.044
10051 32534 0.412
10052 10053 0.178
10052 32531 0.165
10052 32534 0.191
10053 10054 0.043
10054 10055 0.181
10054 10056 0.1
10055 10059 0.443
10057 10058 0.191
10057 10059 0.131
10060 10061 0.199
10061 10062 0.161
10062 10063 0.149
10064 10065 0.189
10066 10098 0.137
10066 10099 0.027
10067 10098 0.077
10067 28858 0.019
10068 28857 0.026
10068 28858 0.159
10069 10070 0.22
10070 10071 0.2
10072 10073 0.177
10072 10074 0.2
10074 10075 0.182
10077 28845 0.074
10078 10079 0.201
10079 10080 0.212
10082 10083 0.16
10084 10085 0.238
10085 10086 0.076
10086 10087 0.142
10088 13127 0.13
10089 10090 0.147
10089 10092 0.305
10090 10091 0.357
10091 10094 0.234
10092 28857 0.26
10093 10094 0.025
10093 10095 0.069
10094 28858 0.28
10095 10096 0.193
10095 10103 0.453
10096 10097 0.021
10097 10098 0.154
10097 10100 0.135
10099 10101 0.159
10100 10101 0.029
10101 10102 0.13
10102 10103 0.023
10103 10107 0.405
10104 13181 0.131
10107 10108 0.159
10108 10109 0.233
10109 28859 0.037
10110 10111 0.244
10111 10122 0.217
10113 10114 0.15
10115 10116 0.175
10115 27309 0.051
10116 10117 0.048
10117 10118 0.139
10119 10120 0.161
10120 10121 0.17
10121 13797 0.172
10122 10123 0.101
10124 10132 0.115
10125 13792 0.465
10128 10129 0.187
10129 10130 0.165
10130 10131 0.132
10132 10133 0.141
10133 10134 0.173
10134 10135 0.136
10135 10136 0.162
10137 10138 0.273
10137 11132 0.22
10137 28694 0.117
10138 10139 0.157
10141 28902 0.051
10142 28902 0.044
10143 10144 0.096
10143 28693 0.111
10144 28694 0.017
10145 11134 0.148
10145 11141 0.048
10146 27400 0.022
10146 28902 0.196
10147 27400 0.072
10147 28693 0.04
10148 20622 0.242
10148 27399 0.186
10149 10150 0.105
10149 28883 0.053
10150 10151 0.154
10151 13786 0.164
10152 13785 0.254
10152 13788 0.134
10153 13787 0.113
10153 13788 0.17
10154 10155 0.106
10154 13787 0.105
10155 10156 0.105
10156 28884 0.105
10157 13791 0.156
10157 28884 0.05
10158 10159 0.021
10158 10164 0.153
10159 10160 0.112
10159 10165 0.107
10160 10161 0.139
10160 10166 0.132
10161 10162 0.11
10162 32507 0.015
10163 10164 0.106
10163 32507 0.095
10164 32514 0.031
10165 10167 0.13
10166 10167 0.02
10168 10170 0.098
10169 32516 0.204
10170 10171 0.248
10171 11376 0.279
10172 28608 0.084
10172 28609 0.086
10173 10174 0.131
10173 31229 0.372
10174 10175 0.105
10175 10183 0.132
10175 31178 0.184
10176 10177 0.15
10176 31227 0.028
10177 10178 0.133
10178 10179 0.089
10179 31228 0.379
10180 29390 0.275
10180 31229 0.097
10181 10203 0.247
10182 31229 0.389
10183 10202 0.138
10184 10185 0.196
10184 31262 0.031
10185 10186 0.262
10186 10187 0.266
10187 10188 0.3
10188 28696 0.283
10189 10211 0.148
10189 28696 0.027
10190 10211 0.034
10190 10212 0.055
10191 10328 0.046
10191 10431 0.023
10191 28696 0.432
10192 10193 0.05
10192 10198 0.13
10193 10194 0.127
10193 31216 0.22
10194 10195 0.089
10195 10196 0.106
10196 10197 0.149
10197 10323 0.07
10198 10199 0.063
10199 10200 0.254
10200 10201 0.204
10201 10202 0.075
10203 10204 0.558
10205 10206 0.183
10206 10442 0.073
10207 10442 0.228
10207 29391 0.271
10208 10209 0.229
10208 29391 0.279
10209 10441 0.162
10210 10441 0.085
10212 10329 0.224
10213 10214 0.149
10213 10338 0.089
10215 10216 0.261
10216 10217 0.138
10217 10218 0.208
10221 29338 0.07
10222 10223 0.163
10223 10224 0.195
10227 10228 1.166
10227 26854 0.992
10228 10229 2.319
10231 31769 0.603
10232 31769 3.204
10233 10236 1.559
10235 31759 0.681
10237 31760 0.422
10238 10239 0.843
10239 31762 0.044
10240 31767 0.977
10241 10242 0.246
10241 31768 0.514
10242 28274 0.102
10243 10244 0.706
10243 28274 0.057
10245 27862 0.896
10246 31768 1.651
10247 10248 1.066
10247 27856 3.787
10251 10252 1.646
10251 10257 0.795
10252 26822 1.034
10253 10254 1.771
10253 26822 0.714
10255 26819 1.53
10256 10257 0.743
10258 10259 0.212
10258 31422 0.508
10264 10268 0.382
10265 10266 0.128
10267 32770 0.485
10268 32654 0.126
10273 10274 0.053
10273 10276 0.179
10274 10275 0.21
10275 10281 0.405
10276 10280 0.031
10277 10278 0.047
10277 10280 0.297
10277 10283 0.114
10278 28845 0.396
10279 10282 0.036
10279 10288 0.015
10281 10296 0.196
10281 10298 0.06
10282 10283 0.083
10284 10285 0.081
10284 10291 0.283
10285 10286 0.142
10286 10287 0.06
10287 10288 0.098
10289 13132 0.134
10290 10291 0.249
10292 10306 0.157
10292 29392 0.087
10293 10294 0.186
10293 10306 0.049
10294 10295 0.045
10296 10297 0.122
10298 10299 0.31
10299 10304 0.301
10300 10304 0.192
10301 10302 0.224
10301 29392 0.221
10303 10308 0.189
10303 29150 1.058
10306 10309 0.302
10307 10308 0.062
10307 10309 0.065
10310 10311 0.179
10310 10312 0.324
10314 29393 0.04
10315 29393 0.272
10316 10317 0.206
10317 10445 0.342
10318 10319 0.255
10320 10321 0.184
10321 28699 0.04
10322 10323 0.113
10322 28699 0.071
10324 28698 0.254
10324 31234 0.106
10325 10435 0.205
10325 10439 0.034
10326 10425 0.152
10326 10439 0.038
10327 10328 0.129
10327 28700 0.052
10329 10431 0.185
10330 10331 0.068
10330 10339 0.142
10331 10332 0.216
10332 10333 0.156
10333 10334 0.117
10334 10335 0.074
10335 10336 0.236
10336 10337 0.101
10337 10338 0.263
10340 10341 0.334
10341 10342 0.297
10342 10343 0.151
10343 10344 0.187
10344 10345 0.207
10346 10347 0.184
10347 10348 0.228
10349 10350 0.229
10351 10352 0.203
10352 10353 0.069
10353 10354 0.063
10357 10358 0.386
10361 10362 0.176
10361 10483 0.064
10363 10364 0.154
10364 10482 0.041
10365 10482 0.035
10365 10517 0.153
10366 10367 0.172
10367 10368 0.251
10368 10369 0.059
10369 10370 0.126
10370 10371 0.188
10373 10374 0.179
10373 10378 0.319
10374 10375 0.216
10375 10376 0.207
10377 10384 0.251
10379 10380 0.094
10379 10381 0.202
10379 10385 0.09
10381 10382 0.246
10382 10383 0.219
10383 10389 0.384
10384 10388 0.083
10384 10390 0.147
10385 10386 0.172
10386 10387 0.104
10387 10388 0.199
10390 10391 0.169
10391 10392 0.462
10392 10393 0.228
10393 10394 0.266
10394 28910 0.041
10395 28910 0.259
10395 31211 0.197
10396 10399 0.112
10397 10398 0.377
10397 10399 0.034
10399 10561 0.181
10400 10401 0.149
10402 10403 0.215
10402 10745 0.172
10404 10405 0.182
10405 10411 0.251
10407 10419 0.151
10407 28967 0.024
10408 10409 0.158
10408 28967 0.041
10409 10410 0.098
10413 10414 0.169
10416 10417 0.068
10420 10421 0.057
10422 10423 0.151
10424 10936 0.03
10425 28697 0.032
10426 28697 0.163
10426 28701 0.049
10427 10428 0.208
10427 28701 0.19
10428 28700 0.242
10429 10430 0.074
10429 28700 0.114
10430 28697 0.255
10432 10444 0.21
10432 31213 0.056
10433 10494 0.037
10433 31149 0.098
10434 10439 0.22
10434 31260 0.023
10435 10436 0.168
10435 31264 0.023
10436 10437 0.04
10437 10438 0.222
10438 10439 0.247
10438 28701 0.231
10440 10442 0.046
10441 10443 0.318
10444 10445 0.216
10446 10447 0.239
10448 10449 0.23
10448 10496 0.236
10449 10450 0.063
10451 10452 0.074
10451 28912 0.091
10452 10483 0.214
10453 10454 0.297
10453 10501 0.098
10454 10455 0.159
10455 10456 0.207
10456 10457 0.169
10458 10495 0.17
10458 31255 0.249
10459 10460 0.339
10459 10495 0.159
10461 10478 0.13
10463 10477 0.144
10464 10484 0.076
10465 10472 0.21
10465 10484 0.045
10466 10470 0.217
10467 10468 0.019
10468 10469 0.211
10469 10476 0.14
10470 10471 0.016
10471 10472 0.035
10471 10473 0.071
10473 10474 0.205
10474 10475 0.019
10475 10476 0.243
10475 10477 0.32
10477 10517 0.218
10478 10479 0.057
10478 28912 0.41
10479 10480 0.226
10480 10481 0.137
10480 10483 0.212
10481 10482 0.136
10484 10485 0.16
10485 10486 0.19
10486 10487 0.02
10487 10488 0.13
10487 28702 0.225
10488 10489 0.066
10489 10490 0.226
10490 10491 0.044
10491 10492 0.054
10491 31148 0.051
10492 10493 0.156
10493 10494 0.088
10494 31152 0.048
10495 28702 0.102
10496 10497 0.032
10497 10498 0.025
10497 10503 0.128
10498 10499 0.189
10499 10500 0.052
10500 10501 0.032
10500 10502 0.041
10502 10513 0.173
10503 10504 0.145
10504 10505 0.103
10505 10506 0.125
10506 10507 0.267
10507 10508 0.188
10508 10509 0.034
10509 10510 0.029
10509 10511 0.161
10509 31267 0.371
10510 28910 0.208
10511 10512 0.308
10512 10514 0.031
10513 10514 0.053
10514 10515 0.023
10515 10516 0.064
10516 31254 0.1
10518 30331 0.173
10518 31209 0.036
10519 10521 0.277
10520 10541 0.338
10524 10525 0.051
10525 31388 0.053
10526 10527 0.202
10526 31388 0.234
10527 10528 0.035
10528 10529 0.1
10528 10530 0.222
10529 31212 0.346
10530 10531 0.121
10531 30331 0.229
10531 31388 0.544
10532 10533 0.132
10533 10534 0.113
10534 10535 0.152
10537 10538 0.047
10537 10541 0.092
10539 10540 0.068
10540 10541 0.332
10542 10610 0.134
10543 10544 0.201
10543 10610 0.106
10544 10612 0.145
10545 10612 0.04
10545 31196 0.083
10546 31196 0.062
10548 31122 0.306
10549 10593 0.31
10550 10551 0.161
10551 10552 0.16
10553 10599 0.069
10554 10555 0.107
10555 10556 0.236
10557 10558 0.176
10558 10559 0.094
10559 10560 0.126
10560 10566 0.075
10562 10563 0.16
10563 10564 0.028
10564 10565 0.063
10564 10568 0.086
10565 10566 0.109
10566 10567 0.205
10567 10568 0.038
10569 10605 0.386
10571 10572 0.399
10571 10577 0.117
10571 10588 0.19
10572 10573 0.046
10572 10578 0.389
10573 10574 0.115
10574 28703 0.031
10575 10576 0.024
10575 28703 0.18
10577 10578 0.092
10579 10580 0.032
10579 10581 0.352
10580 10582 0.045
10581 10590 0.103
10583 10584 0.061
10584 10585 0.035
10585 28703 0.186
10586 10630 0.145
10587 10627 0.173
10589 10623 0.276
10590 10591 0.089
10594 10595 0.249
10594 31222 0.033
10595 10596 0.212
10596 10597 0.018
10597 10598 0.022
10597 10600 0.2
10597 10601 0.022
10598 10599 0.147
10599 31115 0.137
10601 10602 0.273
10602 10603 0.023
10604 31208 0.086
10607 10608 0.08
10607 10609 0.224
10608 10610 0.55
10608 10611 0.452
10609 10613 0.562
10609 29341 0.86
10611 10612 0.091
10611 10613 0.064
10614 10618 0.027
10615 10617 0.222
10615 10618 0.025
10616 10618 0.065
10616 10619 0.282
10619 10620 0.21
10619 31242 0.468
10620 10621 0.35
10621 10622 0.246
10622 31109 0.259
10623 10624 0.355
10624 10625 0.023
10625 10626 0.162
10626 10629 0.037
10627 10628 0.094
10628 10629 0.222
10629 10631 0.147
10630 10631 0.162
10632 10633 0.325
10633 10634 0.325
10635 10636 0.278
10637 10638 0.248
10637 10650 0.285
10638 10639 0.189
10639 28704 0.097
10640 10641 0.282
10640 28704 0.046
10642 10643 0.128
10643 10644 0.026
10644 28605 0.074
10645 10655 0.229
10646 10699 0.19
10647 10648 0.082
10648 10649 0.197
10649 10651 0.115
10652 10653 0.114
10653 10654 0.088
10654 10655 0.095
10656 10657 0.238
10658 10664 0.328
10659 10663 0.081
10660 10662 0.102
10660 10663 0.138
10661 10662 0.064
10661 10926 0.27
10664 10665 0.226
10665 28914 0.067
10666 30217 0.136
10667 10668 0.138
10667 30217 0.11
10669 10670 0.237
10671 10672 0.067
10672 10673 0.084
10674 10675 0.285
10675 10676 0.22
10677 10678 0.131
10678 10679 0.087
10680 10681 0.142
10680 10738 0.055
10682 10683 0.101
10685 10686 0.169
10685 10692 0.197
10687 10690 0.161
10688 10691 0.276
10689 10719 0.23
10690 10706 0.194
10693 10705 0.27
10694 10697 0.276
10695 10696 0.155
10696 10701 0.205
10698 10699 0.155
10701 10702 0.235
10703 10704 0.082
10708 10709 0.117
10709 10710 0.053
10711 28913 0.147
10712 10713 0.081
10712 10714 0.036
10713 28913 0.065
10715 10909 0.234
10716 28913 0.088
10717 10737 0.116
10718 10737 0.059
10719 10720 0.205
10721 10726 0.132
10722 10723 0.04
10723 10724 0.141
10724 10725 0.022
10725 10726 0.015
10725 10727 0.02
10727 10728 0.112
10729 10730 0.195
10730 10731 0.267
10732 10733 0.26
10735 10736 0.216
10739 10895 0.162
10739 31193 0.04
10740 10895 0.085
10741 31093 0.289
10741 31097 0.026
10742 10743 0.123
10742 10744 0.174
10744 10903 0.035
10745 10746 0.053
10746 10747 0.094
10747 10748 0.114
10748 10749 0.102
10749 11052 0.034
10750 10751 0.186
10750 11052 0.174
10751 10752 0.152
10753 10754 0.131
10755 10756 0.16
10756 10766 0.289
10757 32884 0.134
10758 10759 0.217
10759 10762 0.146
10760 10761 0.17
10760 10762 0.031
10761 10769 0.269
10763 10764 0.156
10763 10768 0.242
10765 10769 0.053
10765 10771 0.221
10765 10774 0.144
10766 10770 0.042
10767 10774 0.04
10768 10771 0.034
10769 10770 0.085
10772 10773 0.174
10777 10778 0.087
10779 10780 0.244
10781 10783 0.167
10781 11035 0.136
10782 10784 0.29
10783 10796 0.241
10784 10785 0.222
10785 10786 0.205
10787 10797 0.263
10788 10793 0.172
10789 10790 0.111
10790 10791 0.07
10791 10792 0.052
10792 10795 0.229
10793 10794 0.176
10797 11025 0.152
10798 10799 0.329
10798 19222 2.29
10800 10801 0.326
10801 10803 0.339
10802 10803 0.175
10802 10807 0.292
10803 10806 0.25
10804 10805 0.137
10804 10808 0.193
10804 29095 1.01
10805 10806 0.249
10807 10808 0.538
10809 10810 1.513
10810 10811 0.554
10811 22968 1.822
10811 26861 2.322
10813 10814 0.258
10814 10858 0.107
10815 10871 0.274
10816 10817 0.185
10817 10818 0.15
10819 10870 0.187
10820 10825 0.269
10823 10831 0.149
10823 10843 0.241
10824 10842 0.254
10826 10827 0.146
10828 10829 0.142
10831 10832 0.208
10832 10833 0.201
10833 10834 0.053
10834 10838 0.38
10834 10844 0.194
10835 10836 0.146
10835 10844 0.223
10836 10837 0.027
10837 10838 0.134
10838 10839 0.027
10839 10840 0.227
10840 10841 0.08
10841 10842 0.026
10841 10843 0.046
10844 10855 0.417
10845 10846 0.061
10846 10847 0.03
10847 10849 0.203
10848 10853 0.204
10849 10850 0.14
10850 10851 0.053
10851 10852 0.041
10851 10855 0.341
10852 10854 0.061
10853 10854 0.023
10856 10857 0.032
10856 10858 0.427
10859 10860 0.199
10861 10862 0.17
10862 10873 0.082
10863 10864 0.269
10863 10873 0.059
10871 10872 0.041
10872 10874 0.192
10873 10874 0.238
10874 10875 0.099
10875 10876 0.096
10876 10877 0.187
10876 10881 0.365
10877 10878 0.108
10879 10880 0.296
10880 10881 0.06
10881 10882 0.057
10883 29204 0.117
10884 10887 0.289
10890 11199 0.329
10891 31410 0.012
10891 32805 1.513
10892 10893 0.171
10893 10904 0.071
10894 10904 0.088
10894 11106 0.359
10895 10898 0.2
10896 10898 0.11
10896 28705 0.269
10897 10898 0.112
10898 31243 0.234
10899 10900 0.351
10899 31191 0.081
10901 10902 0.235
10901 10905 0.243
10902 10903 0.104
10904 10905 0.066
10906 10919 0.245
10907 10916 0.206
10910 10911 0.164
10913 10975 0.212
10914 10915 0.172
10918 10925 0.112
10920 28914 0.033
10922 10923 0.063
10923 10924 0.085
10926 10927 0.243
10927 10929 0.237
10930 10934 0.254
10930 10937 0.164
10931 10932 0.132
10931 10937 0.092
10933 10935 0.021
10933 10936 0.219
10934 10935 0.022
10936 10937 0.255
10940 10942 0.209
10940 10953 0.035
10944 10945 0.138
10946 10947 0.24
10946 10963 0.207
10946 10972 0.074
10947 10952 0.047
10948 10949 0.291
10948 10952 0.16
10949 10969 0.022
10950 10951 0.045
10950 10969 0.317
10952 10953 0.173
10955 10956 0.03
10956 10957 0.033
10957 10958 0.137
10958 10960 0.215
10961 10973 0.158
10963 10968 0.251
10964 10966 0.177
10964 11068 0.149
10965 10966 0.02
10965 28706 0.243
10966 10967 0.24
10968 11053 0.244
10969 28706 0.103
10970 10971 0.205
10970 11086 0.185
10975 10976 0.058
10976 10977 0.185
10977 10978 0.13
10978 10979 0.038
10980 10981 0.274
10983 10984 0.258
10984 10985 0.156
10990 10991 0.126
10993 11087 0.075
10995 10996 0.139
10997 10998 0.15
10999 11000 0.198
11001 11087 0.141
11003 11024 0.774
11003 11026 0.23
11004 11005 0.226
11007 11016 0.04
11009 11010 0.134
11009 11012 0.244
11010 11011 0.15
11011 11015 0.205
11012 11016 0.063
11013 11014 0.296
11013 11032 0.126
11014 11015 0.24
11017 11018 0.186
11017 11019 0.258
11018 11021 0.353
11019 11020 0.282
11020 11023 0.204
11021 11022 0.163
11022 11032 0.093
11023 11024 0.032
11024 11025 0.037
11026 11027 0.044
11027 11028 0.205
11028 11029 0.193
11029 11030 0.171
11030 11031 0.073
11031 11032 0.036
11033 11034 0.113
11033 11036 0.214
11037 11038 0.21
11037 32884 0.059
11039 11040 0.133
11041 11042 0.246
11043 11046 0.235
11044 11045 0.25
11047 11048 0.174
11047 27517 0.255
11048 11063 0.13
11049 11069 0.157
11050 11069 0.036
11051 28707 0.252
11052 28707 0.022
11053 11147 0.247
11054 11055 0.141
11054 11065 0.022
11056 11057 0.017
11056 11058 0.139
11057 11059 0.344
11057 11063 0.363
11057 11064 0.111
11058 11062 0.209
11059 11067 0.148
11060 11061 0.212
11060 11067 0.16
11061 11065 0.19
11062 11066 0.044
11065 11147 0.13
11066 11067 0.107
11066 11068 0.217
11069 11070 0.059
11070 11071 0.213
11070 28610 0.099
11071 28610 0.072
11073 26157 0.258
11074 11075 0.067
11075 11076 0.133
11077 11078 0.313
11077 20634 0.36
11078 11079 0.251
11079 11083 0.206
11080 11081 0.021
11080 11082 0.258
11082 11083 0.181
11084 11085 0.217
11085 11086 0.199
11087 31968 0.14
11088 31968 0.105
11089 11090 0.122
11090 28192 0.055
11092 11093 0.111
11093 11094 0.065
11093 11095 0.094
11095 11096 0.252
11096 11097 0.028
11097 11098 0.149
11098 11099 0.239
11102 32543 0.101
11103 11120 0.166
11105 11126 0.12
11107 11120 0.121
11108 11109 0.108
11109 11110 0.251
11111 11112 0.175
11113 11114 0.083
11114 11115 0.212
11116 11117 0.111
11117 11119 0.098
11121 11122 0.156
11122 11123 0.119
11124 11125 0.237
11126 11127 0.167
11127 11128 0.349
11128 11129 0.127
11128 11130 0.06
11130 11131 0.083
11132 11137 0.318
11132 11139 0.108
11133 11139 0.033
11133 28694 0.192
11134 11140 0.041
11135 11140 0.09
11135 27388 0.175
11136 11138 0.126
11136 11139 0.19
11138 27388 0.123
11138 27398 0.116
11139 11140 0.111
11141 28694 0.111
11141 28695 0.291
11143 11144 0.208
11144 27387 0.135
11145 11146 0.108
11148 11149 0.402
11149 11150 0.17
11150 11151 0.386
11151 11152 0.282
11152 11153 0.179
11154 11155 0.236
11154 11170 0.295
11156 11158 0.189
11157 11171 0.253
11157 12331 0.113
11158 12331 0.14
11159 12333 0.043
11160 11161 0.279
11161 11162 0.149
11162 29394 0.063
11163 29394 0.172
11163 30519 0.174
11164 11165 0.112
11164 30519 0.085
11166 11167 0.262
11169 11170 0.265
11169 20493 0.103
11171 11172 0.289
11173 11174 0.26
11175 11176 0.18
11176 11177 0.352
11177 31812 0.262
11178 11179 1.056
11178 28343 3.461
11179 11180 0.241
11181 11182 0.139
11184 11185 0.18
11187 27998 0.071
11195 11197 0.354
11199 11200 0.166
11200 11201 0.232
11203 11205 0.263
11204 11205 0.052
11204 11208 0.174
11205 11209 0.025
11206 11207 0.023
11206 11208 0.029
11207 11215 0.203
11210 11219 0.321
11212 11213 0.072
11213 11214 0.079
11213 11215 0.036
11214 11216 0.451
11216 11217 0.022
11218 30799 0.29
11221 11222 0.199
11223 11229 0.211
11224 11231 0.123
11225 11227 0.233
11226 11247 0.122
11230 11231 0.306
11232 11233 0.084
11233 11234 0.253
11235 11236 0.079
11237 11238 0.135
11239 11250 0.179
11242 11256 0.197
11244 11246 0.125
11246 30894 0.135
11251 30594 0.141
11253 30680 0.018
11255 11256 0.036
11255 11257 0.16
11257 11258 0.027
11258 11259 0.033
11259 29382 0.104
11260 30389 0.139
11261 30894 0.123
11262 11279 0.18
11266 30589 0.16
11266 30591 0.147
11268 30895 0.138
11270 30850 0.035
11272 11273 0.125
11274 11275 0.128
11274 30895 0.016
11275 11276 0.053
11276 11277 0.065
11282 30827 0.088
11283 11284 0.08
11284 11285 0.111
11287 30860 0.197
11288 11289 0.068
11289 30896 0.104
11292 28519 0.067
11293 28519 0.037
11297 11298 0.089
11298 28242 0.036
11299 28242 0.03
11300 30834 0.065
11301 30429 0.064
11302 29333 0.224
11306 11307 0.088
11306 11328 0.048
11307 11308 0.207
11308 11309 0.118
11309 11310 0.221
11310 11311 0.092
11311 11312 0.166
11312 11313 0.102
11313 11321 0.151
11314 11315 0.13
11315 11316 0.147
11316 11317 0.108
11317 11318 0.163
11318 11319 0.047
11320 11321 0.076
11320 11322 0.184
11320 11333 0.07
11322 11323 0.125
11323 11324 0.169
11325 11326 0.185
11326 11327 0.024
11327 11328 0.799
11327 11329 0.117
11330 11331 0.161
11330 11334 0.258
11332 11333 0.177
11335 11548 0.486
11336 11541 0.095
11337 11338 0.179
11337 11541 0.041
11338 28194 0.112
11339 11340 0.311
11339 28194 0.04
11340 11341 0.091
11341 11342 0.114
11342 11343 0.06
11343 11344 0.044
11344 11348 0.146
11345 11347 0.154
11345 11350 0.124
11346 11347 0.138
11346 11359 0.14
11348 11349 0.054
11349 11350 0.128
11349 11351 0.097
11350 11353 0.227
11351 11352 0.081
11352 11353 0.093
11352 11357 0.174
11353 11354 0.284
11354 11355 0.105
11355 11356 0.254
11356 32515 0.057
11357 32515 0.034
11358 11359 0.205
11360 11361 0.063
11360 11362 0.064
11361 11363 0.372
11361 11368 0.284
11362 11370 0.276
11363 11364 0.123
11364 11365 0.232
11365 11366 0.265
11366 11367 0.245
11367 11368 0.122
11368 11372 0.343
11369 11370 0.075
11370 11371 0.093
11371 11372 0.205
11372 11373 0.023
11373 11374 0.132
11374 11375 0.102
11375 28870 0.123
11377 11413 0.472
11378 11644 0.319
11380 11381 0.098
11381 11382 0.145
11382 11410 0.153
11383 11416 0.174
11384 11385 0.309
11384 11417 0.152
11385 11386 0.093
11386 11387 0.211
11387 11388 0.121
11388 11389 0.187
11389 11390 0.126
11390 11391 0.137
11391 11392 0.218
11392 11393 0.121
11393 11395 0.208
11394 11395 0.028
11394 11400 0.21
11396 11397 0.163
11397 11398 0.113
11398 11399 0.031
11399 11402 0.462
11399 11409 0.143
11400 11401 0.181
11401 11402 0.179
11402 11403 0.047
11403 28201 0.081
11404 11405 0.121
11404 28201 0.232
11405 11406 0.245
11406 11407 0.222
11407 11408 0.158
11408 11409 0.103
11410 11411 0.111
11411 11412 0.138
11412 11443 0.166
11414 11415 0.104
11414 11420 0.147
11414 11421 0.144
11415 11416 0.249
11417 11418 0.044
11418 11419 0.14
11419 11420 0.122
11421 11422 0.136
11423 11424 0.108
11424 11425 0.115
11427 11428 0.103
11428 11429 0.248
11429 14669 0.046
11430 11445 0.186
11431 11432 0.079
11433 11441 0.205
11434 11435 0.135
11435 11436 0.133
11437 11438 0.185
11437 20583 0.066
11439 28200 0.144
11440 28200 0.035
11444 11445 0.062
11446 11459 0.161
11447 11448 0.203
11448 11449 0.099
11450 11451 0.17
11451 11452 0.113
11452 11453 0.18
11455 11471 0.159
11456 11471 0.241
11456 11517 0.438
11458 11465 0.16
11461 11462 0.149
11462 28859 0.175
11463 11464 0.206
11467 11468 0.276
11469 11477 0.081
11470 11472 0.205
11471 11472 0.089
11473 11474 0.216
11473 11477 0.205
11474 11475 0.11
11475 11476 0.18
11478 11481 0.209
11479 11480 0.174
11481 11482 0.156
11484 11487 0.235
11485 11486 0.23
11486 11489 0.137
11487 11488 0.236
11487 11540 0.31
11488 11538 0.04
11489 11490 0.153
11491 11518 0.063
11492 11493 0.12
11493 11494 0.116
11494 11495 0.197
11495 11496 0.185
11497 11498 0.127
11498 11500 0.035
11499 11500 0.048
11499 11515 0.13
11500 11501 0.24
11501 11502 0.032
11501 11509 0.042
11502 11503 0.153
11503 11504 0.186
11504 11505 0.111
11505 11506 0.066
11506 11507 0.07
11506 32566 0.166
11507 11508 0.212
11509 11510 0.038
11510 11511 0.097
11511 11512 0.116
11512 28866 0.039
11513 11514 0.17
11513 28866 0.158
11519 11520 0.085
11520 11529 0.135
11521 11522 0.113
11521 11529 0.037
11523 11524 0.145
11523 11534 0.211
11524 11525 0.144
11525 11526 0.119
11526 11527 0.126
11527 11528 0.142
11528 11529 0.172
11530 11531 0.026
11530 11535 0.111
11531 11532 0.242
11532 11533 0.139
11533 11534 0.179
11535 11536 0.116
11536 11537 0.17
11538 28708 0.144
11539 11540 0.112
11539 28708 0.11
11540 11541 0.333
11545 11546 0.12
11546 11547 0.114
11548 11549 0.227
11549 11550 0.16
11550 11551 0.209
11551 11552 0.106
11553 11556 0.15
11554 11555 0.165
11554 11556 0.108
11557 11558 0.174
11557 11563 0.026
11558 11559 0.032
11559 11560 0.234
11560 11561 0.094
11564 11565 0.134
11566 11567 0.201
11568 11597 0.134
11569 11570 0.222
11572 11573 0.194
11574 11575 0.096
11575 11577 0.099
11576 13388 0.103
11578 11599 0.137
11579 11580 0.235
11580 11581 0.191
11582 11583 0.117
11582 11603 0.232
11584 11585 0.035
11585 11586 0.163
11586 11587 0.194
11587 11588 0.09
11588 11589 0.043
11588 11590 0.104
11589 11591 0.132
11590 32522 0.062
11591 11592 0.116
11592 11593 0.118
11594 11595 0.156
11594 11611 0.17
11595 11596 0.188
11596 11598 0.064
11598 11600 0.16
11600 11601 0.154
11601 11602 0.078
11603 11604 0.165
11605 11606 0.089
11606 11607 0.128
11607 11608 0.054
11608 11609 0.079
11609 11610 0.08
11609 11618 0.135
11610 11611 0.139
11612 11613 0.03
11612 11616 0.091
11613 11614 0.091
11614 11615 0.058
11615 13451 0.178
11616 11617 0.058
11619 11620 0.126
11619 11621 0.051
11620 11623 0.175
11621 11625 0.053
11621 11626 0.171
11622 11623 0.054
11622 11624 0.032
11625 13449 0.176
11627 11628 0.11
11628 11629 0.038
11629 11630 0.041
11630 11631 0.177
11631 11636 0.224
11632 11633 0.078
11633 11634 0.142
11634 11635 0.036
11635 11636 0.144
11635 11637 0.047
11636 11638 0.214
11638 11639 0.11
11639 11642 0.073
11641 11642 0.055
11642 11643 0.163
11643 27459 0.073
11644 11647 0.058
11645 11646 0.048
11646 11647 0.093
11648 30393 0.047
11649 11651 0.065
11650 11651 0.032
11650 28709 0.061
11652 28709 0.03
11652 30394 0.224
11653 11654 0.171
11654 11655 0.209
11656 11657 0.181
11657 11661 0.249
11658 11659 0.12
11658 11672 0.1
11659 11660 0.116
11664 11727 0.101
11665 11684 0.504
11666 11667 0.033
11666 11727 0.12
11667 11728 0.018
11668 11669 0.074
11668 11728 0.048
11670 11737 0.096
11671 11731 0.131
11671 28877 0.064
11672 11673 0.067
11673 11674 0.067
11674 11675 0.036
11675 11676 0.018
11675 11684 0.023
11677 11680 0.308
11677 13757 0.058
11678 11700 0.072
11678 31853 0.224
11679 11695 0.044
11679 11704 0.033
11679 31853 0.18
11680 11702 0.099
11680 11703 0.136
11681 11711 0.1
11681 11712 0.02
11681 28712 0.096
11682 11689 0.041
11682 11703 0.135
11682 28711 0.091
11683 11691 0.085
11683 11692 0.025
11683 28710 0.271
11684 28710 0.175
11685 11718 0.054
11685 11719 0.037
11685 11720 0.169
11686 11696 0.036
11686 11705 0.168
11687 11688 0.297
11687 11699 0.088
11687 11715 0.202
11687 11716 0.105
11688 11693 0.164
11688 11717 0.105
11689 11690 0.125
11690 11691 0.151
11692 11717 0.073
11693 11694 0.086
11694 11695 0.178
11696 11697 0.102
11697 11698 0.127
11698 11699 0.123
11700 11701 0.134
11701 11702 0.104
11704 11705 0.098
11706 11707 0.1
11707 11708 0.102
11709 11710 0.154
11710 11711 0.161
11713 11715 0.027
11713 11719 0.198
11714 11715 0.036
11714 11716 0.276
11716 11717 0.297
11720 11721 0.193
11721 11722 0.036
11722 11723 0.036
11724 11725 0.063
11724 11726 0.04
11724 11734 0.236
11724 11742 0.101
11726 11727 0.036
11729 11730 0.055
11729 11742 0.105
11729 28877 0.285
11730 11731 0.114
11731 11732 0.097
11732 11741 0.017
11733 11734 0.045
11733 11741 0.072
11735 11736 0.084
11736 11737 0.071
11736 11738 0.117
11736 11739 0.143
11737 11738 0.067
11737 28881 0.621
11739 11740 0.193
11741 11742 0.192
11744 27461 0.095
11745 11746 0.142
11745 11798 0.175
11747 11748 0.123
11748 11749 0.105
11749 11750 0.275
11750 11751 0.164
11752 11753 0.141
11753 11754 0.151
11754 11755 0.147
11755 11775 0.154
11756 31890 0.13
11758 11759 0.103
11760 11766 0.137
11761 11779 0.17
11762 11763 0.083
11763 11764 0.129
11764 11765 0.152
11765 11766 0.155
11767 11768 0.198
11767 11801 0.216
11769 11770 0.257
11770 11771 0.228
11771 11917 0.136
11772 31889 0.078
11773 31889 0.123
11773 31890 0.134
11774 11793 0.249
11776 11777 0.165
11777 11778 0.18
11779 11780 0.169
11781 11782 0.144
11782 11783 0.1
11783 11784 0.113
11785 11786 0.11
11785 11819 0.254
11787 11814 0.322
11789 11791 0.24
11792 11793 0.293
11794 11795 0.082
11795 11796 0.182
11796 11797 0.09
11798 11799 0.145
11802 11803 0.227
11804 11806 0.127
11805 11848 0.276
11806 11807 0.08
11808 11809 0.124
11810 11966 0.18
11810 19447 0.049
11811 19447 0.339
11812 11819 0.282
11813 11814 0.193
11813 11815 0.057
11815 11816 0.134
11816 11849 0.401
11817 19446 0.109
11818 19446 0.108
11821 11852 0.221
11822 11823 0.267
11822 11853 0.067
11823 11827 0.31
11825 11826 0.23
11827 11828 0.042
11827 11829 0.059
11828 11856 0.082
11829 11830 0.191
11830 11831 0.184
11831 11832 0.157
11832 11833 0.182
11833 11834 0.186
11834 11865 0.111
11834 11866 0.075
11835 11836 0.124
11836 11837 0.112
11837 11854 0.061
11838 11839 0.175
11838 11854 0.093
11839 11840 0.218
11840 11841 0.16
11841 11846 0.115
11841 11893 0.155
11842 11866 0.389
11843 11844 0.124
11844 11845 0.209
11847 11848 0.167
11855 11970 0.156
11857 19521 0.323
11858 28950 0.245
11859 11892 0.177
11860 11861 0.167
11861 11875 0.218
11862 11863 0.137
11863 20489 0.251
11868 19423 0.214
11869 11874 0.181
11871 11872 0.205
11872 32774 0.08
11873 27786 0.102
11873 32776 0.121
11875 11876 0.137
11876 11915 0.06
11877 11915 0.166
11878 11881 0.263
11879 11883 0.203
11880 11887 0.216
11882 11883 0.091
11882 11884 0.18
11885 11886 0.183
11888 11890 0.192
11889 12129 0.113
11890 11891 0.224
11892 11914 0.044
11895 11896 0.261
11896 11897 0.164
11898 11899 0.204
11898 11944 0.184
11900 11901 0.179
11902 11903 0.238
11905 11906 0.177
11906 12088 0.302
11907 11908 0.124
11909 11910 0.178
11909 11914 0.092
11910 11911 0.244
11911 11916 0.041
11912 11913 0.251
11912 11916 0.027
11913 12083 0.111
11915 11916 0.891
11918 11919 0.173
11920 11921 0.134
11921 11922 0.154
11922 11923 0.173
11923 12337 0.22
11924 11925 0.148
11926 11927 0.085
11927 11928 0.083
11928 11929 0.084
11929 11930 0.175
11931 11938 0.46
11933 11934 0.155
11934 11956 0.157
11935 11964 0.379
11936 11937 0.265
11940 11941 0.1
11941 11942 0.172
11942 11943 0.189
11944 11945 0.125
11947 11948 0.148
11948 12157 0.778
11949 11950 0.227
11950 11951 0.244
11951 11952 0.202
11953 31716 0.056
11954 11955 0.188
11954 31716 0.051
11957 11958 0.087
11958 31712 0.041
11959 11960 0.104
11959 31712 0.179
11960 11961 0.121
11961 11962 0.218
11967 11968 0.185
11968 11969 0.207
11969 11970 0.255
11971 19453 0.342
11972 19443 0.404
11973 11974 0.12
11974 11975 0.093
11975 12046 0.251
11976 19434 0.281
11977 11979 0.16
11977 12008 0.058
11978 29136 0.165
11978 29395 0.116
11980 11981 0.089
11982 11985 0.315
11983 11984 0.148
11984 11988 0.324
11985 11986 0.26
11986 11987 0.09
11990 11991 0.085
11990 12005 0.241
11991 11992 0.191
11992 11993 0.132
11993 11994 0.157
11995 11996 0.26
11997 11998 0.267
11998 29396 0.091
11999 12000 0.188
12000 12001 0.267
12001 12002 0.16
12002 12219 0.132
12003 12004 0.152
12004 12005 0.3
12006 12008 0.077
12006 29397 0.236
12007 12009 0.328
12007 29397 0.106
12008 12032 0.208
12009 12010 0.074
12010 29395 0.227
12011 28195 0.028
12012 12013 0.251
12013 12014 0.165
12014 12015 0.254
12015 12016 0.334
12017 12018 0.255
12019 12020 0.207
12021 12026 0.144
12022 12023 0.215
12022 12026 0.087
12023 12024 0.27
12024 12025 0.294
12027 12033 0.271
12028 12029 0.253
12030 12031 0.187
12031 12032 0.308
12033 12034 0.274
12034 29396 0.15
12035 12036 0.124
12035 32776 0.11
12038 12039 0.347
12040 12042 0.293
12041 31891 0.076
12043 28104 0.136
12045 19425 0.253
12046 12047 0.119
12046 27785 0.09
12047 12048 0.279
12048 12049 0.265
12049 12050 0.121
12050 19434 0.139
12050 19435 0.127
12051 12052 0.199
12052 12053 0.204
12053 12054 0.338
12054 12055 0.315
12055 12056 0.296
12058 19395 0.714
12059 12060 0.238
12060 19428 0.337
12061 12062 0.126
12062 12063 0.235
12063 12080 0.067
12064 12065 0.236
12064 12080 0.198
12065 12066 0.194
12066 12067 0.307
12067 12068 0.182
12068 12069 0.149
12069 28102 0.106
12070 12082 0.169
12070 28102 0.271
12071 12074 0.217
12071 12082 0.115
12073 12074 0.35
12075 12081 0.123
12076 12077 0.411
12076 12080 0.488
12077 12078 0.037
12077 12079 0.149
12078 27784 0.243
12079 16928 0.129
12079 28103 0.414
12081 16932 0.09
12082 27784 0.233
12084 12085 0.314
12085 12086 0.168
12087 12089 0.179
12088 12089 0.157
12090 12091 0.142
12090 12093 0.399
12091 12092 0.055
12092 12098 0.13
12092 32501 0.251
12093 12094 0.057
12094 12095 0.05
12095 12096 0.156
12096 12097 0.265
12099 12100 0.289
12099 29398 0.093
12101 12102 0.189
12103 12104 0.359
12104 12117 0.275
12105 12106 0.208
12105 12121 0.248
12106 12107 0.126
12108 12109 0.098
12112 12113 0.218
12113 12150 0.228
12114 12115 0.204
12115 12116 0.142
12117 28936 0.017
12118 12119 0.275
12118 28936 0.045
12119 12120 0.237
12120 12121 0.046
12121 12122 0.024
12123 27827 0.229
12124 12125 0.029
12124 22833 0.128
12125 12126 0.215
12126 12127 0.178
12127 12128 0.308
12128 12129 0.076
12130 12410 0.276
12131 12132 0.141
12132 12133 0.154
12133 12134 0.137
12136 12137 0.063
12136 12157 0.222
12136 12158 0.101
12137 12138 0.177
12138 12139 0.187
12139 12140 0.336
12140 12141 0.022
12141 12142 0.3
12142 12143 0.032
12143 12144 0.27
12143 12147 0.241
12144 12145 0.182
12145 28713 0.024
12146 12147 0.032
12146 28713 0.203
12147 12148 0.103
12148 12149 0.135
12149 12150 0.073
12149 12151 0.017
12155 27831 0.079
12156 12190 0.071
12158 12159 0.266
12160 12162 0.252
12160 28714 0.076
12161 12163 0.176
12161 28714 0.111
12163 12164 0.22
12164 12173 0.174
12165 12166 0.164
12165 12173 0.032
12166 28715 0.028
12167 12169 0.423
12167 28716 0.025
12168 12182 0.056
12168 28716 0.205
12169 12170 0.021
12170 12171 0.05
12170 12174 0.154
12171 12172 0.067
12172 12173 0.101
12172 12176 0.237
12174 12531 0.325
12174 32502 0.049
12174 32788 0.315
12175 12176 0.065
12175 12177 0.282
12176 12179 0.192
12176 28715 0.089
12177 12178 0.158
12178 12179 0.149
12180 12182 0.176
12180 12188 0.241
12181 12187 0.356
12183 12184 0.251
12183 32502 0.126
12184 12185 0.201
12185 12186 0.031
12186 12187 0.122
12186 27836 0.264
12186 32503 0.249
12187 31653 0.032
12187 31654 0.076
12188 12189 0.111
12188 27849 0.212
12188 31653 0.151
12189 30333 0.308
12190 27848 0.064
12190 27849 0.053
12191 12192 0.236
12192 12193 0.157
12193 12194 0.284
12194 27824 0.125
12195 12198 0.18
12196 12197 0.104
12197 27835 0.134
12198 12199 0.142
12199 12200 0.065
12201 12202 0.207
12202 12203 0.14
12204 12205 0.256
12206 12207 0.144
12207 12208 0.154
12208 12209 0.17
12210 12211 0.183
12212 22849 0.107
12213 22849 0.192
12213 22854 0.224
12214 12215 0.17
12214 22866 0.065
12215 12216 0.156
12217 12218 0.141
12218 22872 0.058
12221 12222 0.195
12222 12223 0.215
12223 12224 0.196
12224 12225 0.165
12225 12247 0.205
12226 12227 0.122
12226 12231 0.269
12227 12228 0.126
12229 12230 0.185
12231 12232 0.029
12232 12237 0.039
12233 12234 0.07
12233 12238 0.059
12234 12235 0.117
12235 12236 0.076
12236 12237 0.082
12238 12239 0.18
12239 12240 0.225
12241 12242 0.255
12243 12244 0.361
12244 12245 0.241
12245 12246 0.154
12247 12248 0.115
12249 12250 0.142
12251 16949 0.081
12252 12253 0.116
12253 12254 0.12
12254 12255 0.42
12256 12257 0.209
12258 12259 0.247
12259 12260 0.241
12261 12262 0.166
12262 19650 0.346
12263 12264 0.164
12265 12266 0.081
12266 12267 0.095
12267 19644 0.137
12268 19650 0.057
12269 12270 0.167
12270 12271 0.216
12272 12273 0.113
12273 12274 0.211
12274 12275 0.213
12276 12278 0.174
12277 12291 0.22
12278 12304 0.195
12279 12284 0.211
12280 12281 0.253
12281 12282 0.201
12282 12283 0.124
12283 12284 0.168
12285 12286 0.129
12286 12287 0.319
12287 12288 0.12
12288 12289 0.373
12292 12293 0.366
12295 12313 0.231
12296 12297 0.265
12298 12299 0.186
12300 12310 0.288
12300 29399 0.173
12301 12302 0.244
12301 29399 0.07
12302 12303 0.131
12303 22917 0.245
12305 12306 0.219
12307 12308 0.241
12308 12309 0.278
12311 12312 0.297
12314 12315 0.132
12315 12316 0.072
12316 12317 0.351
12317 20501 0.381
12318 12319 0.074
12319 12320 0.086
12320 12321 0.215
12321 12322 0.088
12322 12323 0.088
12323 12324 0.135
12325 12326 0.176
12326 12327 0.167
12327 12328 0.201
12328 12329 0.198
12329 12330 0.259
12331 12332 0.111
12332 12333 0.152
12334 12335 0.185
12335 12336 0.251
12338 12339 0.173
12340 29400 0.164
12341 29400 0.256
12342 12343 0.149
12344 12355 0.175
12346 12351 0.048
12348 12351 0.036
12349 12350 0.113
12352 12353 0.071
12352 31713 0.385
12353 12354 0.315
12354 12355 0.089
12356 12363 0.038
12356 12368 0.088
12357 12358 0.068
12357 12662 0.171
12358 12359 0.145
12359 12360 0.13
12360 12361 0.23
12361 12362 0.238
12362 12363 0.14
12364 12373 0.046
12365 12366 0.149
12366 12367 0.126
12369 12370 0.18
12369 12372 0.227
12370 12371 0.393
12371 12661 0.059
12372 12373 0.024
12374 12376 0.324
12375 12376 0.017
12375 12377 0.116
12377 12378 0.129
12378 12379 0.224
12379 12380 0.165
12380 12381 0.197
12381 12382 0.202
12382 12383 0.05
12383 12386 0.047
12383 12387 0.022
12384 12385 0.052
12384 12388 0.26
12385 12386 0.23
12387 12664 0.22
12389 29146 0.498
12390 12391 0.215
12392 12393 0.141
12394 12395 0.303
12397 12398 0.286
12398 12416 0.205
12399 12403 0.079
12400 12401 0.126
12401 12402 0.182
12402 27806 0.17
12403 12404 0.174
12404 12405 0.104
12406 12408 0.219
12407 22837 0.227
12408 12409 0.327
12411 22813 0.37
12412 12413 0.14
12413 12414 0.12
12415 12416 0.068
12417 12418 0.069
12418 22829 0.225
12419 12420 0.169
12420 12421 0.19
12424 12425 0.196
12425 12426 0.066
12426 31726 0.137
12427 12428 0.156
12427 31726 0.092
12428 12429 0.138
12431 12432 0.231
12432 12433 0.233
12433 12434 0.254
12433 31724 0.253
12434 31725 0.081
12435 12437 0.312
12435 12463 0.161
12436 12463 0.349
12437 12438 0.273
12438 12439 0.213
12440 12443 0.308
12441 12442 0.385
12443 12444 0.226
12444 12450 0.22
12444 31723 0.067
12445 12446 0.103
12449 20538 0.438
12451 12452 0.421
12453 12454 0.204
12454 12455 0.216
12455 12456 0.137
12456 12457 0.234
12457 12458 0.14
12458 12459 0.151
12459 12460 0.076
12460 12461 0.122
12461 12462 0.117
12462 12463 0.067
12464 22939 0.739
12465 12466 0.274
12466 12467 0.242
12467 12468 0.369
12468 12469 0.369
12469 12470 0.412
12470 12471 0.289
12474 12475 0.351
12475 19522 0.333
12476 12477 0.201
12476 12480 0.232
12477 12478 0.25
12478 12479 0.28
12480 12481 0.274
12481 12482 0.166
12484 12485 0.242
12486 12487 0.206
12488 12489 0.196
12490 12491 0.16
12491 12492 0.176
12492 12493 0.085
12493 12494 0.201
12494 12495 0.077
12495 12496 0.089
12496 12497 0.22
12497 12498 0.118
12498 12499 0.104
12500 12501 0.483
12502 12503 0.182
12503 19424 0.419
12504 27813 0.256
12505 12521 0.238
12506 12507 0.234
12507 12508 0.238
12508 12509 0.185
12509 12510 0.15
12512 12513 0.234
12513 12514 0.441
12514 12515 0.156
12516 12530 0.174
12517 12518 0.229
12517 27811 0.057
12519 22840 0.355
12519 27811 0.312
12520 22839 0.332
12522 19583 0.084
12523 12524 0.205
12523 19583 0.038
12524 19581 0.333
12525 12526 0.214
12525 27794 0.05
12526 12530 0.289
12527 12528 0.254
12527 27796 0.069
12528 12529 0.113
12529 28107 0.031
12532 12533 0.079
12533 12534 0.172
12533 12535 0.408
12534 32787 0.169
12536 28717 0.071
12537 12538 0.29
12537 28717 0.171
12538 12539 0.315
12539 12540 0.188
12540 12541 0.227
12541 12542 0.342
12542 12543 0.067
12544 12545 0.25
12546 12547 0.214
12546 12589 0.264
12547 28931 0.039
12548 12549 0.097
12548 12589 0.141
12551 12552 0.2
12552 12553 0.269
12553 12554 0.204
12555 12556 0.167
12556 12567 0.177
12557 12558 0.056
12557 12592 0.345
12559 12560 0.118
12560 13296 0.032
12561 12562 0.19
12562 12563 0.168
12563 12564 0.192
12565 12566 0.134
12566 12567 0.096
12568 12569 0.035
12568 12586 0.098
12568 29357 0.487
12569 12570 0.09
12570 12571 0.088
12571 12572 0.148
12572 12573 0.172
12573 12574 0.082
12574 12575 0.129
12575 12580 0.12
12576 12621 0.257
12578 12579 0.15
12579 12580 0.189
12581 12582 0.249
12583 12584 0.102
12585 28931 0.435
12586 12587 0.153
12587 28718 0.234
12588 12589 0.04
12588 28718 0.049
12590 12591 0.299
12590 28931 0.256
12591 12592 0.105
12593 12612 0.166
12593 28196 0.054
12594 12595 0.115
12594 28196 0.138
12595 12596 0.119
12596 12597 0.084
12596 12599 0.031
12597 12598 0.027
12599 12600 0.129
12600 12607 0.172
12601 12602 0.113
12601 12613 0.126
12602 12620 0.087
12603 12604 0.122
12603 12620 0.122
12605 12606 0.156
12605 31872 0.312
12606 28199 0.147
12607 12608 0.132
12608 12609 0.133
12609 12610 0.122
12610 12654 0.358
12611 12626 0.308
12612 12613 0.028
12612 12614 0.013
12614 12619 0.081
12615 12616 0.11
12615 12619 0.044
12616 12617 0.105
12621 12622 0.194
12622 12623 0.117
12623 12624 0.177
12625 12626 0.18
12627 12628 0.219
12628 12660 0.035
12629 12630 0.096
12629 12660 0.021
12632 12633 0.257
12632 12641 0.216
12633 12634 0.161
12635 13687 0.095
12636 12637 0.221
12636 13687 0.037
12638 12639 0.231
12639 12640 0.132
12641 12642 0.124
12642 12643 0.176
12643 12644 0.169
12646 12650 0.156
12646 28199 0.033
12648 12649 0.349
12650 12651 0.039
12651 12652 0.015
12651 12654 0.148
12652 12657 0.338
12653 12654 0.048
12653 12655 0.09
12654 31872 0.407
12655 12656 0.081
12656 12658 0.031
12657 12658 0.019
12658 12659 0.041
12659 12660 0.047
12661 12663 0.198
12663 12675 0.051
12664 12675 0.135
12665 12666 0.092
12665 12675 0.034
12666 12674 0.161
12667 12669 0.213
12667 12674 0.068
12668 12673 0.245
12668 12674 0.062
12669 29401 0.187
12670 12671 0.103
12670 29401 0.071
12671 12672 0.147
12672 12673 0.035
12673 12677 0.161
12676 12677 0.359
12676 12678 0.26
12676 12679 0.081
12680 12681 0.107
12681 12682 0.123
12682 12683 0.116
12685 12688 0.245
12685 28839 0.211
12685 31886 0.115
12686 12696 0.27
12686 29402 0.046
12686 31886 0.11
12687 12690 0.024
12687 29402 0.195
12688 12696 0.174
12688 12697 0.356
12689 12693 0.193
12690 12691 0.126
12691 12692 0.129
12693 12694 0.118
12698 12699 0.089
12698 30399 0.478
12699 12700 0.118
12700 12701 0.117
12702 12703 0.148
12703 12704 0.127
12705 12706 0.149
12706 12707 0.134
12708 12720 0.124
12709 12722 0.085
12710 12722 0.077
12711 30399 0.139
12712 16949 0.164
12712 28838 0.184
12713 12719 0.191
12713 12720 0.025
12714 16941 0.109
12715 12718 0.146
12715 16947 0.206
12716 12718 0.147
12716 29403 0.095
12717 12720 0.236
12717 29403 0.152
12719 28838 0.348
12721 12722 0.068
12721 12723 0.251
12724 12725 0.086
12724 31873 0.121
12728 12729 0.154
12729 12730 0.238
12731 12732 0.178
12732 12733 0.2
12733 12734 0.21
12734 12735 0.111
12736 12737 0.113
12737 12739 0.102
12738 12739 0.072
12740 12741 0.123
12741 12742 0.12
12742 12743 0.113
12744 12745 0.194
12744 28843 0.02
12745 12765 0.18
12746 12824 0.157
12747 12748 0.096
12748 12749 0.121
12749 12750 0.093
12750 12751 0.161
12752 12756 0.299
12754 12755 0.194
12759 12962 0.234
12760 12761 0.103
12760 28371 0.05
12761 12762 0.124
12762 12763 0.196
12763 12764 0.253
12765 12766 0.064
12766 13690 0.104
12767 29152 0.093
12768 28197 0.422
12770 12771 0.114
12771 12772 0.112
12772 12773 0.192
12773 12784 0.176
12774 12775 0.152
12775 12776 0.222
12777 12778 0.195
12777 28933 0.041
12779 12780 0.105
12779 32388 0.156
12781 12788 0.079
12782 12783 0.085
12782 12788 0.05
12785 12786 0.15
12786 12787 0.264
12787 28933 0.043
12788 12789 0.049
12789 12790 0.212
12790 12791 0.37
12792 12793 0.203
12793 12794 0.205
12794 12840 0.259
12795 12796 0.174
12796 12797 0.165
12798 12799 0.145
12798 12841 0.155
12800 12801 0.136
12801 12802 0.33
12802 12803 0.233
12804 12885 0.179
12805 12806 0.128
12805 12885 0.033
12806 12807 0.128
12807 12867 0.134
12808 12824 0.168
12809 12825 0.309
12810 12811 0.107
12812 12813 0.115
12813 12814 0.212
12814 12815 0.23
12815 28844 0.032
12816 12831 0.139
12817 12818 0.13
12818 12819 0.11
12820 16833 0.237
12821 12822 0.247
12822 12823 0.228
12826 12827 0.205
12827 12828 0.184
12829 12830 0.17
12831 12832 0.081
12832 12833 0.089
12833 12834 0.128
12835 12836 0.163
12836 12837 0.194
12837 16786 0.182
12838 12839 0.219
12838 12844 0.181
12840 12841 0.092
12842 12843 0.062
12843 12844 0.068
12845 12854 0.124
12845 12856 0.071
12846 12847 0.14
12847 12848 0.164
12848 12877 0.044
12849 12850 0.219
12849 12877 0.171
12851 12852 0.162
12851 12867 0.041
12852 12853 0.115
12853 12854 0.113
12855 12856 0.053
12855 12858 0.348
12857 12863 0.193
12857 12864 0.054
12857 12866 0.434
12857 12867 0.401
12858 12859 0.036
12858 12861 0.046
12859 12860 0.174
12860 12875 0.184
12861 12862 0.194
12862 12863 0.192
12864 12887 0.208
12865 12866 0.026
12866 12868 0.108
12868 12891 0.287
12869 12870 0.227
12870 12871 0.16
12873 12874 0.105
12875 12877 0.045
12876 12877 0.033
12876 12878 0.203
12878 12879 0.149
12879 13699 0.377
12880 12881 0.155
12880 12899 0.039
12881 28861 0.034
12883 12884 0.206
12884 12906 0.194
12885 12886 0.402
12886 12888 0.024
12886 12889 0.067
12887 12888 0.136
12889 12890 0.252
12890 12892 0.141
12891 12892 0.034
12892 12901 0.178
12892 20574 0.024
12893 20575 0.041
12893 30218 0.09
12894 12895 0.029
12895 12896 0.046
12896 32602 0.089
12897 12898 0.217
12897 32602 0.085
12898 12899 0.073
12903 26912 0.097
12903 32650 0.031
12904 32650 0.042
12905 22799 0.083
12906 12907 0.056
12906 12912 0.255
12907 12908 0.183
12908 12909 0.154
12909 12910 0.057
12910 12911 0.134
12912 32604 0.06
12913 13694 0.113
12915 13697 0.026
12916 12917 0.133
12918 12919 0.153
12919 12920 0.189
12920 12921 0.125
12922 12923 0.154
12925 12926 0.152
12925 13326 0.05
12927 12928 0.063
12928 12929 0.1
12929 12930 0.14
12932 12933 0.144
12933 12934 0.064
12934 12935 0.054
12935 12936 0.147
12936 12937 0.201
12938 12939 0.126
12940 12941 0.15
12941 12942 0.207
12942 12943 0.041
12943 12944 0.028
12943 12945 0.129
12945 12946 0.152
12946 12947 0.233
12947 12948 0.163
12948 12949 0.02
12949 32387 0.222
12950 12951 0.019
12951 12952 0.052
12952 12953 0.233
12953 12954 0.093
12955 12956 0.186
12956 28281 0.026
12957 12958 0.191
12957 28281 0.021
12959 16833 0.043
12960 16839 0.155
12960 28367 0.017
12961 16836 0.048
12962 12963 0.161
12963 28373 0.033
12965 12966 0.139
12967 16849 0.308
12968 12969 0.168
12969 12983 0.167
12970 12971 0.073
12971 12972 0.14
12972 12973 0.134
12973 12974 0.096
12975 12976 0.081
12976 12977 0.222
12978 12979 0.163
12979 16787 0.337
12979 16816 0.268
12980 12981 0.093
12981 16850 0.274
12982 12983 0.162
12982 28100 0.052
12984 12987 0.051
12984 28101 0.113
12985 12986 0.195
12985 12987 0.079
12986 29404 0.249
12989 12990 0.128
12990 12991 0.173
12991 28101 0.11
12993 12994 0.193
12995 12996 0.14
12996 12997 0.128
12998 12999 0.21
12999 28342 0.025
13000 13001 0.201
13000 28342 0.139
13002 26388 0.169
13003 13004 0.169
13004 13005 0.11
13005 13006 0.077
13011 30897 0.026
13013 13014 0.134
13016 13017 0.153
13018 13019 0.214
13021 13022 0.136
13023 13041 0.06
13025 30897 0.281
13026 30806 0.082
13027 30898 0.065
13028 30898 0.097
13031 13032 0.304
13032 13033 0.251
13034 13040 0.138
13037 14058 0.305
13039 13041 0.244
13042 13043 0.246
13042 28611 0.205
13042 30794 0.256
13043 13044 0.068
13043 28611 0.16
13044 30638 0.132
13044 30639 0.037
13047 13048 0.08
13049 30386 0.259
13050 29203 0.129
13051 13052 0.15
13051 28719 0.162
13052 30899 0.081
13053 28719 0.143
13053 30636 0.059
13053 30817 0.111
13055 30643 0.102
13057 27642 0.153
13058 13059 0.228
13059 14001 0.153
13060 13061 0.058
13060 30900 0.129
13062 20651 0.04
13063 13064 0.217
13063 30646 0.541
13064 13077 0.255
13065 28900 0.037
13066 13067 0.048
13066 28900 0.139
13068 13069 0.237
13069 16520 0.045
13070 16519 0.043
13071 13072 0.276
13075 27640 0.125
13076 30889 0.116
13077 13078 0.057
13079 30768 0.528
13079 30791 0.036
13080 13081 0.201
13080 13086 0.236
13082 13109 0.225
13083 13084 0.148
13084 13092 0.252
13085 13114 0.098
13086 13087 0.284
13088 13089 0.823
13090 13091 0.138
13090 13097 0.113
13091 13192 0.223
13093 13098 0.301
13094 13095 0.338
13094 13098 0.075
13095 13096 0.038
13096 32505 0.231
13097 32505 0.198
13099 32607 0.039
13100 13102 0.257
13100 13105 0.458
13100 13106 0.055
13101 13107 0.044
13101 13108 0.037
13101 13112 0.068
13102 13103 0.186
13102 32607 0.229
13103 13104 0.296
13104 13105 0.178
13106 13107 0.188
13110 13111 0.319
13111 13112 0.107
13112 13113 0.189
13115 32506 0.068
13116 13117 0.209
13117 13118 0.204
13119 13120 0.559
13120 13121 0.131
13121 28842 0.047
13122 13123 0.112
13122 28842 0.043
13123 13124 0.219
13124 13125 0.101
13125 13126 0.218
13127 13128 0.224
13128 13129 0.044
13129 13130 0.02
13129 13131 0.022
13131 13132 0.273
13133 13134 0.144
13134 13135 0.297
13136 13137 0.185
13138 13142 0.176
13139 13151 0.29
13140 13141 0.22
13142 13143 0.216
13143 13144 0.228
13145 13172 0.305
13146 13147 0.293
13149 13150 0.276
13152 13153 0.189
13154 13161 0.233
13155 13156 0.199
13156 13180 0.081
13157 13158 0.334
13158 13159 0.163
13159 13160 0.099
13160 13161 0.081
13162 13163 0.29
13163 13164 0.256
13165 13166 0.081
13167 13170 0.254
13168 13169 0.208
13169 13252 0.251
13170 13171 0.087
13173 13174 0.162
13175 13176 0.052
13176 13177 0.057
13178 13179 0.48
13179 13181 0.127
13179 28720 0.11
13180 13181 0.128
13180 28720 0.131
13182 13183 0.225
13184 13185 0.125
13184 13247 0.019
13185 13246 0.056
13186 13187 0.101
13186 13211 0.072
13187 13188 0.171
13188 13189 0.209
13190 13191 0.185
13193 13194 0.165
13193 13200 0.132
13194 13195 0.168
13196 13197 0.12
13197 13227 0.096
13198 13199 0.219
13198 13227 0.04
13201 13202 0.172
13202 13203 0.119
13203 13204 0.163
13204 13205 0.098
13205 28855 0.017
13206 13207 0.195
13206 13214 0.045
13207 13208 0.139
13208 13209 0.165
13209 13210 0.145
13210 13211 0.046
13211 13246 0.142
13212 13213 0.025
13212 13214 0.22
13213 13215 0.075
13213 13219 0.018
13215 13216 0.138
13216 28723 0.083
13217 13218 0.093
13217 13220 0.116
13218 13219 0.153
13220 13221 0.158
13221 13224 0.057
13222 13223 0.027
13222 13224 0.06
13223 13225 0.103
13225 13226 0.19
13226 28855 0.046
13227 13228 0.039
13228 28721 0.156
13229 13230 0.13
13229 32608 0.175
13231 13232 0.152
13232 13233 0.147
13234 13235 0.147
13235 13236 0.1
13236 13257 0.146
13237 13238 0.105
13237 13737 0.04
13238 13239 0.164
13239 13240 0.169
13240 13241 0.075
13241 13242 0.104
13242 13243 0.06
13243 13244 0.192
13244 13245 0.095
13246 13248 0.231
13247 13253 0.076
13248 13249 0.201
13249 13250 0.058
13249 13253 0.182
13250 13251 0.151
13251 13252 0.093
13252 13286 0.046
13254 13255 0.159
13256 13257 0.168
13256 13275 0.204
13258 13259 0.157
13259 13260 0.155
13261 13262 0.097
13262 13263 0.112
13264 13268 0.221
13266 13267 0.302
13269 13277 0.202
13269 28860 0.245
13270 13271 0.272
13270 28860 0.102
13272 31406 0.058
13273 13276 0.169
13274 13276 0.112
13276 29405 0.227
13277 13278 0.045
13278 29405 0.221
13281 13282 0.145
13283 13738 0.071
13284 13285 0.141
13284 13738 0.048
13285 13728 0.053
13287 13288 0.037
13288 13289 0.045
13290 13291 0.186
13291 13292 0.147
13293 13294 0.142
13294 13295 0.229
13296 13297 0.041
13297 13298 0.115
13298 13299 0.131
13299 13300 0.151
13300 13301 0.105
13303 13304 0.118
13304 13305 0.151
13305 13306 0.149
13307 13308 0.343
13309 13310 0.205
13311 13312 0.076
13312 13313 0.064
13314 13315 0.145
13315 13320 0.055
13316 13320 0.065
13317 13318 0.099
13318 13319 0.207
13320 13321 0.302
13321 13322 0.145
13321 13324 0.159
13322 13323 0.041
13323 13712 0.036
13324 13325 0.082
13325 13326 0.103
13327 13328 0.317
13327 13377 0.228
13329 13330 0.102
13330 13331 0.067
13331 13332 0.055
13332 13333 0.075
13333 13334 0.09
13334 13335 0.123
13336 13338 0.154
13336 13376 0.023
13338 13355 0.16
13339 13340 0.177
13339 13359 0.11
13341 13342 0.141
13342 13343 0.194
13343 13463 0.251
13344 13345 0.165
13344 13421 0.074
13346 13347 0.135
13347 13348 0.067
13348 13349 0.14
13351 13394 0.265
13352 13353 0.105
13353 13354 0.096
13355 13356 0.253
13355 13361 0.126
13356 13357 0.238
13357 13358 0.063
13358 13359 0.051
13360 13361 0.023
13360 13417 0.093
13361 13362 0.266
13362 13416 0.117
13363 13364 0.152
13363 13416 0.14
13364 13365 0.154
13365 13366 0.059
13366 13367 0.126
13367 13368 0.122
13368 13369 0.21
13369 13370 0.261
13370 13371 0.102
13371 13372 0.11
13372 13373 0.065
13373 13374 0.088
13374 13375 0.091
13375 13376 0.048
13377 13378 0.213
13380 13381 0.15
13381 13382 0.103
13382 14368 0.135
13383 13384 0.221
13384 13385 0.063
13385 13386 0.035
13385 13387 0.108
13386 13422 0.219
13387 13388 0.032
13388 13389 0.032
13389 13390 0.24
13390 13391 0.192
13391 13392 0.046
13392 28866 0.286
13393 13400 0.04
13393 13405 0.218
13393 13538 0.061
13394 13395 0.75
13394 13413 0.042
13395 13408 0.051
13395 13409 0.068
13396 13409 0.043
13396 13410 0.056
13397 13520 0.22
13397 13523 0.054
13397 13524 0.065
13398 13399 0.045
13398 13535 0.071
13398 13536 0.032
13399 13537 0.04
13399 13538 0.038
13400 13401 0.132
13401 13414 0.107
13402 13403 0.165
13402 13415 0.062
13403 13404 0.133
13404 13405 0.043
13405 13406 0.042
13406 13407 0.105
13407 13408 0.196
13410 13411 0.13
13411 13539 0.191
13412 13413 0.015
13412 13414 0.016
13412 13415 0.024
13416 13419 0.234
13417 13418 0.076
13418 13419 0.367
13420 13421 0.108
13422 13423 0.207
13423 13424 0.053
13424 13427 0.152
13425 13427 0.155
13426 13459 0.161
13428 14373 0.048
13429 13430 0.12
13430 13431 0.196
13431 13489 0.037
13432 13433 0.356
13432 13489 0.09
13433 13434 0.132
13435 13493 0.096
13438 13439 0.103
13439 13440 0.075
13441 13442 0.243
13444 13445 0.333
13447 13566 0.207
13451 13452 0.032
13453 13454 0.175
13455 13456 0.179
13456 13457 0.25
13458 13459 0.023
13458 13460 0.013
13459 13461 0.099
13460 13461 0.114
13460 13466 0.071
13462 13463 0.334
13465 13505 0.156
13467 13468 0.131
13469 13470 0.202
13471 13472 0.113
13472 13486 0.05
13473 13486 0.095
13477 13478 0.161
13480 13481 0.075
13482 13483 0.214
13482 13487 0.148
13484 13485 0.14
13484 13487 0.26
13485 13486 0.06
13487 13519 0.394
13489 13490 0.222
13490 13491 0.296
13491 13492 0.279
13492 13493 0.041
13495 14402 0.2
13496 13497 0.151
13497 13498 0.134
13498 13640 0.156
13499 13500 0.108
13500 13501 0.028
13501 13502 0.169
13502 13503 0.076
13503 29179 1.297
13504 13505 0.089
13508 13509 0.024
13508 13510 0.126
13508 14508 0.059
13510 13512 0.138
13511 13512 0.046
13511 13514 0.136
13512 14403 0.119
13513 14398 0.217
13513 14399 0.168
13513 14403 0.301
13514 13515 0.164
13514 13516 0.042
13516 13517 0.222
13517 14401 0.193
13518 13519 0.341
13518 27441 0.174
13521 13522 0.119
13521 13536 0.18
13522 13523 0.166
13524 13525 0.162
13530 13531 0.145
13532 13533 0.167
13533 13534 0.17
13537 13539 0.218
13540 13541 0.049
13540 13751 0.128
13541 13542 0.107
13542 13543 0.159
13543 13544 0.211
13544 13545 0.061
13545 13546 0.104
13546 13547 0.042
13547 13548 0.017
13547 13549 0.036
13548 26300 0.071
13549 13555 0.214
13550 13551 0.124
13550 26300 0.044
13551 31835 0.095
13552 13554 0.107
13552 31835 0.028
13553 13554 0.083
13553 29406 0.064
13555 13561 0.116
13556 13557 0.077
13557 29406 0.031
13558 13559 0.317
13559 13560 0.047
13559 13562 0.174
13560 13561 0.182
13562 13563 0.283
13563 13564 0.133
13564 13565 0.141
13565 13566 0.064
13567 13569 0.223
13567 13589 0.176
13567 31864 0.177
13568 13570 0.222
13568 13573 0.187
13568 31861 0.16
13568 31863 0.146
13569 13572 0.164
13570 13571 0.18
13574 13575 0.068
13575 14491 0.07
13576 13577 0.109
13576 14491 0.032
13576 31862 0.049
13577 13578 0.156
13578 13579 0.108
13580 26202 0.159
13581 26201 0.147
13582 13583 0.166
13582 13584 0.114
13584 26306 0.048
13585 26306 0.181
13586 14755 0.15
13587 26316 0.124
13588 13590 0.187
13590 13591 0.145
13592 13593 0.177
13593 13594 0.194
13595 14746 0.181
13596 14758 0.199
13597 13598 0.159
13598 13599 0.112
13600 13601 0.199
13600 13672 0.177
13602 13603 0.214
13603 13604 0.207
13604 13605 0.151
13608 13609 0.202
13610 13611 0.174
13611 13612 0.099
13612 13613 0.142
13613 13614 0.161
13615 13617 0.264
13616 13618 0.116
13619 13620 0.437
13619 13621 0.421
13619 32601 0.599
13620 32601 0.334
13622 13623 0.2
13623 26904 0.411
13626 13627 0.261
13627 13628 0.18
13628 13629 0.23
13629 14769 0.184
13630 14793 0.178
13630 14794 0.202
13631 14492 0.031
13631 14493 0.017
13631 14494 0.053
13632 13633 0.121
13632 13635 0.06
13633 13634 0.118
13634 14493 0.121
13635 14759 0.112
13636 13637 0.126
13637 13638 0.102
13639 13641 0.033
13639 14405 0.161
13639 31839 0.224
13639 31840 0.228
13640 14405 0.081
13640 14406 0.058
13641 13642 0.17
13643 14404 0.037
13643 32885 0.027
13644 14519 0.16
13644 32885 0.104
13646 13647 0.087
13648 13649 0.245
13650 13653 0.114
13651 13652 0.185
13654 13655 0.128
13655 13656 0.117
13657 13658 0.202
13663 26880 0.159
13664 13665 0.262
13666 13667 0.107
13667 13668 0.14
13668 29407 0.046
13669 13670 0.071
13669 29407 0.172
13670 13671 0.06
13674 26879 0.18
13675 13676 0.157
13675 13681 0.304
13675 31865 0.576
13676 13677 0.171
13677 13678 0.194
13678 26874 0.214
13679 13685 0.18
13680 13717 0.937
13683 13684 0.073
13683 13685 0.264
13684 30708 0.087
13686 30396 0.18
13687 13688 0.106
13689 13693 0.077
13689 32388 0.083
13690 13691 0.19
13691 13692 0.026
13691 13693 0.231
13692 13696 0.082
13693 13694 0.111
13694 13695 0.114
13695 13696 0.117
13696 13697 0.142
13698 13699 0.025
13698 13700 0.081
13700 13701 0.166
13701 13702 0.115
13702 13703 0.351
13703 13704 0.089
13704 13705 0.803
13706 13707 0.138
13707 13708 0.276
13709 13710 0.272
13709 13711 0.585
13710 29374 0.375
13712 13714 0.367
13713 13714 0.045
13713 13715 0.068
13718 26879 0.085
13719 13720 0.162
13723 13724 0.231
13724 13725 0.107
13727 13728 0.197
13727 28723 0.047
13728 13729 0.049
13729 13730 0.172
13730 13732 0.035
13731 13732 0.02
13731 13734 0.155
13732 13733 0.394
13732 13737 0.225
13734 13739 0.085
13735 13736 0.037
13736 13739 0.132
13738 13739 0.353
13740 13748 0.086
13741 13742 0.108
13742 13744 0.186
13743 13745 0.223
13743 13748 0.112
13744 13755 0.248
13745 13746 0.208
13747 13755 0.101
13753 13754 0.045
13756 13757 0.211
13756 27442 0.125
13758 32560 0.031
13759 13761 0.143
13760 32562 0.025
13761 13762 0.144
13762 13805 0.151
13763 20615 0.13
13764 20614 0.146
13765 27438 0.02
13766 13767 0.119
13768 27437 0.025
13769 28252 0.042
13770 13771 0.104
13770 28252 0.114
13771 20618 0.131
13773 13774 0.169
13774 13775 0.107
13775 13776 0.098
13777 20606 0.136
13778 13779 0.126
13778 20615 0.074
13780 13781 0.169
13782 13783 0.025
13782 13793 0.137
13783 13784 0.499
13784 13794 0.333
13785 13786 0.068
13789 13790 0.103
13790 13791 0.07
13792 28884 0.151
13793 13795 0.163
13796 13797 0.162
13798 13799 0.071
13799 13800 0.214
13800 13801 0.212
13803 13812 0.165
13806 13807 0.062
13806 13815 0.083
13806 13853 0.11
13807 13808 0.199
13808 13809 0.03
13808 13851 0.106
13809 13810 0.194
13810 13811 0.193
13811 13812 0.03
13812 13813 0.08
13813 13816 0.268
13814 13842 0.228
13815 13847 0.026
13816 13817 0.053
13817 13818 0.151
13817 13831 0.125
13819 13820 0.226
13819 13830 0.117
13821 13822 0.035
13822 13823 0.056
13824 13836 0.039
13825 13857 0.041
13826 13827 0.039
13826 13828 0.168
13826 13829 0.176
13828 13831 0.104
13829 13830 0.098
13830 13831 0.082
13832 13833 0.173
13832 13834 0.068
13832 13836 0.144
13833 27368 0.355
13834 13839 0.176
13835 13836 0.038
13836 13854 0.24
13837 13838 0.07
13838 13839 0.076
13839 13860 0.032
13840 13860 0.188
13841 27343 0.022
13844 13845 0.121
13845 13846 0.187
13847 13848 0.047
13848 13849 0.161
13849 13851 0.082
13850 13851 0.023
13850 13852 0.2
13853 32562 0.24
13854 13855 0.343
13855 13856 0.151
13856 14635 0.234
13857 13858 0.075
13858 13859 0.205
13859 26372 0.142
13861 27368 0.251
13861 27374 0.169
13862 13863 0.188
13862 27374 0.057
13863 13864 0.039
13865 13866 0.156
13866 13867 0.159
13867 13868 0.159
13869 13870 0.096
13870 13891 0.056
13871 13872 0.132
13872 13873 0.129
13873 27332 0.114
13874 13875 0.199
13874 27333 0.078
13875 13876 0.142
13876 13884 0.155
13877 27333 0.178
13877 27335 0.1
13878 13879 0.188
13878 27335 0.148
13879 13880 0.028
13880 13881 0.286
13880 13883 0.357
13881 13882 0.023
13883 13884 0.271
13885 13886 0.201
13885 27336 0.211
13886 13887 0.025
13887 13888 0.05
13887 13889 0.041
13889 13890 0.221
13892 27276 0.176
13894 13895 0.131
13896 13897 0.152
13898 13899 0.086
13898 13909 0.096
13900 13911 0.222
13901 13914 0.09
13905 30586 0.177
13906 13907 0.189
13906 30586 0.126
13913 13915 0.253
13918 28245 0.1
13919 28245 0.185
13919 28246 0.079
13920 28246 0.041
13923 13924 0.242
13926 16521 0.046
13927 13928 0.097
13927 16523 0.022
13929 13932 0.146
13930 16524 0.147
13932 13933 0.175
13933 13934 0.161
13935 30901 0.105
13936 13937 0.21
13936 30901 0.111
13938 13976 0.11
13939 13940 0.179
13941 13942 0.157
13943 14116 0.237
13944 13945 0.141
13946 13947 0.162
13947 13948 0.182
13949 26978 0.215
13950 13953 0.139
13951 26978 0.116
13952 13978 0.226
13953 30622 0.009
13954 30623 0.19
13956 30902 0.092
13959 16623 0.061
13959 28202 0.18
13960 28202 0.166
13961 13963 0.174
13962 13964 0.173
13962 30902 0.23
13965 13966 0.221
13966 13988 0.023
13967 13981 0.191
13967 13988 0.031
13968 13969 0.157
13968 13981 0.029
13969 13970 0.054
13970 13971 0.15
13971 28896 0.049
13972 13973 0.189
13974 15536 0.045
13975 13976 0.059
13975 15534 0.118
13977 16624 0.241
13978 30743 0.033
13979 13980 0.143
13979 13981 0.024
13981 14031 0.237
13982 30624 0.518
13984 30623 0.08
13984 30745 0.175
13985 13986 0.074
13985 14028 0.043
13985 14029 0.025
13986 13987 0.195
13987 13988 0.05
13989 30622 0.228
13990 13991 0.056
13992 30650 0.177
13992 30785 0.046
13993 13994 0.098
13993 30650 0.084
13995 30903 0.097
13997 30773 0.162
13998 30538 0.266
13998 30539 0.132
13998 30903 0.188
13999 30904 0.229
14000 30904 0.123
14003 16493 0.233
14003 30770 0.114
14004 30767 0.139
14004 30905 0.075
14005 30792 0.064
14006 30798 0.036
14007 16479 0.266
14008 30651 0.101
14009 30772 0.158
14011 14012 0.085
14013 30906 0.186
14014 30908 0.119
14015 30909 0.076
14016 16650 0.32
14017 14018 0.096
14018 14019 0.131
14019 30748 0.039
14022 30910 0.02
14023 30747 0.096
14024 14026 0.304
14025 30910 0.195
14029 14030 0.192
14030 14031 0.083
14030 30911 0.134
14032 30754 0.127
14033 14035 0.116
14034 28489 0.112
14035 14036 0.118
14037 14038 0.234
14038 30545 0.291
14039 14040 0.304
14040 14041 0.025
14040 14044 0.161
14042 14043 0.322
14042 28237 0.037
14045 14051 0.287
14045 30482 0.087
14046 28237 0.242
14047 30488 0.118
14048 30488 0.083
14048 30912 0.021
14049 14050 0.32
14049 30912 0.12
14052 14150 0.245
14053 14149 0.2
14055 14056 0.188
14057 16547 0.061
14060 14061 0.16
14061 27635 0.012
14062 30814 0.081
14064 30913 0.09
14065 30913 0.06
14067 30801 0.07
14069 14070 0.138
14070 14071 0.287
14072 14073 0.258
14074 26371 0.153
14075 30907 0.048
14078 30766 0.186
14079 14080 0.233
14080 14081 0.185
14080 30530 0.142
14080 30630 0.216
14081 14082 0.111
14082 30803 0.039
14083 14084 0.192
14085 28502 0.051
14085 30818 0.052
14088 30914 0.084
14089 14090 0.075
14091 14092 0.233
14101 30686 0.232
14101 30915 0.117
14102 30915 0.144
14106 14107 0.091
14107 14108 0.143
14109 14110 0.07
14110 14111 0.107
14112 14113 0.134
14113 30744 0.125
14115 14832 0.189
14115 14835 0.055
14116 30916 0.096
14117 30916 0.132
14118 14119 0.051
14119 14120 0.042
14119 14123 0.142
14120 14121 0.161
14121 14122 0.212
14125 14126 0.109
14125 14319 0.188
14127 14133 0.118
14128 14129 0.078
14128 14133 0.015
14129 14130 0.129
14133 14134 0.031
14134 14135 0.271
14135 14136 0.164
14136 14137 0.028
14137 14138 0.031
14138 14143 0.273
14139 14140 0.093
14139 14142 0.292
14140 14141 0.073
14140 14143 0.032
14152 14153 0.203
14154 14155 0.163
14155 14156 0.237
14156 14157 0.026
14157 14158 0.033
14159 14160 0.129
14162 14163 0.092
14162 14164 0.176
14163 14164 0.185
14165 14166 0.111
14165 14319 0.036
14167 14168 0.293
14170 14171 0.084
14171 14172 0.089
14173 14174 0.216
14174 14175 0.125
14175 14176 0.098
14176 14177 0.201
14178 14179 0.294
14179 14830 0.266
14180 14181 0.19
14180 14829 0.03
14181 14182 0.107
14182 14183 0.044
14183 14208 0.206
14184 14185 0.07
14184 32578 0.097
14186 14187 0.126
14187 14188 0.153
14189 14190 0.217
14190 14191 0.166
14191 14192 0.146
14196 14197 0.085
14197 14198 0.077
14198 14815 0.166
14199 14214 0.259
14200 14206 0.133
14202 14203 0.201
14203 14204 0.245
14204 14205 0.276
14206 14207 0.176
14208 14213 0.051
14209 14210 0.243
14209 14228 0.107
14211 14212 0.133
14213 14214 0.304
14215 14244 0.036
14216 14217 0.086
14217 14218 0.08
14217 30401 0.128
14218 30979 0.125
14219 14227 0.216
14220 14221 0.03
14220 30401 0.078
14221 14222 0.025
14222 14223 0.054
14224 14225 0.024
14225 30980 0.12
14226 14233 0.104
14226 30980 0.04
14227 14237 0.029
14228 14229 0.113
14230 14231 0.235
14231 14232 0.043
14232 30733 0.434
14233 14234 0.025
14234 14235 0.251
14235 14236 0.033
14237 30979 0.213
14238 14239 0.234
14241 29032 0.336
14241 30736 0.069
14242 14305 0.189
14243 14305 0.083
14244 14245 0.072
14246 14247 0.167
14247 14248 0.101
14251 14278 0.162
14252 14253 0.125
14252 16742 0.119
14253 16728 0.109
14255 32860 0.114
14256 30375 0.11
14258 14310 0.114
14258 14311 0.034
14259 14260 0.088
14260 16743 0.047
14261 14262 0.089
14262 14263 0.117
14264 14265 0.31
14265 30079 0.189
14267 32378 0.076
14268 32378 0.191
14269 14270 0.144
14269 30341 0.078
14270 14271 0.061
14272 30341 0.112
14272 30917 0.236
14272 32379 0.566
14273 14276 0.035
14273 14277 0.165
14273 30732 0.118
14274 14275 0.151
14274 28217 0.065
14275 14276 0.084
14279 14280 0.113
14280 14281 0.181
14282 14283 0.095
14283 30737 0.022
14285 14286 0.035
14286 30219 0.035
14287 30219 0.136
14287 30739 0.265
14288 14289 0.023
14288 14291 0.037
14289 14290 0.035
14289 14292 0.402
14290 16713 0.18
14292 14293 0.241
14294 31401 0.011
14295 14297 0.036
14297 14298 0.032
14298 14299 0.084
14298 14302 0.014
14299 14300 0.06
14300 14301 0.16
14300 14303 0.017
14302 14303 0.014
14304 14306 0.083
14304 14310 0.07
14306 14307 0.134
14307 14308 0.053
14307 14309 0.112
14308 16743 0.103
14309 14310 0.113
14309 14312 0.125
14311 14313 0.148
14312 14313 0.042
14314 14315 0.019
14315 14316 0.173
14316 14317 0.16
14317 14318 0.27
14318 14319 0.056
14320 14321 0.364
14324 14325 0.323
14326 14327 0.17
14326 30917 0.043
14327 14328 0.147
14328 14329 0.116
14330 14331 0.141
14331 14332 0.083
14332 14333 0.149
14333 30614 0.072
14335 30615 0.035
14336 14337 0.117
14339 14340 0.245
14341 14342 0.156
14342 14343 0.074
14344 14345 0.107
14344 30728 0.318
14346 30918 0.207
14347 20684 0.296
14347 30918 0.145
14348 20683 0.432
14348 30919 0.111
14349 30730 0.08
14349 30919 0.28
14352 14353 0.143
14353 16628 0.022
14355 14356 0.324
14356 14422 0.094
14357 14358 0.217
14357 14422 0.161
14359 14360 0.244
14361 14444 0.126
14362 14514 0.086
14363 14370 0.255
14364 14365 0.195
14364 14374 0.07
14365 14368 0.072
14366 14367 0.031
14367 14368 0.028
14367 14369 0.021
14369 14371 0.164
14371 14372 0.089
14372 14373 0.05
14374 14394 0.145
14375 14376 0.07
14375 14383 0.052
14376 14377 0.249
14377 14378 0.228
14378 14379 0.063
14379 14385 0.033
14379 14387 0.129
14380 14381 0.148
14380 14382 0.228
14381 14388 0.043
14384 14421 0.159
14388 14389 0.034
14388 26185 0.117
14388 26187 0.024
14389 14390 0.151
14390 14391 0.106
14391 14392 0.132
14392 14393 0.051
14393 14394 0.035
14393 14395 0.025
14396 14397 0.206
14399 14502 0.223
14400 14401 0.049
14400 14404 0.155
14401 14403 0.329
14406 14407 0.167
14407 14408 0.177
14408 14558 0.128
14409 14410 0.03
14409 14418 0.189
14410 14411 0.282
14411 14412 0.245
14412 14413 0.252
14413 14414 0.053
14414 14501 0.044
14415 14416 0.19
14417 14515 0.128
14418 14518 0.035
14419 14518 0.062
14420 30878 0.13
14422 14423 0.046
14423 14424 0.182
14424 14425 0.181
14425 14426 0.197
14426 14427 0.037
14427 14513 0.023
14428 14429 0.094
14428 14480 0.258
14429 14444 0.037
14430 14432 0.153
14430 14444 0.028
14431 14432 0.034
14431 14435 0.186
14432 14433 0.034
14433 14434 0.143
14434 14464 0.157
14435 14436 0.181
14436 14437 0.037
14438 14439 0.191
14440 14734 0.223
14441 14443 0.133
14443 14462 0.169
14445 14479 0.18
14446 14447 0.098
14447 14448 0.186
14448 14449 0.1
14449 14460 0.113
14450 14451 0.17
14450 14460 0.036
14451 14452 0.123
14452 14453 0.173
14453 14454 0.187
14454 14455 0.106
14454 14458 0.207
14455 14456 0.146
14456 14459 0.058
14457 14458 0.045
14457 14459 0.087
14458 14461 0.113
14461 14498 0.093
14462 14463 0.067
14465 14466 0.156
14466 14467 0.201
14469 14470 0.361
14470 14707 0.02
14471 14707 0.195
14473 14476 0.15
14475 14808 0.332
14481 14482 0.117
14483 14498 0.075
14484 14485 0.039
14484 14582 0.459
14485 31858 0.12
14486 14487 0.019
14486 31858 0.149
14487 14488 0.047
14488 14533 0.137
14489 14490 0.03
14489 14491 0.236
14490 14495 0.179
14490 14499 0.146
14490 28345 0.54
14492 14495 0.023
14492 14496 0.152
14496 14497 0.12
14498 14500 0.079
14499 14500 0.166
14503 14504 0.193
14506 14507 0.068
14506 14512 0.067
14508 14509 0.097
14509 28724 0.18
14510 14511 0.037
14510 28724 0.018
14511 14512 0.016
14513 14516 0.388
14514 14516 0.179
14515 14517 0.071
14516 14517 0.053
14519 14520 0.22
14519 28725 0.116
14521 14539 0.047
14522 14539 0.104
14523 14524 0.218
14527 14546 0.136
14528 14529 0.247
14530 14531 0.201
14531 14532 0.197
14533 14584 0.235
14534 14535 0.13
14535 14536 0.161
14537 14538 0.187
14537 14539 0.046
14538 28725 0.02
14540 14587 0.181
14541 14559 0.156
14542 14543 0.19
14544 14545 0.281
14545 14575 0.21
14546 14547 0.055
14547 14548 0.064
14548 14549 0.191
14549 14550 0.127
14551 14552 0.129
14552 14553 0.1
14553 14554 0.076
14554 14555 0.165
14555 14585 0.041
14556 14557 0.244
14556 14587 0.085
14559 31855 0.047
14560 14561 0.11
14561 14562 0.153
14562 14563 0.164
14563 14564 0.246
14564 14565 0.132
14566 14588 0.073
14567 14568 0.112
14567 14588 0.038
14568 14589 0.037
14569 14570 0.114
14569 14589 0.044
14570 14571 0.065
14571 32877 0.042
14572 14573 0.202
14574 14575 0.255
14576 14577 0.17
14577 14609 0.028
14578 14609 0.1
14578 14610 0.048
14579 14610 0.143
14579 28875 0.112
14580 14734 0.153
14580 28216 0.025
14581 14583 0.203
14581 28216 0.022
14582 28216 0.022
14585 14586 0.131
14586 14587 0.043
14588 31854 0.151
14589 14590 0.077
14590 14591 0.078
14591 31854 0.207
14592 14593 0.175
14594 14595 0.041
14595 14596 0.211
14597 14598 0.304
14598 14642 0.184
14599 14622 0.113
14599 28875 0.046
14600 32570 0.135
14601 14604 0.175
14601 32570 0.156
14602 14605 0.325
14602 32567 0.052
14603 14604 0.036
14603 14605 0.227
14604 14606 0.234
14607 14608 0.029
14607 14615 0.149
14607 14616 0.162
14608 14609 0.227
14610 14611 0.072
14611 14612 0.034
14612 14615 0.147
14612 14621 0.255
14613 14621 0.034
14613 28875 0.072
14614 14615 0.018
14614 14619 0.162
14616 14617 0.018
14617 14618 0.369
14617 14619 0.148
14618 30376 0.173
14619 14620 0.257
14620 14621 0.317
14620 14691 0.036
14621 14623 0.27
14623 14624 0.039
14624 14692 0.244
14625 14626 0.171
14627 14628 0.162
14628 14629 0.063
14629 26373 0.13
14630 26323 0.372
14630 26373 0.064
14631 14632 0.377
14631 26372 0.178
14634 14635 0.174
14636 14637 0.072
14637 14638 0.263
14638 26317 0.041
14639 14640 0.117
14639 26317 0.073
14640 14641 0.077
14642 14643 0.211
14644 14645 0.288
14645 26370 0.046
14646 26370 0.191
14647 14648 0.071
14648 14649 0.179
14648 30220 0.034
14649 14650 0.134
14652 14653 0.262
14654 26350 0.146
14655 26348 0.241
14655 26349 0.044
14656 14657 0.188
14656 14658 0.142
14657 14665 0.235
14658 14659 0.167
14659 14662 0.213
14660 14661 0.199
14660 14662 0.036
14662 14663 0.219
14663 14664 0.04
14663 14670 0.109
14664 14665 0.113
14666 14667 0.165
14666 14668 0.178
14668 14669 0.07
14670 14671 0.129
14671 14672 0.106
14672 14673 0.02
14673 14674 0.125
14674 14675 0.119
14675 14676 0.198
14676 14677 0.106
14677 14678 0.061
14677 14681 0.153
14678 14679 0.213
14679 14680 0.196
14682 14683 0.175
14683 28027 0.588
14684 14688 0.234
14685 14686 0.101
14685 14688 0.024
14686 26367 0.159
14687 32886 0.022
14688 16527 0.049
14689 29623 0.083
14690 26380 0.04
14690 29623 0.108
14691 14694 0.345
14692 14693 0.106
14693 14694 0.027
14695 14721 0.178
14696 14697 0.081
14697 14698 0.121
14698 14699 0.198
14700 14701 0.086
14702 14703 0.201
14702 14714 0.155
14703 14704 0.153
14704 14705 0.155
14705 14706 0.037
14707 14713 0.222
14708 14711 0.049
14708 14713 0.158
14709 14710 0.16
14709 14718 0.062
14710 14711 0.128
14712 14713 0.033
14712 14714 0.102
14715 14716 0.133
14715 14718 0.148
14716 14717 0.044
14717 14719 0.04
14722 14723 0.153
14722 28346 0.095
14723 14724 0.134
14725 14726 0.043
14725 16531 0.27
14725 32573 0.063
14726 14727 0.197
14728 32572 0.106
14729 14730 0.238
14730 27756 0.062
14731 14732 0.083
14731 28885 0.116
14732 14733 0.111
14733 16547 0.311
14736 14737 0.082
14737 14738 0.069
14738 14739 0.152
14740 14745 0.277
14741 14742 0.234
14743 15738 0.339
14746 14747 0.175
14747 14748 0.047
14748 14749 0.039
14748 14752 0.212
14748 14774 0.226
14749 14750 0.166
14750 14751 0.216
14751 14756 0.047
14752 14753 0.174
14753 14754 0.03
14754 14757 0.052
14754 14778 0.165
14755 14756 0.149
14757 14758 0.151
14759 14760 0.144
14760 14761 0.132
14761 14762 0.1
14762 14763 0.109
14763 14764 0.087
14764 14765 0.133
14765 14766 0.108
14766 14767 0.029
14767 14782 0.185
14767 14783 0.048
14768 14779 0.028
14768 14780 0.054
14768 14781 0.102
14769 14792 0.047
14769 14793 0.044
14770 14776 0.056
14770 14777 0.076
14770 14779 0.034
14771 14772 0.097
14771 14773 0.052
14771 14775 0.162
14773 14774 0.165
14775 14776 0.192
14777 14778 0.203
14780 14784 0.168
14781 14782 0.083
14783 14792 0.165
14784 14785 0.155
14785 14786 0.069
14787 14788 0.181
14788 14789 0.191
14789 14790 0.117
14790 14791 0.15
14794 14795 0.211
14795 14796 0.335
14798 14799 0.167
14799 14800 0.165
14801 14802 0.141
14803 14804 0.147
14804 14805 0.124
14806 14807 0.167
14806 16739 0.19
14809 14810 0.195
14810 14811 0.334
14811 14812 0.118
14812 14827 0.265
14813 14814 0.122
14813 14816 0.181
14817 14826 0.04
14818 14820 0.155
14819 14820 0.024
14819 14823 0.182
14820 14824 0.032
14821 14822 0.203
14821 14824 0.336
14822 14823 0.37
14828 27757 0.107
14829 14830 0.02
14829 27758 0.181
14831 14832 0.166
14833 14834 0.112
14833 14835 0.244
14834 32380 0.083
14836 14837 0.043
14836 16636 0.065
14837 14838 0.179
14838 14839 0.263
14839 28203 0.242
14840 14841 0.184
14840 29089 0.102
14841 14842 0.194
14842 14843 0.265
14844 14845 0.159
14845 14846 0.172
14846 14850 0.188
14847 14848 0.091
14848 14849 0.149
14849 14850 0.14
14851 14852 0.109
14851 29089 0.157
14852 14853 0.098
14854 14855 0.23
14855 14856 0.122
14857 14860 0.17
14858 14859 0.152
14858 14904 0.113
14860 14861 0.345
14861 14881 0.218
14862 14863 0.104
14862 14865 0.183
14863 14864 0.263
14865 14937 0.263
14866 14867 0.101
14867 14868 0.104
14869 14870 0.356
14870 31636 0.161
14871 31637 0.299
14872 31637 0.134
14873 14874 0.225
14873 16180 0.25
14874 29408 0.167
14875 14876 0.189
14875 29408 0.128
14877 14878 0.135
14877 14879 0.096
14878 14885 0.149
14879 14880 0.383
14881 14882 0.12
14882 14883 0.252
14883 14884 0.125
14884 14885 0.035
14885 23346 0.12
14886 14887 0.171
14886 14916 0.183
14886 31944 0.171
14887 31950 0.06
14888 14889 0.283
14888 31950 0.217
14889 14893 0.382
14890 14891 0.097
14890 14892 0.025
14890 14893 0.108
14892 14915 0.192
14894 16113 0.362
14894 16139 0.056
14895 14896 0.127
14895 16139 0.07
14896 14897 0.055
14897 14898 0.131
14898 14899 0.026
14899 14900 0.026
14899 14901 0.069
14901 28867 0.322
14902 14910 0.03
14902 14911 0.274
14902 14913 0.149
14903 14914 0.05
14903 16110 0.123
14903 29409 0.27
14904 14905 0.052
14905 14907 0.14
14906 14907 0.04
14906 14915 0.2
14907 14912 0.19
14908 14909 0.368
14909 14910 0.163
14911 14912 0.16
14911 29409 0.35
14913 14914 0.156
14918 14920 0.143
14919 14920 0.221
14919 31951 0.068
14921 14922 0.233
14921 31951 0.158
14924 14925 0.197
14925 29168 0.124
14926 14927 0.03
14927 14928 0.214
14928 14930 0.102
14929 14930 0.021
14929 14931 0.114
14930 14934 0.122
14932 14933 0.044
14932 14934 0.179
14933 15186 0.098
14934 14935 0.041
14935 14936 0.173
14937 14938 0.595
14939 14941 0.021
14940 14941 0.02
14940 14942 0.292
14941 14944 0.339
14942 14943 0.113
14943 14944 0.041
14943 14955 0.099
14945 15063 0.088
14946 14947 0.225
14948 15064 0.061
14948 15081 0.18
14949 14962 0.286
14950 14951 0.204
14951 28218 0.063
14952 14953 0.159
14952 28218 0.144
14953 14954 0.188
14955 14956 0.037
14956 14957 0.14
14957 14958 0.182
14958 14959 0.025
14958 28218 0.121
14959 14960 0.146
14960 14961 0.183
14961 14962 0.036
14962 14963 0.117
14963 14965 0.071
14964 14965 0.118
14964 14982 0.035
14966 14967 0.154
14967 14968 0.107
14968 14969 0.089
14968 14970 0.215
14970 14973 0.19
14971 14972 0.143
14972 14973 0.055
14973 14974 0.066
14976 14977 0.16
14977 14990 0.138
14978 14979 0.119
14978 15092 0.145
14980 14981 0.164
14981 14982 0.03
14982 14983 0.043
14983 14984 0.114
14984 14985 0.179
14985 14986 0.161
14987 14988 0.042
14987 14989 0.244
14988 14993 0.145
14989 14990 0.072
14990 14991 0.135
14992 14993 0.223
14996 14997 0.097
14997 29410 0.223
14998 14999 0.197
14998 15000 0.102
14999 15041 0.219
15000 15001 0.063
15001 15002 0.174
15002 15003 0.202
15003 15004 0.069
15003 15006 0.118
15004 15087 0.096
15005 15088 0.194
15007 29410 0.033
15008 15009 0.2
15009 15010 0.024
15010 15011 0.226
15011 15012 0.366
15012 15030 0.33
15013 15014 0.138
15014 15015 0.23
15016 15040 0.268
15017 15019 0.221
15019 15021 0.161
15020 15021 0.047
15022 15023 0.08
15023 15024 0.056
15024 15025 0.093
15025 15026 0.293
15026 15027 0.16
15028 15029 0.116
15029 15106 0.253
15031 15032 0.175
15031 31526 0.133
15032 15033 0.183
15034 15035 0.169
15036 26112 0.353
15037 15038 0.201
15038 27012 0.22
15039 15040 0.186
15041 15042 0.171
15042 15043 0.194
15044 15045 0.155
15046 15047 0.312
15047 15048 0.171
15049 15050 0.134
15050 15051 0.18
15051 15052 0.15
15052 15053 0.168
15053 31953 0.035
15054 15055 0.226
15056 15077 0.054
15057 15058 0.177
15058 15059 0.17
15059 15089 0.1
15060 15089 0.033
15061 15062 0.164
15063 15065 0.168
15063 26967 0.759
15064 15065 0.195
15066 15067 0.234
15066 15091 0.275
15067 15068 0.165
15070 15071 0.155
15071 15072 0.247
15073 15074 0.155
15075 15355 0.212
15076 15357 0.162
15077 15078 0.05
15078 30402 0.049
15079 15080 0.154
15079 30402 0.237
15080 15081 0.165
15081 26966 0.286
15083 26963 0.241
15084 26954 0.256
15089 15090 0.206
15090 15091 0.19
15093 30358 0.188
15095 32740 0.198
15097 15098 0.204
15097 15118 0.225
15099 15100 0.118
15100 15101 0.196
15101 15102 0.165
15103 15104 0.137
15108 15123 0.088
15108 15125 0.119
15109 15123 0.064
15110 28219 0.026
15111 28219 0.168
15112 15150 0.161
15113 27001 0.19
15114 15115 0.206
15115 15116 0.282
15117 15118 0.221
15119 15120 0.182
15120 15132 0.186
15121 28895 0.291
15121 32677 0.055
15122 15124 0.173
15122 28220 0.02
15123 15124 0.039
15125 15126 0.227
15126 15127 0.173
15126 15128 0.176
15127 28220 0.025
15128 15129 0.162
15129 15130 0.155
15130 15131 0.153
15131 15132 0.026
15132 15133 0.027
15133 15134 0.124
15137 15138 0.209
15137 15142 0.245
15139 15140 0.272
15140 15141 0.334
15142 26984 0.249
15143 15144 0.133
15143 26982 0.199
15144 26986 0.177
15145 15631 0.236
15145 26986 0.044
15146 15359 0.223
15146 28882 0.11
15147 15149 0.162
15149 15150 0.194
15151 15152 0.151
15153 15154 0.04
15154 15155 0.111
15155 15156 0.126
15156 15157 0.136
15157 15158 0.097
15158 26994 0.517
15159 15160 0.161
15161 15162 0.113
15163 15164 0.169
15165 15167 0.262
15167 15168 0.213
15169 15362 0.2
15170 15172 0.121
15171 26960 0.383
15172 26944 0.207
15175 15176 0.187
15175 15201 0.492
15175 15214 0.193
15176 15177 0.226
15177 15178 0.203
15179 31934 0.16
15180 15181 0.11
15180 31934 0.071
15181 26228 0.221
15182 15183 0.176
15183 31939 0.066
15184 31939 0.047
15185 15186 0.154
15185 15189 0.352
15186 15206 0.466
15187 15188 0.241
15188 15189 0.054
15188 15190 0.044
15190 15191 0.235
15191 28779 0.088
15192 15193 0.093
15192 28779 0.139
15193 15194 0.094
15193 15201 0.135
15194 15195 0.182
15195 15196 0.132
15195 15269 0.339
15196 15197 0.102
15197 15268 0.02
15198 15199 0.142
15198 15268 0.05
15199 15200 0.083
15200 31940 0.063
15201 15202 0.061
15202 15203 0.154
15203 15204 0.18
15204 15205 0.329
15205 15206 0.08
15206 15213 0.118
15207 15208 0.126
15207 26965 0.225
15207 29087 0.581
15208 28222 0.2
15209 15210 0.269
15209 28222 0.054
15210 15211 0.092
15211 15212 0.077
15212 15213 0.027
15215 15216 0.176
15217 15218 0.207
15218 26937 0.182
15219 26937 0.096
15220 15221 0.18
15220 15233 0.08
15220 31927 0.268
15221 15291 0.271
15222 15223 0.313
15222 15225 0.26
15222 31927 0.343
15223 15224 0.18
15225 15226 0.135
15226 15227 0.178
15227 15228 0.148
15228 15229 0.1
15230 15231 0.185
15230 15267 0.101
15231 15301 0.132
15232 15267 0.072
15234 15235 0.213
15234 15242 0.174
15235 15241 0.196
15236 15242 0.178
15236 15251 0.063
15237 15238 0.161
15237 15254 0.057
15237 15255 0.043
15238 15239 0.287
15239 15240 0.127
15240 15243 0.053
15241 15244 0.047
15243 15244 0.185
15243 29411 0.307
15244 29165 0.208
15245 16061 0.034
15245 29411 0.291
15246 16125 0.154
15246 31632 0.139
15247 15248 0.217
15249 15250 0.233
15249 16057 0.119
15250 16111 0.222
15251 15252 0.196
15253 15254 0.178
15255 16077 0.231
15256 15262 0.062
15256 15297 0.232
15257 15258 0.294
15257 15266 0.275
15258 15259 0.169
15259 15260 0.245
15259 15261 0.087
15260 31943 0.075
15261 15265 0.064
15262 15264 0.128
15262 16076 0.241
15263 15264 0.227
15263 15265 0.181
15266 15267 0.178
15268 15269 0.138
15270 15279 0.238
15271 15272 0.165
15272 15273 0.295
15273 15274 0.178
15274 15275 0.163
15275 15276 0.267
15277 15278 0.171
15278 15279 0.187
15280 32693 0.029
15281 15282 0.237
15282 15286 0.205
15283 15284 0.056
15283 32714 0.035
15284 15285 0.058
15285 15286 0.061
15287 15288 0.235
15287 26923 0.239
15288 26916 0.041
15289 26916 0.182
15290 20754 1.021
15291 15292 0.273
15293 15294 0.179
15294 15295 0.128
15296 15298 0.208
15298 15301 0.173
15298 15302 0.132
15299 15300 0.228
15299 15302 0.332
15300 16070 0.153
15303 15350 0.141
15304 15310 0.324
15305 15309 0.151
15306 15307 0.247
15307 15308 0.297
15309 32369 0.132
15311 15312 0.172
15312 15376 0.214
15314 15319 0.18
15315 15316 0.11
15316 15317 0.088
15317 30489 0.201
15318 15387 0.327
15319 15320 0.125
15320 15369 0.045
15321 15374 0.161
15321 30457 0.022
15322 15323 0.065
15322 15351 0.135
15323 15326 0.115
15323 15352 0.048
15324 15325 0.198
15324 15364 0.072
15325 15326 0.299
15327 15350 0.025
15327 15351 0.158
15328 15381 0.115
15328 15408 0.03
15329 15330 0.099
15329 15408 0.134
15329 31956 0.25
15330 15331 0.124
15332 30221 0.266
15333 15410 0.089
15333 30221 0.037
15334 15410 0.189
15334 15449 0.177
15335 26971 0.213
15335 26975 0.098
15337 15339 0.104
15338 30081 0.04
15340 15341 0.019
15340 15358 0.161
15341 15342 0.074
15341 15343 0.027
15342 15344 0.159
15343 15354 0.157
15344 15345 0.031
15345 15346 0.13
15346 15347 0.049
15346 15351 0.28
15347 15348 0.153
15348 15349 0.145
15349 15350 0.1
15352 15353 0.024
15352 15357 0.22
15353 15354 0.243
15355 15356 0.065
15356 25493 0.156
15358 28882 0.034
15359 15360 0.105
15360 15361 0.069
15363 32685 0.069
15363 32686 0.123
15364 32685 0.081
15365 15366 0.029
15365 15411 0.227
15366 15367 0.33
15367 30491 0.034
15368 15369 0.109
15368 15370 0.181
15368 30491 0.108
15369 15372 0.479
15369 30457 0.108
15370 30454 0.166
15371 15372 0.167
15371 30454 0.025
15372 26914 0.074
15373 15374 0.058
15373 26914 0.295
15374 15375 0.22
15375 15406 0.136
15375 30490 0.17
15376 15377 0.14
15380 15381 0.247
15382 15383 0.045
15382 26975 0.141
15383 15384 0.042
15383 15385 0.027
15384 15393 0.37
15386 15387 0.236
15388 15389 0.165
15388 15390 0.183
15389 15391 0.132
15390 15392 0.227
15391 15393 0.242
15392 15394 0.158
15394 15395 0.2
15396 15397 0.151
15397 15398 0.18
15401 15402 0.115
15401 15403 0.032
15402 15403 0.131
15402 15404 0.013
15404 15405 0.104
15405 15407 0.159
15406 15407 0.166
15408 15409 0.167
15409 15410 0.226
15411 30492 0.039
15412 15413 0.192
15412 30456 0.333
15412 30492 0.162
15414 15419 0.109
15416 15418 0.115
15420 15421 0.12
15421 15423 0.05
15422 15423 0.134
15424 15427 0.192
15425 15426 0.211
15426 15429 0.293
15426 15430 0.123
15426 15443 0.229
15427 15429 0.03
15428 15429 0.032
15428 15435 0.207
15430 15431 0.101
15431 15432 0.029
15432 15433 0.021
15432 15441 0.218
15433 15434 0.145
15434 15436 0.129
15435 15436 0.016
15436 15437 0.031
15437 15438 0.164
15438 15439 0.085
15441 15442 0.052
15442 15443 0.175
15442 15444 0.137
15444 15445 0.076
15445 15446 0.146
15446 15447 0.185
15448 15449 0.049
15450 32672 0.127
15451 15452 0.209
15451 15556 0.165
15452 15453 0.268
15453 15454 0.189
15454 15455 0.305
15457 30222 0.237
15458 28223 0.165
15458 30222 0.031
15459 15460 0.364
15459 28223 0.177
15460 15461 0.061
15461 15464 0.221
15462 15469 0.196
15464 28223 0.156
15465 31958 0.185
15466 15471 0.324
15467 15468 0.113
15468 31958 0.04
15469 15470 0.295
15470 15473 0.221
15473 15474 0.059
15474 15475 0.075
15475 15476 0.205
15477 15478 0.175
15479 15480 0.181
15481 15482 0.238
15483 15484 0.152
15484 15485 0.176
15485 15486 0.152
15486 15487 0.157
15487 15488 0.067
15488 15489 0.085
15489 15490 0.121
15490 15491 0.09
15491 15492 0.191
15492 28903 0.038
15493 15494 0.264
15493 28903 0.272
15494 15496 0.092
15495 15496 0.088
15497 15498 0.107
15497 16428 0.169
15499 28495 0.105
15500 28494 0.088
15500 28495 0.043
15501 15502 0.16
15501 15507 0.326
15502 15503 0.095
15503 15504 0.331
15504 15505 0.263
15505 15506 0.079
15506 15508 0.288
15506 32363 0.13
15507 15508 0.041
15508 15509 0.145
15509 15510 0.094
15510 15511 0.159
15510 32365 0.036
15510 32366 0.319
15511 15512 0.216
15512 15513 0.184
15513 15514 0.124
15514 15515 0.259
15515 28224 0.039
15516 15517 0.025
15516 15522 0.306
15517 15518 0.025
15517 28224 0.019
15518 15520 0.198
15519 15525 0.04
15519 28224 0.083
15520 15521 0.225
15521 15522 0.129
15521 15581 0.314
15523 15524 0.065
15523 15525 0.143
15524 15527 0.326
15525 32364 0.078
15526 15527 0.12
15526 32363 0.246
15526 32366 0.101
15528 15529 0.197
15528 15532 0.155
15529 15530 0.143
15530 15531 0.255
15532 15533 0.328
15534 15535 0.021
15535 15540 0.132
15536 15537 0.259
15537 15539 0.239
15538 15540 0.073
15538 30621 0.023
15539 30621 0.02
15541 15542 0.399
15541 15551 0.27
15542 15543 0.03
15543 15544 0.034
15543 15548 0.131
15543 15550 0.153
15546 15547 0.172
15547 15549 0.045
15548 15549 0.033
15551 30920 0.115
15552 28904 0.054
15552 30920 0.165
15553 15554 0.026
15553 15570 0.631
15554 15555 0.261
15555 15556 0.045
15556 15557 0.032
15560 15561 0.12
15561 15562 0.153
15562 15567 0.062
15563 15567 0.189
15564 15578 0.254
15565 15570 0.062
15566 15571 0.242
15567 15568 0.05
15568 15569 0.226
15569 15570 0.036
15572 15591 0.322
15573 15574 0.213
15573 15599 0.092
15574 15604 0.028
15575 15576 0.05
15575 15604 0.058
15576 15577 0.044
15579 15580 0.146
15582 15584 0.144
15583 15618 0.283
15585 15586 0.099
15586 15694 0.506
15587 15588 0.209
15588 15589 0.159
15589 15590 0.129
15592 15600 0.157
15593 15594 0.162
15594 15595 0.312
15596 26987 0.298
15596 32362 0.121
15597 15598 0.03
15597 15601 0.091
15598 15599 0.014
15598 15600 0.019
15601 15602 0.091
15601 15603 0.297
15602 16047 0.107
15603 15604 0.143
15603 16049 0.209
15605 16047 0.051
15606 15607 0.187
15606 15608 0.144
15606 15612 0.189
15608 15609 0.04
15608 15613 0.169
15609 15610 0.205
15610 15611 0.216
15611 15612 0.074
15611 32939 0.167
15613 15614 0.037
15614 15616 0.197
15615 15617 0.177
15616 15619 0.411
15617 15618 0.215
15619 15620 0.117
15620 15621 0.228
15621 15622 0.113
15622 15623 0.156
15624 15625 0.271
15624 15647 0.212
15625 15626 0.258
15626 15627 0.034
15626 15635 0.378
15627 15628 0.239
15628 15629 0.115
15629 15630 0.077
15630 15636 0.174
15632 15633 0.212
15634 15635 0.043
15634 15650 0.192
15635 32358 0.185
15637 15646 0.399
15637 15651 0.183
15637 15652 0.047
15638 15639 0.125
15638 32355 0.038
15639 15640 0.206
15640 15641 0.303
15641 15642 0.194
15642 15643 0.17
15643 15644 0.111
15644 15645 0.09
15645 15646 0.142
15646 15647 0.043
15648 15651 0.297
15649 15650 0.214
15649 27096 0.081
15653 15654 0.323
15653 15656 0.35
15654 15655 0.028
15654 15661 0.322
15655 15663 0.215
15656 15657 0.53
15657 15658 0.22
15658 15659 0.144
15659 15660 0.134
15659 15661 0.287
15660 15665 0.172
15662 15663 0.243
15662 15664 0.203
15664 15665 0.157
15666 15667 0.107
15667 15668 0.078
15668 15669 0.105
15670 15671 0.12
15672 28507 0.013
15673 28507 0.17
15673 32941 0.15
15674 15675 0.276
15674 32941 0.04
15675 15676 0.127
15676 15682 0.038
15677 15683 0.042
15677 28727 0.02
15678 15679 0.084
15678 15683 0.069
15678 28726 0.054
15679 15680 0.133
15680 15681 0.131
15681 15682 0.255
15684 16052 0.153
15685 15688 0.187
15686 15687 0.239
15687 28278 0.091
15689 30403 0.184
15690 15691 0.135
15691 27103 0.061
15692 15693 0.137
15694 16054 0.208
15695 16028 0.065
15695 30403 0.109
15696 16028 0.151
15698 16029 0.192
15699 15700 0.217
15699 15703 0.015
15700 28728 0.053
15701 15702 0.33
15701 28728 0.17
15702 15713 0.081
15703 15704 0.152
15704 15710 0.05
15705 15706 0.116
15705 15708 0.025
15705 15709 0.093
15707 15708 0.165
15709 15710 0.18
15712 15713 0.186
15714 15715 0.184
15715 15716 0.125
15716 15717 0.074
15717 15718 0.197
15719 15720 0.176
15722 29038 0.076
15725 15726 0.104
15727 15728 0.161
15727 16020 0.079
15727 29243 0.079
15728 29210 0.267
15730 30325 0.081
15731 30324 0.061
15732 20654 0.224
15732 27999 0.069
15733 15734 0.265
15733 27999 0.146
15735 15736 0.073
15735 32555 0.195
15736 15738 0.243
15740 15741 0.293
15740 26509 0.233
15741 15754 0.237
15741 15755 0.174
15742 15743 0.199
15742 15753 0.054
15742 15754 0.13
15743 26494 0.427
15744 15752 0.248
15744 15755 0.131
15745 15746 0.124
15745 25298 0.173
15745 26504 0.394
15746 15747 0.112
15747 15748 0.203
15748 15749 0.102
15749 15753 0.161
15750 15751 0.219
15751 15752 0.15
15756 15757 0.036
15756 15760 0.205
15757 26504 0.095
15758 15759 0.151
15758 15760 0.221
15759 15761 0.182
15761 15762 0.249
15762 15763 0.061
15763 25299 0.206
15764 15765 0.231
15765 28278 0.323
15766 15774 0.073
15766 15784 0.344
15767 15774 0.24
15768 15769 0.087
15769 15770 0.147
15770 15771 0.52
15771 32307 0.039
15772 15773 0.118
15772 32307 0.11
15774 15775 0.04
15775 15776 0.083
15776 15777 0.056
15777 15778 0.074
15778 15779 0.04
15779 15780 0.176
15780 15781 0.055
15781 15782 0.225
15782 15783 0.034
15783 15790 0.069
15784 15785 0.016
15785 15786 0.032
15785 15834 0.186
15786 15787 0.141
15787 15813 0.034
15787 15833 0.285
15788 15789 0.341
15788 15853 0.171
15790 15791 0.129
15792 15817 0.031
15793 15794 0.265
15793 15826 0.181
15794 15795 0.033
15795 15796 0.033
15795 15797 0.028
15795 15801 0.198
15796 15803 0.219
15797 15798 0.194
15799 15800 0.165
15800 15801 0.078
15801 15802 0.148
15802 15827 0.129
15803 15804 0.029
15804 15805 0.375
15804 15809 0.191
15805 28780 0.102
15806 15807 0.224
15806 28780 0.142
15807 15808 0.17
15808 15809 0.176
15810 29412 0.173
15811 15837 0.28
15811 29412 0.629
15812 15814 0.02
15812 15827 0.198
15812 31971 0.142
15813 15826 0.043
15813 31971 0.085
15814 15825 0.025
15814 28996 0.094
15815 15816 0.243
15815 15822 0.066
15815 15823 0.131
15815 30493 0.143
15816 15828 0.23
15817 15832 0.037
15818 15838 0.107
15819 15840 0.184
15819 30476 0.194
15819 30494 0.039
15820 15821 0.134
15820 30494 0.161
15821 15822 0.144
15823 15824 0.191
15824 15832 0.156
15828 15829 0.104
15829 15830 0.108
15830 15831 0.09
15830 31973 0.052
15835 30475 0.21
15836 30475 0.102
15838 15839 0.191
15839 30470 0.188
15839 30472 0.054
15840 30470 0.026
15841 15842 0.136
15842 15843 0.033
15844 28592 0.03
15845 15846 0.236
15845 28592 0.084
15845 30466 0.353
15846 15847 0.118
15847 15848 0.183
15847 28589 0.111
15848 15849 0.197
15849 15850 0.185
15849 30513 0.113
15850 28591 0.086
15851 15852 0.039
15851 28591 0.133
15854 15875 0.119
15855 15866 0.122
15856 15878 0.036
15856 15879 0.023
15856 32872 0.405
15857 15866 0.24
15857 28729 0.123
15858 15859 0.312
15858 15867 0.023
15858 28729 0.011
15859 15865 0.088
15859 15868 0.226
15860 15863 0.139
15860 15864 0.021
15860 15865 0.048
15861 15862 0.03
15861 15863 0.048
15861 25038 0.172
15864 15879 0.19
15867 15872 0.148
15868 15869 0.105
15869 15870 0.207
15870 15871 0.073
15871 15872 0.233
15873 15877 0.208
15873 15882 0.079
15874 15882 0.116
15874 15883 0.024
15874 15884 0.091
15875 15880 0.12
15875 15881 0.025
15876 15895 0.042
15876 15920 0.138
15876 32887 0.522
15878 15883 0.185
15881 32887 0.085
15884 15895 0.037
15885 15886 0.056
15885 15889 0.682
15886 31972 0.216
15887 15890 0.038
15888 15889 0.116
15888 15921 0.151
15890 15891 0.079
15890 15894 0.033
15891 15892 0.033
15891 15895 0.277
15892 15893 0.028
15894 28911 0.112
15896 15897 0.22
15897 15898 0.112
15898 15919 0.185
15899 15900 0.287
15900 31976 0.21
15901 31976 0.076
15902 15932 0.099
15903 15904 0.099
15904 15905 0.1
15905 15906 0.041
15907 15908 0.098
15909 15910 0.112
15910 15911 0.033
15910 15919 0.334
15911 15912 0.17
15912 15913 0.116
15913 15914 0.131
15914 15915 0.151
15915 15916 0.05
15916 15917 0.057
15917 15918 0.227
15918 15919 0.054
15920 28911 0.037
15921 28911 0.043
15922 15923 0.085
15922 15925 0.148
15923 15924 0.085
15926 15927 0.113
15926 15928 0.104
15928 15929 0.085
15929 15930 0.077
15930 15931 0.135
15931 15932 0.051
15933 15934 0.278
15933 15979 0.019
15934 15935 0.201
15935 15936 0.224
15936 28580 0.046
15937 28581 0.021
15938 28581 0.046
15939 15940 0.222
15941 15942 0.033
15941 15943 0.051
15942 15965 0.238
15943 15944 0.026
15943 15968 0.136
15944 15945 0.151
15945 15946 0.253
15946 15947 0.421
15947 15948 0.038
15948 15949 0.336
15950 15951 0.214
15951 28995 0.143
15952 15953 0.115
15952 28995 0.072
15953 15954 0.117
15954 15955 0.317
15955 15956 0.098
15956 27117 0.021
15957 15958 0.141
15957 27117 0.198
15958 15959 0.265
15959 15960 0.287
15961 15962 0.171
15962 15963 0.25
15963 15964 0.111
15964 23025 0.343
15965 15966 0.2
15966 15967 0.128
15967 15976 0.203
15968 15969 0.058
15970 15971 0.049
15970 15973 0.119
15973 15974 0.302
15974 15975 0.395
15975 15976 0.191
15977 15978 0.197
15977 15981 0.041
15977 15982 0.017
15979 15980 0.419
15980 15981 0.219
15983 15984 0.094
15983 15985 0.032
15983 15990 0.117
15985 30465 0.147
15986 15987 0.022
15986 30465 0.067
15987 15988 0.028
15987 15989 0.098
15987 30495 0.144
15989 15990 0.107
15990 30462 0.111
15991 30485 0.192
15992 30463 0.061
15992 30496 0.146
15993 15996 0.252
15994 29011 0.163
15995 29011 0.141
15995 29012 0.142
15996 27739 0.148
15997 28594 0.091
15998 16019 0.297
15998 28277 0.014
15999 16000 0.092
16000 16001 0.19
16000 16002 0.085
16001 16004 0.34
16002 16003 0.234
16002 30497 0.496
16003 28593 0.074
16004 28730 0.175
16005 28730 0.081
16005 29010 0.052
16006 16007 0.024
16006 28593 0.139
16008 16009 0.064
16009 16010 0.059
16011 29266 0.086
16012 28279 0.182
16012 28280 0.069
16013 28280 0.282
16014 16015 0.14
16014 28279 0.263
16015 16016 0.026
16022 16023 0.098
16022 16050 0.22
16023 16024 0.202
16024 16025 0.127
16025 16026 0.054
16026 16027 0.059
16026 16028 0.26
16027 16030 0.329
16029 16035 0.202
16030 16031 0.282
16031 16032 0.151
16032 16034 0.019
16033 16034 0.02
16033 16042 0.22
16034 16035 0.036
16035 16038 0.177
16036 16037 0.063
16036 16041 0.129
16036 16043 0.084
16037 16042 0.102
16037 16044 0.207
16038 16039 0.018
16038 16040 0.047
16039 32888 0.037
16040 16041 0.099
16043 16044 0.264
16045 16046 0.202
16045 28466 0.263
16046 16048 0.03
16046 16049 0.04
16047 28466 0.09
16048 32888 0.204
16050 16051 0.044
16051 16053 0.037
16052 16053 0.022
16053 16054 0.026
16056 31670 0.056
16058 16059 0.163
16058 16100 0.262
16059 16090 0.557
16060 16083 0.362
16060 32704 0.149
16061 32704 0.067
16062 16063 0.359
16063 32705 0.197
16064 16065 0.13
16065 16082 0.076
16066 16080 0.275
16067 28862 0.055
16068 32692 0.153
16068 32696 0.242
16069 16070 0.09
16069 26925 0.213
16071 16072 0.062
16071 16074 0.186
16072 16073 0.094
16078 16079 0.162
16078 16339 0.134
16081 16082 0.173
16081 16087 0.248
16082 32698 0.126
16083 16084 0.027
16083 32698 0.078
16084 16085 0.188
16085 16086 0.045
16086 16088 0.244
16086 16089 0.148
16087 16089 0.056
16088 16093 0.258
16091 16092 0.23
16091 32699 0.16
16092 16093 0.194
16094 29413 0.184
16094 32699 0.086
16095 16096 0.069
16095 29413 0.173
16096 16129 0.044
16096 16131 0.041
16097 16106 0.057
16097 16237 0.447
16098 16106 0.15
16098 16122 0.04
16099 16122 0.062
16099 27118 0.161
16102 16103 0.189
16103 30404 0.112
16103 32715 0.104
16104 30405 0.036
16104 32715 0.124
16105 30405 0.099
16106 16107 0.082
16107 16108 0.258
16108 16109 0.211
16109 28731 0.31
16110 16112 0.045
16111 16112 0.038
16112 32730 0.106
16114 16146 0.104
16115 31670 0.273
16116 16117 0.365
16117 16118 0.17
16118 16119 0.095
16119 16120 0.094
16120 16121 0.209
16121 16123 0.038
16122 16123 0.098
16123 16124 0.205
16126 16127 0.046
16127 30404 0.521
16128 16131 0.035
16128 27130 0.071
16129 27130 0.055
16130 16131 0.245
16130 31632 0.018
16132 16133 0.065
16132 16135 0.061
16133 16134 0.043
16133 16140 0.186
16134 16143 0.257
16135 16136 0.168
16136 16137 0.148
16137 16138 0.278
16138 16147 0.19
16139 16142 0.294
16140 16141 0.134
16141 28732 0.157
16142 28732 0.03
16144 16145 0.251
16144 32729 0.111
16145 32728 0.113
16146 16147 0.022
16146 16174 0.314
16148 16223 0.308
16149 16150 0.16
16149 16281 0.255
16151 16187 0.215
16153 16155 0.205
16154 16155 0.056
16154 16156 0.174
16155 16169 0.162
16156 16157 0.069
16157 16158 0.12
16158 16159 0.221
16159 16160 0.063
16160 16161 0.175
16161 32722 0.102
16162 32721 0.07
16162 32722 0.092
16163 16223 0.182
16164 16165 0.051
16164 16166 0.11
16164 16168 0.155
16165 32727 0.067
16166 16167 0.149
16167 16170 0.139
16169 16170 0.063
16169 16171 0.037
16170 16175 0.688
16171 16173 0.233
16175 16176 0.108
16176 16177 0.161
16178 16179 0.271
16179 32727 0.149
16180 16181 0.204
16181 29166 0.407
16183 30439 0.112
16184 16185 0.078
16185 16188 0.486
16185 30439 0.233
16186 16187 0.08
16186 16188 0.04
16186 16189 0.051
16186 32723 0.157
16189 16190 0.194
16190 16191 0.123
16191 28401 0.107
16192 28401 0.128
16193 16194 0.127
16194 16195 0.122
16195 25534 0.223
16196 16197 0.042
16196 16204 0.239
16197 16198 0.122
16197 16215 0.215
16198 16199 0.224
16199 16200 0.173
16200 16201 0.023
16201 16202 0.191
16201 16205 0.046
16202 16203 0.136
16203 16204 0.306
16205 16206 0.119
16206 16207 0.176
16207 16208 0.079
16208 16209 0.057
16208 16211 0.23
16209 16210 0.04
16210 25553 0.161
16211 16212 0.32
16212 16213 0.195
16213 16214 0.133
16214 16215 0.211
16216 16217 0.129
16216 16280 0.032
16216 32718 0.038
16217 16218 0.224
16218 16219 0.21
16219 16220 0.293
16220 16226 0.228
16221 16222 0.283
16221 16280 0.291
16222 16223 0.13
16224 16225 0.161
16224 16278 0.198
16225 16227 0.239
16226 16227 0.025
16226 16228 0.19
16228 16252 0.273
16229 16252 0.098
16229 16268 0.165
16229 32720 0.198
16230 16315 0.142
16231 16232 0.127
16232 16233 0.195
16234 16253 0.586
16235 16237 0.26
16236 16240 0.191
16236 31633 0.043
16238 16239 0.538
16238 16241 0.14
16239 16240 0.212
16241 16242 0.246
16243 16244 0.276
16244 16245 0.198
16245 16287 0.346
16246 16247 0.032
16246 16266 0.205
16247 16248 0.044
16247 16249 0.132
16248 16251 0.195
16249 16269 0.281
16250 16251 0.05
16250 16267 0.092
16250 16268 0.03
16252 16265 0.444
16253 16258 0.193
16254 16255 0.041
16254 16264 0.059
16255 16256 0.14
16255 16259 0.118
16256 16257 0.565
16256 29090 0.255
16257 16314 0.034
16257 16329 0.303
16258 16263 0.061
16258 16264 0.034
16259 16260 0.186
16260 16261 0.089
16261 16262 0.178
16262 29090 0.074
16265 16267 0.03
16266 16267 0.129
16269 16270 0.124
16271 16272 0.117
16273 16274 0.261
16275 16276 0.088
16276 16277 0.025
16276 16279 0.076
16277 16278 0.122
16282 16283 0.368
16283 16284 0.083
16284 16285 0.09
16285 16286 0.384
16286 25589 0.112
16287 16288 0.266
16288 16289 0.195
16289 16290 0.128
16290 16291 0.229
16291 16292 0.245
16292 16293 0.095
16293 16294 0.1
16294 16295 0.136
16295 16296 0.156
16296 16297 0.157
16297 16298 0.159
16298 16307 0.496
16299 16300 0.191
16299 16306 0.28
16299 17450 0.561
16300 16301 0.182
16302 16303 0.181
16304 25605 0.223
16304 29414 0.226
16305 16306 0.243
16305 29414 0.052
16308 17356 0.211
16309 16312 0.196
16310 16311 0.343
16311 16319 0.144
16312 16316 0.038
16313 16314 0.134
16313 16316 0.125
16316 16317 0.19
16317 16318 0.258
16318 16319 0.019
16320 16321 0.142
16320 28853 0.088
16321 16322 0.118
16322 16323 0.113
16323 16324 0.151
16326 16327 0.17
16328 16329 0.207
16330 16331 0.258
16331 16332 0.196
16335 16336 0.195
16336 30368 0.093
16337 16338 0.204
16338 16339 0.285
16340 28731 0.334
16341 16343 0.037
16342 16344 0.092
16345 16349 0.04
16346 16347 0.113
16347 16348 0.062
16347 30406 0.261
16348 30921 0.5
16349 30921 0.069
16350 16388 0.191
16351 16352 0.065
16351 16361 0.094
16352 16353 0.142
16353 16354 0.247
16354 16355 0.219
16355 16356 0.096
16356 16358 0.054
16357 16358 0.126
16357 16359 0.131
16360 16361 0.221
16363 16378 0.025
16363 16383 0.182
16364 16378 0.113
16366 16380 0.284
16367 16368 0.105
16368 16369 0.083
16371 16372 0.121
16371 16384 0.215
16372 28851 0.044
16373 16374 0.174
16373 16403 0.091
16374 16385 0.136
16375 16376 0.032
16375 16377 0.122
16376 16381 0.188
16376 28851 0.317
16377 16378 0.145
16377 16379 0.023
16377 16380 0.047
16379 16382 0.171
16381 16389 0.159
16385 28853 0.024
16386 16387 0.089
16387 16388 0.062
16390 28846 0.122
16391 16399 0.101
16391 28846 0.02
16392 16399 0.02
16392 32687 0.095
16393 30922 0.066
16394 16395 0.135
16394 30922 0.061
16395 16398 0.035
16396 16398 0.037
16396 31647 0.129
16397 16398 0.189
16397 16400 0.207
16398 16399 0.319
16400 16401 0.233
16400 16402 0.216
16400 16408 0.116
16402 16410 0.069
16402 16411 0.141
16403 16404 0.027
16403 16406 0.018
16403 30696 0.239
16404 16405 0.1
16406 16407 0.103
16407 16408 0.229
16409 16414 0.083
16412 32687 0.057
16413 16414 0.019
16413 16415 0.034
16413 16416 0.053
16415 16419 0.103
16416 16417 0.093
16417 16418 0.108
16417 26209 0.25
16419 26210 0.135
16420 16421 0.218
16422 28733 0.095
16425 30500 0.192
16426 16427 0.033
16429 16430 0.193
16429 28734 0.021
16430 16436 0.102
16430 30461 0.129
16431 16446 0.029
16431 30459 0.053
16432 16433 0.13
16432 30459 0.263
16434 28793 0.394
16435 16436 0.107
16435 30501 0.088
16435 30503 0.095
16436 16446 0.116
16437 16449 0.03
16437 16450 0.182
16437 30923 0.146
16438 30925 0.065
16439 16440 0.199
16439 30926 0.093
16440 16441 0.207
16442 30927 0.047
16443 30927 0.054
16443 30928 0.055
16444 30815 0.079
16444 30930 0.093
16445 16447 0.338
16445 28735 0.266
16445 30504 0.141
16446 30461 0.122
16446 30504 0.177
16447 16453 0.053
16448 16449 0.227
16452 16453 0.151
16454 16455 0.038
16454 28905 0.158
16455 16456 0.259
16455 16457 0.09
16456 30526 0.312
16456 30931 0.062
16457 16458 0.023
16457 16463 0.17
16459 30933 0.129
16460 16462 0.145
16464 30934 0.126
16464 32550 0.376
16465 28505 0.073
16465 30934 0.129
16466 28180 0.13
16466 28794 0.091
16467 16468 0.13
16467 28180 0.099
16467 28794 0.144
16468 16469 0.173
16469 16470 0.095
16470 30935 0.02
16471 28181 0.037
16472 16473 0.108
16473 16474 0.138
16475 30522 0.091
16475 30678 0.058
16476 30522 0.196
16477 16478 0.148
16478 16483 0.034
16479 16483 0.05
16480 16482 0.178
16480 16483 0.147
16481 16482 0.028
16482 30802 0.13
16485 16486 0.129
16486 30770 0.21
16487 16491 0.215
16491 28904 0.04
16492 28904 0.023
16492 30905 0.085
16495 16496 0.147
16498 30936 0.028
16499 30755 0.065
16501 16502 0.297
16503 16504 0.074
16504 16505 0.178
16507 16508 0.141
16508 16509 0.171
16509 32587 0.036
16510 16511 0.188
16511 16581 0.179
16513 16514 0.235
16515 16517 0.156
16516 30937 0.047
16517 16518 0.051
16518 16519 0.167
16518 16520 0.17
16521 16522 0.142
16522 16523 0.239
16526 30751 0.296
16527 16529 0.321
16527 32886 0.061
16528 16530 0.139
16528 26383 0.192
16528 32574 0.094
16529 16530 0.064
16529 16531 0.183
16532 16533 0.274
16533 16534 0.114
16535 16536 0.126
16537 16577 0.176
16537 26360 0.342
16537 28244 0.088
16538 16539 0.099
16538 28885 0.04
16540 27756 0.041
16540 28885 0.22
16541 16542 0.165
16542 16543 0.175
16543 27753 0.046
16544 16552 0.102
16544 27753 0.057
16545 16548 0.093
16545 16552 0.105
16546 16548 0.154
16547 27750 0.497
16548 27750 0.239
16549 16554 0.036
16549 16571 0.227
16549 32584 0.102
16550 16556 0.032
16550 16557 0.199
16550 16559 0.319
16550 16563 0.271
16551 16552 0.213
16551 16555 0.061
16551 16556 0.221
16553 28890 0.019
16554 16555 0.235
16558 16559 0.202
16558 28612 0.135
16559 16560 0.028
16559 28612 0.146
16560 16561 0.165
16561 16562 0.406
16562 16564 0.025
16562 16565 0.017
16564 28890 0.035
16565 16566 0.191
16566 16601 0.411
16566 32582 0.103
16567 16569 0.161
16567 32582 0.032
16568 16569 0.058
16568 28890 0.046
16569 28246 0.426
16571 28245 0.08
16572 16573 0.237
16572 26363 0.169
16574 16578 0.461
16575 16576 0.218
16576 16577 0.199
16579 16598 0.089
16579 32581 0.179
16580 16603 0.229
16582 16583 0.271
16583 20652 0.202
16585 16586 0.119
16585 32581 0.038
16586 16587 0.138
16588 16589 0.254
16591 16592 0.291
16593 30407 0.189
16594 16595 0.031
16595 16596 0.023
16595 16599 0.07
16596 16597 0.257
16597 16598 0.026
16599 16603 0.338
16600 16601 0.169
16600 16602 0.085
16601 16602 0.166
16604 16605 0.043
16604 16609 0.058
16605 16606 0.153
16606 16607 0.108
16607 16608 0.245
16610 16611 0.133
16611 30938 0.027
16612 30938 0.107
16613 16614 0.248
16615 30939 0.169
16616 16617 0.023
16616 30939 0.068
16617 16618 0.029
16617 16619 0.056
16619 16622 0.253
16622 16623 0.341
16625 28203 0.093
16626 16628 0.135
16627 16628 0.144
16630 16633 0.183
16632 16669 0.214
16633 16643 0.146
16635 16636 0.354
16637 16638 0.224
16638 16648 0.026
16639 16640 0.134
16639 16648 0.257
16640 16641 0.286
16642 16644 0.148
16642 30940 0.075
16643 16644 0.054
16644 16645 0.034
16645 16646 0.106
16646 16647 0.278
16647 16648 0.253
16651 16652 0.036
16651 16655 0.181
16651 30729 0.231
16652 16653 0.114
16653 16654 0.258
16655 28736 0.14
16656 16657 0.301
16656 28736 0.061
16657 16659 0.063
16658 16659 0.024
16658 16660 0.147
16659 16667 0.13
16659 16668 0.121
16660 16661 0.06
16661 16662 0.127
16662 16663 0.136
16663 16664 0.106
16664 16665 0.037
16665 20667 0.134
16665 29037 0.04
16666 16667 0.227
16666 28878 0.088
16668 16669 0.125
16670 30941 0.203
16671 30618 0.035
16671 30941 0.179
16672 16673 0.156
16674 16675 0.174
16675 16676 0.203
16676 30942 0.176
16677 28248 0.144
16677 30942 0.07
16678 16679 0.038
16678 28248 0.059
16679 26968 0.34
16679 26969 0.151
16680 16686 0.261
16681 16686 0.307
16681 29416 0.331
16682 16683 0.363
16682 29416 0.039
16683 16684 0.284
16684 16685 0.137
16687 30943 0.025
16688 16689 0.053
16688 30943 0.144
16689 16718 0.236
16690 16694 0.15
16691 16692 0.14
16692 16693 0.093
16693 16708 0.173
16694 16695 0.129
16695 32385 0.028
16696 16698 0.18
16696 28868 0.073
16697 16701 0.159
16697 28868 0.1
16698 32385 0.029
16699 16700 0.027
16699 16701 0.02
16699 16703 0.143
16699 32386 0.038
16702 16703 0.019
16702 16704 0.016
16702 16730 0.2
16704 16705 0.055
16705 16706 0.174
16706 16707 0.176
16707 28868 0.019
16708 16709 0.029
16708 16727 0.173
16709 16710 0.204
16710 16711 0.154
16710 32383 0.031
16711 16712 0.182
16712 16713 0.21
16714 16716 0.052
16714 30585 0.097
16715 16716 0.052
16715 16720 0.103
16716 16717 0.195
16717 16718 0.032
16717 16719 0.18
16717 30583 0.144
16719 16720 0.22
16720 16721 0.1
16721 16722 0.209
16722 16723 0.198
16722 32859 0.121
16723 16726 0.217
16724 16727 0.127
16725 16726 0.114
16725 16727 0.028
16729 16730 0.324
16729 16737 0.328
16730 16735 0.328
16731 16732 0.266
16733 16735 0.137
16735 16736 0.28
16735 16740 0.287
16736 16737 0.043
16737 16738 0.258
16738 16739 0.03
16739 16740 0.324
16741 16742 0.172
16741 30408 0.176
16743 30408 0.143
16747 16748 0.056
16747 16756 0.159
16747 16768 0.477
16748 16749 0.064
16749 16750 0.065
16750 16751 0.063
16751 16752 0.125
16752 16753 0.104
16754 16755 0.192
16755 16756 0.156
16757 16786 0.083
16758 16759 0.052
16759 16760 0.058
16760 16761 0.114
16761 16762 0.101
16762 16763 0.118
16764 16765 0.114
16765 16768 0.031
16766 16767 0.103
16766 16768 0.027
16767 20572 0.215
16769 16770 0.08
16769 22774 0.044
16770 16771 0.115
16771 16772 0.114
16773 16774 0.103
16773 20570 0.096
16774 30944 0.032
16775 30944 0.106
16777 16778 0.184
16779 16780 0.137
16780 16781 0.121
16782 16783 0.126
16784 16785 0.251
16787 29417 0.172
16788 16789 0.246
16788 29417 0.045
16789 16790 0.046
16790 16791 0.141
16790 16809 0.437
16791 16792 0.16
16792 16793 0.168
16793 16794 0.071
16794 16795 0.152
16795 16843 0.118
16796 16805 0.15
16796 16843 0.121
16797 16805 0.077
16798 16839 0.036
16799 16800 0.293
16800 28372 0.343
16801 16804 0.026
16801 16805 0.112
16802 16804 0.044
16802 16806 0.099
16803 16804 0.019
16803 16808 0.167
16806 16818 0.058
16807 16817 0.224
16807 16818 0.031
16808 16809 0.259
16810 16860 0.174
16811 16812 0.046
16811 16827 0.203
16812 16813 0.142
16813 16814 0.214
16814 16815 0.125
16818 16820 0.498
16819 16820 0.022
16819 16821 0.235
16819 16826 0.028
16820 16825 0.047
16821 28119 0.533
16822 16823 0.035
16822 16828 0.246
16823 16824 0.162
16824 16825 0.147
16826 16827 0.135
16828 16829 0.201
16830 16832 0.063
16831 16832 0.23
16831 16833 0.205
16832 28281 0.312
16834 16835 0.045
16834 16840 0.133
16835 16836 0.192
16835 16837 0.126
16835 16838 0.187
16838 16839 0.056
16840 16841 0.221
16842 16844 0.381
16844 28370 0.261
16845 16847 0.395
16845 16848 0.464
16846 28370 1.111
16847 16848 0.219
16848 29373 0.278
16849 29404 0.252
16850 16858 0.2
16851 16852 0.08
16851 16853 0.159
16852 28100 0.16
16853 16854 0.214
16854 16855 0.278
16855 16856 0.247
16856 16857 0.051
16857 16858 0.053
16859 16860 0.131
16861 16865 0.087
16862 16865 0.088
16862 16872 0.125
16864 17195 0.196
16865 16866 0.139
16866 16867 0.099
16867 16868 0.142
16868 16869 0.157
16869 16870 0.202
16870 16871 0.085
16872 16873 0.164
16873 16874 0.062
16873 16878 0.134
16873 17195 0.522
16874 16875 0.087
16875 16876 0.106
16876 16877 0.13
16878 16879 0.173
16880 16881 0.137
16881 16882 0.155
16883 16884 0.06
16884 16885 0.058
16886 16887 0.184
16887 16888 0.198
16888 16889 0.129
16890 16891 0.129
16891 16892 0.171
16895 17041 0.14
16896 16897 0.227
16897 16898 0.164
16899 16900 0.081
16899 28340 0.056
16900 16901 0.082
16901 16902 0.067
16902 20539 0.107
16903 16904 0.057
16903 16905 0.129
16904 32647 0.029
16905 16906 0.161
16906 16907 0.123
16907 16908 0.136
16908 16909 0.211
16909 16910 0.07
16911 16919 0.135
16911 27783 0.166
16912 16913 0.252
16912 27783 0.102
16913 16914 0.34
16914 16915 0.272
16915 16916 0.326
16916 27780 0.052
16917 16918 0.299
16917 27780 0.204
16919 16920 0.208
16920 16921 0.05
16921 16922 0.049
16921 16924 0.501
16922 16923 0.402
16923 16939 0.149
16924 16925 0.324
16925 16926 0.069
16926 16927 0.072
16926 27789 0.237
16928 16929 0.247
16929 16930 0.247
16930 16931 0.296
16931 16932 0.2
16933 27781 0.064
16934 27781 0.057
16935 16936 0.057
16935 27781 0.084
16936 16937 0.351
16936 16938 0.247
16937 29418 0.481
16938 16939 0.467
16939 16940 0.075
16940 29418 0.578
16941 16942 0.051
16941 30075 0.163
16942 16947 0.296
16943 16944 0.222
16944 16945 0.167
16944 16946 0.051
16946 16947 0.048
16947 16948 0.038
16948 16949 0.097
16950 16951 0.154
16950 16959 0.164
16951 16952 0.038
16951 29419 0.176
16952 16953 0.116
16953 16954 0.15
16954 16955 0.254
16955 16956 0.066
16956 16957 0.166
16956 16964 0.141
16957 16958 0.203
16957 16961 0.057
16958 28837 0.067
16959 28837 0.116
16960 17004 0.22
16960 28837 0.108
16961 16962 0.142
16962 16963 0.166
16963 16970 0.294
16964 16965 0.212
16965 16966 0.139
16966 16967 0.144
16967 16968 0.024
16967 16971 0.346
16968 16969 0.124
16969 16989 0.08
16970 16971 0.165
16971 16972 0.055
16972 16973 0.082
16973 16974 0.097
16974 16975 0.123
16974 16984 0.337
16975 16976 0.108
16976 16977 0.199
16977 16978 0.144
16978 16979 0.059
16979 16980 0.034
16979 16981 0.244
16980 16991 0.19
16981 16982 0.053
16982 17038 0.187
16983 16984 0.049
16983 16990 0.16
16984 16985 0.071
16985 16986 0.139
16986 16987 0.183
16987 16988 0.126
16988 16989 0.095
16990 16991 0.247
16992 16993 0.101
16992 17062 0.066
16993 16994 0.137
16994 16995 0.24
16995 16996 0.174
16996 29420 0.032
16997 16998 0.041
16997 29420 0.171
16998 16999 0.118
16998 17011 0.136
16999 17000 0.127
17000 17001 0.093
17000 17012 0.308
17001 17002 0.195
17002 17003 0.207
17005 17006 0.279
17005 31903 0.096
17006 17007 0.139
17007 17069 0.192
17008 17009 0.184
17008 17020 0.206
17009 17010 0.179
17010 17011 0.177
17014 17015 0.165
17015 17016 0.039
17015 17026 0.493
17016 17017 0.205
17019 17098 0.147
17020 17021 0.075
17021 17022 0.081
17021 31902 0.081
17022 17023 0.171
17023 17024 0.174
17024 17025 0.125
17025 17040 0.059
17026 17027 0.17
17026 17029 0.079
17027 17028 0.171
17028 17040 0.122
17029 17030 0.137
17030 17031 0.165
17031 17032 0.234
17032 17033 0.177
17033 17034 0.037
17034 17035 0.028
17034 17039 0.233
17035 17036 0.114
17036 17037 0.191
17041 17042 0.12
17042 17043 0.111
17043 17044 0.097
17045 17046 0.138
17046 17047 0.202
17048 17050 0.182
17049 17050 0.056
17049 17055 0.203
17050 17068 0.092
17051 17052 0.117
17052 17053 0.253
17053 29074 0.08
17054 17055 0.205
17054 29074 0.056
17056 17062 0.148
17057 17058 0.123
17057 17062 0.179
17059 17060 0.145
17060 17061 0.336
17065 29360 0.044
17066 17067 0.24
17067 17068 0.154
17070 17071 0.261
17073 17074 0.116
17074 17075 0.148
17075 17076 0.198
17077 17078 0.096
17078 17079 0.221
17080 17081 0.196
17080 17170 0.127
17081 17082 0.072
17082 17083 0.032
17083 17084 0.283
17084 17085 0.088
17085 17086 0.158
17087 17088 0.24
17090 19641 0.143
17091 19641 0.089
17091 19642 0.05
17092 17093 0.158
17092 19642 0.176
17093 17094 0.15
17094 17108 0.08
17095 17096 0.13
17095 17107 0.084
17096 17097 0.12
17097 19643 0.188
17098 17099 0.17
17099 17100 0.123
17100 17101 0.097
17101 17107 0.19
17102 17103 0.107
17103 17138 0.128
17104 17108 0.072
17104 17110 0.061
17105 17110 0.047
17105 17113 0.167
17106 17110 0.068
17106 17111 0.058
17107 17108 0.135
17107 17135 0.04
17109 17110 0.181
17109 17136 0.019
17109 17137 0.031
17111 17132 0.1
17112 17114 0.176
17112 17137 0.169
17113 17114 0.131
17115 17116 0.272
17116 17117 0.13
17117 17118 0.079
17118 17119 0.074
17118 17121 0.065
17119 17120 0.105
17120 31916 0.121
17121 17122 0.163
17122 17127 0.121
17123 17124 0.09
17123 31916 0.1
17124 17125 0.138
17125 17126 0.075
17125 31913 0.226
17126 31915 0.127
17127 17128 0.113
17128 17129 0.072
17129 17130 0.032
17129 17134 0.224
17130 17131 0.081
17131 17132 0.088
17132 17133 0.223
17133 17134 0.194
17135 17136 0.085
17138 17139 0.141
17140 17141 0.158
17141 17142 0.139
17143 17144 0.094
17145 17146 0.165
17147 17148 0.218
17147 17155 0.088
17150 17152 0.126
17152 17153 0.168
17153 20561 0.154
17154 17155 0.028
17154 31915 0.136
17155 17156 0.208
17157 17158 0.196
17158 17159 0.264
17159 17160 0.086
17160 17161 0.031
17161 17162 0.17
17162 17163 0.34
17163 17164 0.101
17164 17165 0.116
17165 17166 0.168
17166 17167 0.142
17167 17168 0.123
17167 31685 0.409
17168 17233 0.225
17169 17170 0.123
17171 17172 0.034
17171 17180 0.185
17172 17173 0.064
17173 17174 0.134
17174 17175 0.265
17176 17177 0.205
17176 17194 0.22
17177 17178 0.066
17177 17191 0.184
17178 17181 0.089
17179 17180 0.172
17179 17181 0.047
17181 17182 0.047
17182 17183 0.039
17182 17192 0.118
17183 17184 0.237
17184 17186 0.146
17185 17186 0.058
17185 17195 0.153
17186 17187 0.218
17187 20546 0.109
17188 17189 0.062
17188 20552 0.156
17189 17190 0.202
17189 17192 0.098
17189 20546 0.313
17190 17191 0.033
17190 17194 0.179
17190 20549 0.217
17193 17194 0.04
17193 28116 0.188
17196 17217 0.316
17196 17245 0.23
17197 17198 0.216
17200 17203 0.226
17201 17202 0.187
17204 17206 0.119
17205 17213 0.202
17206 17207 0.092
17210 17219 0.149
17211 17212 0.17
17212 17213 0.2
17214 17215 0.124
17216 17227 0.286
17219 17228 0.253
17220 17221 0.275
17222 17226 0.221
17224 31085 0.578
17225 17738 0.399
17229 17230 0.175
17234 17235 0.242
17235 17236 0.178
17236 17237 0.234
17237 17238 0.193
17238 17239 0.039
17239 17240 0.044
17239 19637 0.256
17240 17241 0.092
17241 17242 0.092
17242 17243 0.114
17243 17244 0.05
17244 17245 0.024
17246 17247 0.169
17248 17744 0.412
17249 17250 0.115
17250 17251 0.17
17251 17252 0.077
17252 17253 0.183
17253 17254 0.211
17254 17255 0.16
17255 17256 0.037
17256 17257 0.175
17257 17258 0.101
17258 17266 0.287
17259 17720 0.116
17260 17261 0.178
17260 17720 0.092
17262 17263 0.035
17262 17265 0.108
17263 17264 0.603
17265 17266 0.156
17269 17270 0.169
17269 27980 0.222
17270 17271 0.185
17271 32889 0.044
17272 17273 0.205
17272 32889 0.037
17273 17274 0.135
17274 17275 0.042
17275 17276 0.039
17275 17335 0.195
17276 17277 0.277
17277 17306 0.221
17278 17279 0.251
17280 17281 0.125
17281 17282 0.104
17282 17283 0.128
17283 17284 0.153
17285 17286 0.162
17286 17287 0.087
17287 17288 0.098
17287 31518 0.092
17287 32889 0.263
17288 17289 0.072
17289 17290 0.095
17290 17291 0.126
17292 17331 0.142
17293 17661 0.269
17294 17295 0.199
17295 17296 0.173
17296 17297 0.314
17298 17299 0.118
17298 17309 0.172
17299 17300 0.162
17300 17301 0.097
17301 17302 0.136
17302 17303 0.023
17303 17654 0.446
17304 17654 0.083
17305 27986 0.201
17306 17307 0.245
17307 17308 0.17
17308 17309 0.08
17310 17311 0.08
17310 17312 0.269
17311 17974 0.213
17312 17313 0.241
17313 17314 0.276
17314 17315 0.239
17315 17316 0.245
17316 17317 0.159
17317 17318 0.112
17317 17329 0.131
17318 17319 0.277
17319 17320 0.154
17321 17322 0.223
17321 28832 0.036
17322 17323 0.23
17323 32890 0.115
17324 17325 0.156
17324 32890 0.111
17325 17326 0.215
17326 17328 0.079
17327 17328 0.04
17327 17330 0.211
17328 17329 0.091
17331 17332 0.255
17332 17333 0.218
17333 17334 0.096
17336 31906 0.602
17336 31907 0.098
17336 31909 0.145
17337 17338 0.053
17337 17343 0.114
17338 17652 0.105
17339 17973 0.161
17339 17974 0.07
17340 17344 0.081
17340 17345 0.123
17340 31519 0.209
17341 17342 0.061
17341 17344 0.072
17342 17343 0.165
17345 17981 0.147
17346 17348 0.195
17348 17349 0.251
17349 17350 0.153
17351 17352 0.124
17352 17353 0.175
17354 17355 0.134
17357 17423 0.22
17358 19614 0.27
17360 17361 0.124
17362 17363 0.278
17364 17393 0.085
17365 17388 0.05
17365 17394 0.082
17366 17367 0.231
17366 17394 0.127
17368 17369 0.171
17369 17370 0.155
17370 27992 0.708
17373 17374 0.053
17375 17376 0.463
17377 17378 0.031
17378 17379 0.247
17379 17380 0.16
17380 17381 0.039
17381 17382 0.095
17383 17384 0.165
17384 17385 0.165
17387 19626 0.113
17388 17389 0.352
17389 17390 0.128
17389 17391 0.249
17390 17395 0.069
17391 17392 0.317
17392 17393 0.073
17394 17395 0.262
17396 17397 0.26
17396 28613 0.261
17397 17398 0.176
17397 28613 0.314
17398 28846 0.372
17399 17400 0.047
17400 17401 0.179
17401 17402 0.218
17402 17403 0.033
17405 17406 0.131
17406 17407 0.193
17408 17409 0.193
17411 17412 0.21
17411 17415 0.064
17412 17413 0.348
17413 17414 0.031
17420 31686 0.085
17421 19623 0.22
17421 31686 0.037
17424 17425 0.197
17425 17426 0.239
17429 17443 0.312
17430 17431 0.262
17431 17432 0.277
17433 17434 0.104
17434 17435 0.344
17436 17437 0.031
17436 17438 0.098
17438 17439 0.043
17439 17440 0.025
17440 17441 0.13
17445 17446 0.093
17446 17447 0.054
17447 17448 0.196
17448 17449 0.171
17449 17450 0.053
17450 17451 0.295
17451 17455 0.215
17452 17453 0.051
17452 17456 0.142
17453 28737 0.144
17454 17455 0.25
17454 28737 0.074
17456 17458 0.213
17457 17461 0.283
17457 17465 0.075
17457 27121 0.264
17458 17459 0.036
17459 17460 0.275
17460 17461 0.368
17462 17467 0.284
17463 17464 0.212
17464 17465 0.201
17469 17470 0.174
17470 17471 0.262
17471 17472 0.256
17473 31673 0.112
17474 17475 0.14
17474 31673 0.093
17476 17477 0.276
17476 17520 0.245
17477 30223 0.185
17478 30223 0.064
17479 30224 0.098
17480 17481 0.212
17480 30224 0.066
17481 17521 0.323
17483 17484 0.075
17483 31649 0.142
17484 17485 0.091
17487 17599 1.095
17487 30437 1.175
17488 17598 1.347
17488 30436 0.85
17490 17546 0.324
17491 17492 0.259
17492 17499 0.025
17493 17499 0.178
17493 17502 0.225
17494 17495 0.106
17496 17497 0.125
17497 17498 0.201
17497 31689 0.279
17498 17499 0.396
17498 17506 0.095
17500 17503 0.029
17501 17504 0.039
17501 17505 0.077
17501 17511 0.026
17503 31689 0.318
17505 17506 0.271
17507 17509 0.248
17507 27990 0.071
17510 17535 0.311
17511 17512 0.167
17512 28949 0.213
17513 28949 0.246
17514 17515 0.222
17514 17516 0.188
17516 17517 0.141
17517 17534 0.323
17518 17519 0.12
17518 17526 0.395
17522 17523 0.179
17527 17528 0.136
17528 17529 0.097
17529 17530 0.111
17530 17531 0.155
17532 23715 0.346
17533 17534 0.219
17535 31650 0.324
17536 25607 0.384
17537 17550 0.266
17540 27987 0.028
17542 17547 0.327
17543 17544 0.126
17544 17545 0.278
17545 17546 0.159
17548 17549 0.213
17549 17550 0.333
17551 17578 0.059
17552 17553 0.256
17552 31366 0.203
17553 17578 0.148
17555 17556 0.124
17555 17560 0.155
17557 17558 0.243
17559 17568 0.263
17561 17562 0.345
17562 17563 0.167
17564 23679 0.196
17565 17566 0.069
17565 17567 0.275
17565 17575 0.223
17566 23676 0.171
17567 17576 0.078
17568 17576 0.097
17569 17576 0.21
17569 17577 0.18
17570 17571 0.175
17570 17577 0.047
17571 17572 0.071
17572 17573 0.097
17573 17575 0.228
17573 28738 0.159
17574 28738 0.079
17574 31374 0.477
17577 17579 0.518
17578 29421 0.429
17579 29421 0.262
17580 17592 0.202
17581 17582 0.257
17582 17583 0.304
17583 17584 0.232
17584 17585 0.203
17586 17587 0.219
17587 17588 0.167
17588 17589 0.261
17590 17591 0.241
17591 17592 0.268
17593 17595 0.232
17595 27123 0.035
17596 17597 0.196
17596 27123 0.107
17598 18044 0.902
17599 18043 1.078
17600 17601 0.134
17603 17604 0.173
17605 17617 0.437
17606 17699 0.205
17607 31360 0.072
17607 31361 0.047
17607 31362 0.275
17607 31363 0.215
17608 17611 0.227
17609 17610 0.193
17611 17612 0.183
17612 17633 0.198
17613 17636 0.221
17614 17615 0.264
17615 31376 0.265
17616 31376 0.118
17618 17619 0.289
17619 17620 0.286
17620 17621 0.247
17621 17622 0.15
17622 17737 0.158
17624 31377 0.178
17625 17626 0.191
17626 17627 0.295
17627 17628 0.216
17628 17629 0.307
17630 17631 0.228
17631 17632 0.369
17633 31377 0.166
17634 17635 0.216
17637 17638 0.142
17638 17647 0.244
17639 17640 0.158
17640 17984 0.053
17641 17642 0.155
17643 31490 0.249
17644 17646 0.498
17645 17997 0.292
17646 31500 0.317
17648 17649 0.204
17650 17651 0.312
17652 17653 0.191
17653 28832 0.125
17654 17655 0.093
17655 17656 0.201
17656 17657 0.299
17657 17658 0.217
17658 17659 0.121
17659 17660 0.043
17660 17661 0.091
17662 17663 0.049
17662 17664 0.205
17662 29140 0.405
17663 17670 0.158
17664 17665 0.268
17665 17666 0.344
17666 17667 0.219
17668 17669 0.212
17670 17671 0.183
17672 17673 0.21
17672 17674 0.202
17673 17679 0.151
17674 17675 0.287
17675 17676 0.034
17676 17677 0.03
17676 17678 0.029
17677 17686 0.235
17678 17688 0.243
17679 17680 0.174
17680 17681 0.466
17687 17688 0.175
17687 17690 0.21
17689 17690 0.092
17689 17692 0.287
17690 17695 0.21
17691 17692 0.082
17691 17693 0.082
17693 17694 0.07
17696 17697 0.284
17696 26108 0.396
17697 17698 0.312
17698 17699 0.174
17700 29422 0.658
17701 17702 0.108
17702 17703 0.186
17703 17704 0.272
17704 17705 0.423
17705 17706 0.365
17706 17707 0.2
17707 17708 0.32
17708 17709 0.109
17710 17711 0.327
17713 17714 0.138
17714 17715 0.319
17715 17716 0.19
17716 17717 0.031
17716 17719 0.066
17717 17718 0.081
17718 17720 0.188
17719 17720 0.218
17721 17722 0.055
17721 17723 0.241
17722 17724 0.224
17723 17728 0.259
17724 17725 0.181
17725 17727 0.285
17726 17727 0.158
17728 28781 0.083
17729 17730 0.254
17729 29423 0.104
17730 32891 0.147
17731 17733 0.255
17731 17734 0.046
17731 32891 0.427
17732 28833 0.107
17733 32849 0.103
17735 17736 0.116
17735 17786 0.184
17736 32848 0.08
17739 17740 0.106
17741 29424 0.318
17742 17753 0.246
17742 29424 0.045
17743 17744 0.251
17743 17745 0.193
17745 17746 0.193
17747 17748 0.127
17748 17749 0.113
17749 17755 0.027
17750 17755 0.125
17751 17752 0.235
17754 17755 0.037
17754 17756 0.14
17756 17757 0.149
17757 17758 0.114
17758 17759 0.211
17759 17760 0.065
17760 17761 0.209
17761 28835 0.057
17763 17764 0.161
17764 28835 0.057
17765 17766 0.163
17768 17769 0.281
17769 17770 0.233
17770 17772 0.062
17771 17772 0.139
17771 30070 0.166
17772 31426 0.096
17773 17774 0.067
17773 17775 0.05
17773 30074 0.358
17774 17782 0.126
17775 17776 0.229
17776 17777 0.293
17777 28740 0.051
17778 17779 0.241
17778 28740 0.058
17779 30070 0.058
17780 17782 0.232
17783 17784 0.3
17784 17785 0.181
17785 17786 0.078
17786 17787 0.306
17788 17790 0.263
17789 17793 0.053
17789 17794 0.1
17789 17841 0.149
17790 17791 0.091
17790 29131 0.496
17791 17792 0.189
17792 17793 0.257
17794 17795 0.252
17795 17796 0.289
17797 17798 0.284
17799 17800 0.164
17800 17801 0.117
17801 17802 0.135
17802 17803 0.147
17803 17842 0.114
17806 20776 0.071
17808 17809 0.124
17810 17811 0.313
17811 17812 0.275
17814 17843 0.193
17814 17844 0.16
17814 17869 0.09
17814 31430 0.189
17815 17846 0.034
17815 17847 0.05
17815 17848 0.172
17816 17848 0.241
17816 17849 0.08
17817 17825 0.035
17817 17826 0.12
17817 17837 0.153
17818 17819 0.338
17818 17828 0.076
17818 17829 0.187
17819 17831 0.035
17819 17832 0.173
17820 17821 0.239
17820 17833 0.15
17820 17834 0.051
17822 17840 0.23
17822 17841 0.033
17822 17842 0.031
17823 17824 0.079
17823 17839 0.321
17823 17840 0.15
17824 17825 0.392
17826 17849 0.225
17827 17828 0.273
17827 17837 0.054
17829 17847 0.259
17830 17831 0.33
17830 17839 0.037
17832 17833 0.281
17834 17835 0.178
17835 17836 0.227
17836 17843 0.204
17837 17838 0.025
17838 17839 0.313
17845 17846 0.175
17845 31507 0.124
17851 18019 1.016
17852 17853 0.196
17852 17877 0.21
17852 17878 0.066
17853 17856 0.056
17853 17870 0.22
17854 17855 0.046
17854 17868 0.123
17854 17869 0.18
17855 17856 0.229
17857 17858 0.22
17857 17878 0.27
17858 17859 0.189
17859 17860 0.215
17860 19312 0.344
17861 17862 0.172
17861 19310 0.274
17862 17863 0.139
17863 17864 0.182
17864 17865 0.199
17865 17870 0.382
17866 17867 0.283
17866 17868 0.218
17867 17876 0.164
17871 17873 0.299
17872 17873 0.069
17872 17874 0.084
17874 28828 0.129
17875 17877 0.188
17875 28828 0.055
17876 28828 0.06
17879 17880 0.043
17879 17892 0.175
17880 17884 0.228
17881 17882 0.032
17881 17885 0.294
17882 17883 0.367
17883 17884 0.219
17886 17887 0.182
17887 17888 0.228
17888 17889 0.124
17889 17890 0.202
17891 17892 0.149
17893 17894 0.259
17894 17895 0.327
17897 18238 0.088
17897 18322 0.384
17898 18238 0.157
17900 17901 0.245
17902 17903 0.222
17903 17904 0.205
17905 17906 0.214
17907 17929 0.129
17908 17909 0.146
17909 17910 0.11
17910 17911 0.154
17911 17912 0.091
17913 28830 0.121
17914 17915 0.114
17914 17916 0.18
17914 31488 0.065
17915 17917 0.333
17916 31489 0.06
17917 17918 0.292
17918 17919 0.296
17919 17920 0.044
17920 17927 0.143
17921 17922 0.336
17921 28830 0.062
17922 17923 0.231
17923 17924 0.19
17924 28782 0.033
17925 17926 0.078
17925 28782 0.076
17926 17927 0.045
17927 17928 0.114
17930 17931 0.028
17930 17932 0.106
17931 17933 0.255
17932 17949 0.182
17933 17934 0.167
17934 17935 0.248
17936 17937 0.211
17937 17938 0.192
17938 17939 0.054
17939 17942 0.124
17940 17941 0.105
17940 17944 0.036
17941 17942 0.093
17943 17944 0.054
17943 17945 0.181
17944 17950 0.105
17945 17946 0.181
17946 17947 0.168
17947 17948 0.32
17948 17949 0.185
17950 31531 0.089
17950 31532 0.294
17950 32882 0.601
17951 31538 0.245
17952 31535 0.183
17952 31538 0.034
17954 17964 0.211
17955 17956 0.113
17956 17957 0.117
17957 17958 0.1
17958 17959 0.175
17959 17960 0.362
17960 17961 0.115
17961 17962 0.131
17962 17963 0.192
17964 17965 0.264
17965 17966 0.153
17966 17967 0.386
17968 17969 0.176
17970 17971 0.212
17975 17976 0.268
17975 31441 0.236
17978 18038 0.149
17979 17989 0.343
17981 17982 0.168
17982 17983 0.106
17983 17984 0.427
17983 17985 0.063
17985 17986 0.154
17986 17987 0.181
17987 28783 0.04
17988 17995 0.262
17988 28783 0.042
17989 17990 0.097
17989 17991 0.185
17990 17993 0.187
17991 17992 0.219
17992 17994 0.26
17993 17996 0.268
17994 17995 0.116
17996 17997 0.13
17998 18000 0.186
17999 18001 0.098
18000 18001 0.685
18000 18007 0.039
18001 31510 0.227
18002 18003 0.084
18002 31500 0.167
18002 31510 0.218
18003 18004 0.25
18004 18005 0.312
18006 18009 0.259
18007 18009 0.113
18008 31516 0.159
18008 31517 0.054
18009 31511 0.111
18010 18011 0.305
18010 32892 0.042
18011 18012 0.358
18012 18013 0.111
18012 18014 0.11
18015 31448 0.177
18016 18019 0.456
18016 29560 1.663
18016 29564 0.524
18017 18018 0.361
18017 29561 1.708
18017 29569 0.435
18018 18019 0.136
18020 18021 0.39
18021 29555 0.805
18021 29563 1.134
18022 29554 0.888
18022 29558 1.033
18023 18024 0.153
18023 18026 0.426
18024 18025 0.496
18025 29549 0.642
18025 29557 0.93
18026 29548 0.743
18026 29552 0.812
18027 18028 0.352
18027 18119 0.069
18027 18120 0.094
18028 18032 1.118
18028 29551 0.475
18029 18030 0.551
18029 18031 1.171
18029 29546 0.285
18030 31554 0.204
18031 29545 0.855
18032 29540 0.772
18033 18034 0.226
18033 18036 0.402
18034 18035 0.499
18034 31488 0.463
18035 29539 1.668
18035 29543 1.412
18036 29534 1.684
18036 29542 1.405
18037 18038 0.136
18037 18040 0.418
18037 18041 0.477
18038 18039 0.43
18038 18042 0.485
18039 18042 0.911
18039 29537 1.437
18040 18041 0.89
18040 29536 1.436
18041 29528 0.656
18042 29533 0.625
18043 29516 0.636
18043 31376 0.576
18044 29521 0.837
18044 31376 0.846
18045 18046 0.593
18045 18048 0.226
18045 18052 0.666
18047 18057 0.484
18048 18059 0.398
18048 18090 0.642
18049 18050 0.312
18049 18051 0.507
18049 18056 0.422
18050 18057 0.535
18050 18058 0.409
18051 18054 0.342
18051 18057 0.373
18052 18053 0.397
18052 18090 0.347
18053 18058 1.289
18053 29570 0.231
18054 18059 1.34
18054 29575 0.279
18055 18090 0.326
18055 29126 1.558
18058 29566 0.173
18059 29567 0.075
18060 18062 0.464
18060 18065 0.277
18061 18063 0.356
18061 18064 0.362
18061 29422 0.229
18062 18065 0.574
18062 29576 2.118
18063 18064 0.642
18063 29581 2.182
18064 29573 0.269
18065 29572 0.402
18066 18068 0.335
18066 18071 0.702
18066 29579 0.467
18067 18069 0.292
18067 18070 0.714
18067 29578 0.526
18068 18069 0.123
18068 18071 0.37
18069 18070 0.434
18069 19387 0.217
18070 29588 1.714
18071 29593 1.746
18072 18073 0.242
18072 18077 1.215
18072 29591 1.001
18074 18075 0.621
18074 18076 0.921
18074 29590 1.253
18075 18076 0.317
18075 19513 0.627
18076 29582 3.435
18077 29587 3.413
18078 18079 0.145
18078 18081 0.402
18078 18082 0.275
18078 29116 0.073
18079 18080 0.335
18079 18083 0.225
18079 29112 0.187
18080 18083 0.549
18080 29585 1.164
18081 18082 0.672
18081 29584 1.041
18082 29594 0.55
18083 29599 0.579
18084 18086 0.369
18084 18087 0.904
18084 29596 0.926
18085 18088 0.592
18085 18089 0.404
18085 29597 1.052
18086 18087 0.52
18086 18089 0.247
18086 29121 0.297
18087 29600 1.016
18088 18089 0.251
18088 29605 1.153
18089 29118 0.457
18091 18092 0.225
18091 18358 0.29
18093 18346 0.526
18094 18095 0.55
18095 18096 0.116
18096 18097 0.229
18096 18103 0.091
18097 18098 0.302
18097 29115 0.381
18098 18099 0.044
18098 18101 0.167
18099 18100 0.185
18100 18105 0.204
18101 18102 0.1
18102 18103 0.177
18104 18340 0.165
18106 18107 0.222
18107 31485 0.201
18108 18109 0.061
18108 31485 0.058
18109 18110 0.228
18110 18111 0.199
18111 28784 0.036
18112 18113 0.187
18112 28784 0.165
18113 18114 0.182
18114 18115 0.091
18115 18116 0.183
18116 18117 0.222
18117 18118 0.185
18118 18121 0.186
18119 18357 0.288
18121 18122 0.157
18122 31554 0.062
18123 18124 0.313
18125 18126 0.038
18125 20782 0.384
18126 18127 0.171
18127 18128 0.287
18128 18129 0.036
18129 18130 0.068
18130 18131 0.241
18131 18132 0.244
18133 18134 0.399
18134 18135 0.373
18135 18136 0.248
18136 18137 0.048
18136 18152 0.669
18137 18138 0.295
18138 18150 0.217
18139 31497 0.105
18139 31520 0.315
18140 18141 0.259
18140 28739 0.033
18141 18142 0.256
18143 18144 0.368
18144 18145 0.242
18145 18146 0.159
18146 18147 0.087
18147 31521 0.189
18148 31521 0.071
18149 28741 0.104
18150 18159 0.089
18150 28741 0.407
18151 18155 0.207
18151 18156 0.173
18151 18157 0.042
18152 18156 0.153
18153 28831 0.178
18157 18158 0.155
18158 18159 0.116
18160 18161 0.192
18160 18162 0.08
18160 18175 0.242
18163 18164 0.215
18164 18165 0.09
18166 18178 0.173
18167 18168 0.186
18168 18170 0.224
18169 18170 0.211
18169 18174 0.277
18170 18171 0.063
18171 18172 0.155
18172 31436 0.116
18173 31436 0.138
18174 18175 0.317
18176 18177 0.37
18176 18191 0.13
18177 31486 0.128
18178 18179 0.211
18179 18180 0.343
18180 18181 0.219
18181 18182 0.275
18183 18200 0.06
18184 18185 0.295
18185 18186 0.312
18186 28742 0.042
18187 18188 0.292
18187 28742 0.056
18188 18189 0.211
18189 18190 0.214
18190 18191 0.106
18193 18195 0.259
18194 18197 0.711
18195 18196 0.221
18196 18200 0.193
18198 18199 0.929
18199 18200 0.71
18201 18202 0.164
18201 18204 0.129
18201 18212 0.064
18202 18203 0.183
18202 18209 0.501
18204 18205 0.505
18205 18206 0.145
18206 18207 0.525
18207 18210 0.511
18208 18218 0.374
18209 18214 0.022
18209 18215 0.329
18211 18212 0.308
18211 18218 0.125
18213 18214 0.141
18215 18217 0.171
18216 18217 0.097
18216 18218 0.582
18219 18220 0.088
18224 18225 0.044
18224 18227 1.258
18225 18226 0.047
18225 20808 0.22
18227 31280 0.462
18228 31290 0.681
18229 18230 0.242
18230 18231 0.028
18231 18232 0.035
18231 18234 0.148
18232 18233 0.258
18234 18235 0.275
18235 18236 0.101
18236 18237 0.33
18238 18239 0.115
18239 18240 0.342
18241 18245 0.081
18241 18273 0.297
18242 18243 0.047
18242 32847 0.115
18243 18244 0.851
18243 18263 0.182
18244 18245 0.148
18244 18246 0.055
18246 18247 0.134
18247 18248 0.045
18247 18260 0.303
18248 18249 0.151
18249 18250 0.041
18249 18257 0.393
18250 18251 0.187
18251 18252 0.227
18252 18253 0.202
18253 18254 0.2
18254 18255 0.28
18255 31464 0.224
18256 18257 0.042
18256 18258 0.23
18257 31464 0.144
18258 18259 0.252
18259 18260 0.054
18260 18261 0.232
18261 18262 0.21
18262 18263 0.332
18264 18265 0.045
18264 18278 0.088
18264 29114 0.184
18265 18266 0.268
18266 18267 0.34
18267 18268 0.084
18267 29109 0.624
18268 18269 0.354
18269 18270 0.193
18271 18272 0.298
18271 18274 0.226
18275 18276 0.225
18276 18277 0.193
18280 18281 0.049
18280 18282 0.18
18281 18398 0.15
18282 18283 0.059
18283 18285 0.243
18283 18287 0.642
18283 32846 0.283
18284 18285 0.044
18284 18286 0.226
18285 32893 0.12
18286 18289 0.314
18287 18288 0.029
18287 18291 0.029
18288 18290 0.213
18289 18290 0.057
18290 28825 0.614
18291 18292 0.137
18292 18293 0.077
18293 18294 0.065
18293 18295 0.111
18295 28743 0.209
18296 18297 0.046
18296 28743 0.033
18297 18392 0.059
18298 18299 0.039
18298 28825 0.642
18298 31453 0.273
18299 32893 0.472
18300 18302 0.093
18300 18310 0.044
18301 18303 0.412
18301 18319 0.106
18301 18320 0.082
18302 18305 0.393
18303 18304 0.296
18304 18321 0.207
18305 18321 0.041
18306 18322 0.032
18307 18308 0.409
18309 18310 0.221
18311 18312 0.21
18314 18315 0.287
18316 18317 0.287
18317 18318 0.373
18318 18319 0.191
18323 18324 0.269
18323 18348 0.297
18324 18325 0.162
18325 18326 0.083
18326 18327 0.228
18328 18329 0.138
18328 18330 0.226
18329 18336 0.375
18330 18331 0.233
18331 18332 0.214
18332 18333 0.047
18335 18336 0.229
18337 18338 0.38
18338 18339 0.17
18341 18355 0.202
18341 18472 0.25
18342 18347 0.328
18342 18355 0.139
18343 18344 0.36
18343 18355 0.179
18345 18360 0.21
18347 18348 0.262
18349 18350 0.238
18349 18382 0.05
18349 18386 0.098
18350 18351 0.356
18351 18352 0.191
18352 18353 0.3
18353 18354 0.247
18354 18355 0.116
18356 18359 0.206
18359 18360 0.242
18361 18362 0.269
18361 18372 0.265
18362 18363 0.324
18363 18364 0.182
18364 18365 0.261
18365 18366 0.121
18366 18367 0.158
18367 18368 0.116
18368 18369 0.07
18369 31533 0.183
18370 18371 0.066
18370 18387 0.077
18370 31533 0.206
18371 18372 0.188
18373 18374 0.105
18373 18375 0.154
18374 18502 0.034
18374 18503 0.045
18375 18376 0.23
18376 31549 0.149
18377 18378 0.239
18377 31549 0.07
18378 18379 0.215
18379 18380 0.164
18380 18381 0.237
18381 18382 0.078
18382 18385 0.089
18383 18384 0.174
18383 31548 0.061
18384 18385 0.242
18386 18387 0.188
18388 18889 1.342
18389 32894 0.051
18390 18391 0.362
18390 32894 0.223
18391 18392 0.205
18392 32846 0.265
18394 18395 0.052
18395 18396 0.052
18396 18397 0.322
18397 18398 0.044
18398 18399 0.09
18399 32895 0.122
18400 18401 0.133
18400 31614 0.671
18401 32896 0.141
18402 18403 0.265
18402 32896 0.064
18404 18405 0.189
18406 32895 0.15
18410 18411 0.138
18411 32897 0.079
18412 18413 0.359
18412 32897 0.049
18413 18421 0.235
18414 18432 0.213
18415 18416 0.239
18416 18441 0.317
18417 18418 0.142
18419 18420 0.239
18420 18427 0.352
18420 31586 0.11
18421 30361 0.096
18422 18424 0.122
18422 18435 0.293
18422 18452 0.083
18423 18426 0.071
18423 18427 0.051
18424 18425 0.341
18425 18426 0.321
18425 31583 0.465
18428 18429 0.197
18429 18430 0.07
18430 18431 0.058
18431 18432 0.067
18433 18434 0.148
18435 18436 0.034
18436 18437 0.283
18437 32898 0.198
18438 18439 0.229
18438 32898 0.159
18439 18440 0.104
18440 18441 0.039
18440 31542 0.15
18442 18443 0.199
18443 32462 0.111
18444 18445 0.237
18444 32462 0.076
18445 18446 0.149
18446 18447 0.165
18448 18449 0.287
18449 18450 0.203
18451 18452 0.192
18453 18454 0.231
18454 18566 0.2
18455 18485 0.235
18456 18473 0.238
18457 18458 0.218
18458 32463 0.144
18459 18460 0.204
18459 32463 0.115
18461 18462 0.131
18463 18464 0.17
18463 18498 0.029
18464 18465 0.098
18465 18466 0.078
18466 18467 0.088
18467 18468 0.077
18468 18469 0.143
18469 18470 0.178
18471 18472 0.19
18473 18474 0.053
18474 18475 0.066
18475 18476 0.249
18476 18477 0.064
18477 18478 0.084
18479 18480 0.263
18480 18481 0.25
18481 18482 0.109
18482 18483 0.175
18483 18484 0.042
18484 18485 0.071
18486 18487 0.04
18486 18501 0.185
18486 18502 0.043
18487 31543 0.065
18488 18489 0.163
18488 31543 0.094
18489 18490 0.217
18490 18491 0.115
18491 18493 0.071
18491 31545 0.081
18492 18493 0.039
18492 18496 0.209
18493 18494 0.048
18494 31452 0.088
18495 31452 0.084
18496 18497 0.215
18497 18498 0.087
18499 18505 0.241
18500 18510 0.148
18500 32899 0.133
18501 32899 0.065
18506 18507 0.185
18506 18516 0.15
18507 18508 0.058
18508 31444 0.193
18508 31506 0.093
18509 18510 0.099
18509 18511 0.107
18509 32459 0.209
18511 18512 0.152
18512 18513 0.184
18513 32900 0.05
18514 18515 0.235
18514 32900 0.236
18515 18516 0.197
18517 18524 0.187
18517 31506 0.152
18518 18519 0.262
18518 18524 0.062
18520 18521 0.159
18521 18522 0.116
18523 18550 0.301
18524 18525 0.045
18525 18526 0.461
18526 32461 0.194
18527 18528 0.173
18528 18529 0.037
18529 18530 0.212
18529 18531 0.197
18530 18546 0.21
18531 18532 0.251
18532 18533 0.26
18533 18534 0.043
18534 18535 0.156
18534 18541 0.215
18535 18536 0.182
18536 18537 0.211
18537 18538 0.11
18537 18539 0.046
18539 18540 0.258
18540 18541 0.157
18541 18542 0.135
18542 18543 0.135
18543 18544 0.199
18544 18545 0.209
18545 18546 0.209
18547 18549 0.056
18548 18549 0.06
18548 18568 0.252
18549 28283 0.157
18551 18572 0.363
18554 18555 0.158
18554 28287 0.024
18555 18556 0.277
18556 18557 0.236
18557 18558 0.203
18558 18559 0.12
18559 18560 0.042
18560 18561 0.203
18561 18562 0.21
18562 18563 0.105
18563 18564 0.177
18564 18565 0.092
18565 18566 0.06
18565 18567 0.147
18567 18577 0.115
18568 18569 0.142
18569 18570 0.076
18570 18571 0.074
18573 18574 0.096
18574 18575 0.168
18576 18578 0.232
18578 18579 0.204
18580 18583 0.141
18581 18582 0.042
18581 18600 0.255
18583 18584 0.027
18584 18585 0.293
18584 18596 0.054
18585 18586 0.243
18586 18587 0.049
18587 18588 0.03
18587 18589 0.158
18588 18590 0.188
18589 18594 0.464
18590 18591 0.113
18591 18592 0.189
18592 18593 0.039
18593 18598 0.224
18593 18599 0.041
18594 18595 0.156
18594 18599 0.147
18596 18597 0.275
18598 18813 0.328
18600 18601 0.214
18601 18602 0.163
18602 18603 0.125
18603 18604 0.125
18604 18605 0.171
18605 18606 0.227
18608 18610 0.323
18609 18624 0.017
18609 31595 0.359
18610 18617 0.053
18610 18625 0.132
18610 31596 0.269
18611 31597 0.183
18612 18626 0.062
18612 18627 0.188
18612 18660 0.426
18612 31610 0.047
18613 18618 0.116
18613 18619 0.164
18613 31595 0.057
18614 18619 0.161
18614 18620 0.066
18614 31613 0.076
18615 18625 0.197
18615 18626 0.258
18615 31615 0.055
18616 18622 0.077
18616 18623 0.221
18617 18618 0.307
18620 18621 0.269
18621 18622 0.286
18623 18624 0.189
18627 18628 0.322
18629 28821 0.062
18630 32468 0.101
18631 28821 0.208
18632 18633 0.129
18634 18635 0.039
18635 18636 0.1
18636 18637 0.147
18638 18639 0.196
18639 18644 0.095
18640 18645 0.309
18640 31525 0.049
18641 18642 0.194
18641 31525 0.046
18642 18643 0.192
18642 18645 0.353
18645 18646 0.144
18647 18648 0.114
18648 18649 0.193
18650 18839 0.301
18651 18652 0.202
18651 18839 0.083
18652 18837 0.229
18653 18807 0.037
18653 18808 0.055
18653 32472 0.111
18654 18655 0.1
18654 32467 0.14
18654 32470 0.2
18655 18695 0.059
18655 18696 0.03
18656 18660 0.061
18656 18694 0.237
18657 18658 0.444
18657 18696 0.394
18657 18697 0.228
18658 18688 0.03
18658 18689 0.02
18659 18660 0.423
18659 18690 0.055
18659 18691 0.339
18660 18702 0.048
18661 18663 0.039
18661 18664 0.065
18662 18671 0.201
18662 18672 0.064
18663 18692 0.131
18664 31593 0.134
18665 18666 0.143
18665 31600 0.28
18667 18669 0.309
18668 18683 0.11
18669 18682 0.042
18670 18671 0.162
18670 18676 0.06
18672 18673 0.144
18673 18674 0.197
18674 31594 0.06
18675 31593 0.084
18675 31594 0.076
18676 18677 0.205
18676 18682 0.363
18677 18678 0.274
18678 18679 0.214
18679 18680 0.093
18680 18681 0.212
18681 18682 0.212
18683 18684 0.224
18685 18691 0.238
18686 18687 0.196
18686 18697 0.321
18687 18688 0.176
18689 18690 0.291
18692 18693 0.156
18693 18694 0.094
18695 18698 0.268
18698 18699 0.156
18699 18700 0.133
18700 18701 0.075
18701 18702 0.093
18703 18704 0.039
18703 18706 0.043
18703 18710 0.316
18704 18705 0.085
18705 18796 0.275
18706 18707 0.125
18707 18708 0.192
18708 18709 0.123
18709 18761 0.102
18710 18711 0.23
18711 18712 0.265
18712 18713 0.083
18712 18714 0.073
18714 18715 0.166
18715 28822 0.064
18716 18717 0.167
18717 18718 0.304
18719 18720 0.177
18719 18733 0.255
18720 18721 0.218
18721 18722 0.151
18722 18723 0.122
18723 18724 0.071
18724 18725 0.063
18725 18726 0.08
18726 18727 0.181
18727 18728 0.218
18728 18729 0.322
18729 18739 0.344
18730 18735 0.059
18730 18746 0.343
18731 18736 0.104
18732 18733 0.657
18732 18738 0.201
18732 18739 0.061
18733 18734 0.041
18734 18735 0.16
18736 18737 0.129
18737 18738 0.256
18740 18741 0.037
18741 18742 0.216
18742 18743 0.12
18743 18744 0.084
18744 18745 0.358
18745 18747 0.048
18747 18748 0.077
18747 29427 1.302
18750 18751 0.282
18751 18752 0.203
18752 18772 0.178
18753 18754 0.227
18754 18755 0.201
18757 18759 0.156
18758 18759 0.166
18760 18767 0.06
18760 32448 0.061
18761 18763 0.037
18761 18764 0.108
18762 18790 0.036
18762 18791 0.055
18762 18794 0.192
18763 18765 0.083
18764 18794 0.179
18765 18766 0.079
18766 18767 0.148
18768 18781 0.244
18769 18770 0.276
18770 18771 0.235
18771 18772 0.237
18774 31592 0.113
18774 32448 0.27
18776 18777 1.112
18777 18778 0.332
18778 18779 0.514
18780 29106 0.556
18781 18782 0.19
18784 18785 0.269
18785 18786 0.313
18786 18787 0.176
18789 18790 0.173
18791 18793 0.252
18792 18793 0.1
18792 18802 0.231
18796 18797 0.193
18797 18798 0.081
18798 18799 0.079
18799 18800 0.202
18800 18801 0.051
18801 18802 0.061
18801 18803 0.265
18805 18806 0.158
18806 18809 0.123
18807 32468 0.103
18808 18809 0.084
18810 18811 0.058
18811 18812 0.561
18811 18813 0.517
18813 31616 0.095
18814 18816 1.209
18814 28614 1.342
18815 18816 0.065
18816 28614 0.669
18819 18820 0.038
18819 31604 0.161
18820 18821 0.234
18821 18822 0.419
18822 18823 0.04
18823 31591 0.236
18824 18825 0.296
18825 18826 0.324
18827 18828 0.641
18827 18831 0.037
18827 18843 0.355
18828 18829 0.085
18829 18830 0.134
18830 18836 0.342
18831 18832 0.275
18832 18833 0.167
18833 18834 0.349
18834 18835 0.131
18835 18838 0.325
18836 18838 0.03
18838 18839 0.17
18840 18841 0.328
18840 19029 0.466
18841 18842 0.148
18844 18847 0.666
18845 18847 0.489
18846 28744 0.465
18847 18973 0.972
18848 18849 0.482
18850 18851 0.051
18850 18886 0.248
18851 18853 0.24
18851 18866 0.187
18852 18853 0.034
18852 18856 0.417
18853 18854 0.021
18855 18856 0.024
18856 18857 0.04
18857 18858 0.022
18858 18859 0.1
18858 18864 0.514
18859 18860 0.178
18860 18861 0.042
18861 18862 0.225
18862 18863 0.246
18863 18864 0.257
18864 18865 0.043
18865 18866 0.222
18868 18869 0.161
18870 18871 0.245
18871 31591 0.319
18873 18874 0.048
18873 18922 0.095
18874 18875 0.262
18875 18876 0.279
18878 18879 0.188
18878 18902 0.036
18879 18880 0.222
18880 18881 0.302
18881 18882 0.218
18882 18883 0.183
18883 18884 0.053
18884 18885 0.152
18884 18887 0.431
18885 18886 0.164
18891 18892 0.536
18893 32458 0.903
18895 18896 0.154
18895 18949 0.091
18895 18950 0.081
18896 18897 0.252
18897 18898 0.217
18898 18899 0.141
18899 18900 0.143
18900 18901 0.169
18901 18902 0.221
18903 18935 0.03
18906 18907 0.202
18907 18908 0.24
18909 18910 0.166
18909 28745 0.047
18910 18911 0.071
18911 18912 0.248
18912 18913 0.165
18913 18914 0.202
18914 18915 0.129
18915 18916 0.036
18917 18918 0.164
18918 18919 0.135
18919 18920 0.123
18920 18921 0.092
18923 18924 0.099
18923 28745 0.067
18924 18925 0.158
18926 18927 0.421
18926 19114 0.033
18927 18928 0.198
18927 18929 0.358
18929 18942 0.139
18929 18943 0.142
18929 28745 0.356
18930 18931 0.044
18931 18932 0.134
18931 18936 0.064
18932 18933 0.16
18933 18934 0.151
18934 18935 0.156
18937 18938 0.205
18937 18993 0.034
18938 18939 0.305
18939 18940 0.455
18941 18942 0.187
18944 18945 0.229
18944 19067 0.219
18945 18946 0.14
18946 18947 0.156
18947 18948 0.064
18948 18949 0.055
18948 18951 0.056
18951 18952 0.16
18952 18953 0.191
18954 18955 0.207
18954 19047 0.252
18955 18956 0.302
18958 18959 0.344
18961 18964 0.179
18962 18963 0.176
18964 18965 0.203
18965 18966 0.293
18967 19049 0.168
18969 18970 0.348
18970 18971 0.583
18971 18972 0.304
18974 18975 0.166
18975 18976 0.227
18976 18991 0.268
18977 18979 0.185
18977 18984 0.076
18978 18988 0.226
18978 29085 0.041
18979 18980 0.318
18980 18981 0.411
18981 18982 0.254
18982 18983 0.173
18983 18989 0.236
18984 19004 0.191
18984 29085 0.089
18985 18986 0.129
18985 19008 0.195
18986 28820 0.028
18989 18990 0.035
18992 19003 0.267
18994 18996 0.316
18995 18996 0.162
18995 18997 0.149
18996 19009 0.062
18997 18999 0.122
18997 19000 0.088
18998 18999 0.071
19000 19001 0.108
19001 19002 0.195
19002 19003 0.027
19005 19293 0.832
19006 19007 0.108
19006 19028 0.224
19009 28820 0.286
19010 19011 0.089
19010 19042 0.096
19010 19043 0.038
19010 19189 0.051
19011 19012 0.246
19012 19013 0.108
19013 19014 0.247
19014 19015 0.122
19015 19016 0.033
19016 19017 0.176
19017 19018 0.183
19018 19035 0.206
19019 19020 0.161
19020 19021 0.063
19021 19022 0.237
19021 19023 0.056
19022 27960 0.085
19023 19024 0.237
19024 19025 0.146
19025 19026 0.031
19026 19027 0.099
19026 28819 0.253
19027 19028 0.186
19030 19031 0.21
19031 19032 0.333
19033 19155 0.256
19034 19040 0.29
19035 19036 0.19
19037 19038 0.241
19039 27177 0.114
19039 28819 0.104
19040 19041 0.194
19041 19042 0.19
19043 19044 0.294
19046 19047 0.179
19048 19049 0.165
19050 29099 0.465
19051 19071 0.085
19052 19055 0.1
19054 19058 0.251
19054 19060 0.096
19055 19056 0.099
19055 19057 0.105
19056 31557 0.146
19057 19058 0.104
19059 19062 0.341
19059 31560 0.081
19061 19069 0.166
19063 19064 0.031
19063 19106 0.172
19064 19065 0.019
19064 32638 0.314
19065 19066 0.13
19066 19067 0.137
19068 19069 0.131
19068 19071 0.688
19070 19071 0.051
19070 31559 0.082
19072 31559 0.19
19074 19075 0.041
19074 19086 0.218
19075 19076 0.168
19075 19082 0.129
19076 19077 0.058
19077 19078 0.104
19078 19079 0.253
19079 19080 0.185
19080 19081 0.226
19081 19082 0.139
19083 19085 0.584
19085 27947 1.19
19087 19088 0.332
19088 19089 0.224
19089 19090 0.23
19090 19096 0.181
19092 19093 0.131
19093 19094 0.408
19094 19095 0.409
19097 19098 0.199
19098 19099 0.164
19100 19101 0.166
19100 19105 0.347
19102 20833 0.024
19103 19104 0.121
19104 19105 1.405
19106 19107 0.19
19107 19108 0.115
19108 19109 0.114
19109 19110 0.236
19110 19111 0.036
19112 19116 0.098
19112 19117 0.024
19112 29428 0.098
19113 19114 0.038
19113 19115 0.069
19113 19125 0.181
19115 19116 0.116
19117 19118 0.147
19118 19119 0.164
19119 19124 0.146
19120 19121 0.099
19121 19122 0.086
19122 19123 0.205
19123 19124 0.058
19126 19136 0.351
19127 27955 0.096
19128 19129 0.18
19128 27955 0.028
19130 19131 0.126
19130 26032 0.094
19132 19134 0.185
19132 28818 0.045
19136 19137 0.12
19137 19138 0.239
19139 19140 0.079
19139 19146 0.037
19139 32491 0.078
19140 19142 0.331
19141 19143 0.21
19141 32491 0.259
19142 19145 0.274
19143 19144 0.172
19144 19145 0.191
19146 19147 0.187
19147 26018 0.735
19149 26046 0.208
19150 19152 0.234
19151 19176 0.194
19152 19154 0.169
19153 19154 0.066
19153 26043 0.186
19154 19155 0.051
19156 19157 0.269
19156 26045 0.114
19157 19158 0.23
19159 19160 0.363
19160 19166 0.02
19162 26046 0.512
19163 19166 0.322
19164 19165 0.07
19164 19166 0.285
19165 26038 0.321
19165 27182 0.133
19165 27183 0.247
19167 19169 0.148
19168 19169 0.094
19168 19171 0.166
19169 19170 0.068
19171 19172 0.2
19172 19173 0.193
19173 19174 0.22
19174 19175 0.322
19175 19176 0.1
19177 19178 0.17
19177 19183 0.16
19178 19179 0.264
19179 19180 0.186
19180 19181 0.34
19181 19182 0.321
19183 19184 0.243
19184 19185 0.147
19185 19186 0.153
19186 19187 0.178
19187 19188 0.121
19188 19189 0.224
19190 19191 0.435
19193 19194 0.19
19195 19196 0.376
19195 19202 0.136
19196 31601 0.055
19197 19198 0.297
19197 29429 0.072
19198 19199 0.291
19199 19200 0.399
19201 19202 0.093
19201 19230 0.082
19203 19306 0.028
19203 19307 0.049
19203 27187 0.256
19203 31590 0.039
19204 19205 0.23
19204 31590 0.183
19205 19206 0.047
19206 19207 0.221
19207 19306 0.241
19207 27186 0.122
19208 19209 0.358
19208 19210 0.263
19209 19210 0.626
19210 28746 0.227
19211 29430 0.914
19212 19213 1.159
19213 19214 1.206
19214 19215 0.668
19214 28746 1.077
19215 19216 0.305
19218 19219 0.161
19219 19220 0.587
19220 19221 0.29
19221 19222 0.227
19223 19224 0.88
19225 19226 1.346
19225 31602 0.379
19227 29430 0.908
19228 19229 1.489
19228 19309 1.621
19229 31602 1.342
19230 19231 0.426
19231 19232 0.037
19232 19233 0.061
19232 19234 0.221
19233 19242 0.375
19234 19235 0.042
19234 19236 0.435
19235 19237 0.147
19237 19238 0.083
19238 19239 0.223
19239 19240 0.152
19240 19241 0.105
19241 19242 0.125
19243 19244 0.178
19243 19280 0.33
19243 28932 0.831
19243 32829 0.28
19244 19251 0.321
19245 19246 0.154
19245 28932 0.121
19246 19247 0.223
19247 19248 0.214
19248 29431 0.174
19249 19250 0.155
19249 29431 0.071
19250 19251 0.126
19252 19253 0.179
19252 29432 0.057
19253 19254 0.21
19254 19255 0.125
19255 19256 0.31
19256 19257 0.085
19257 19258 0.244
19257 19270 0.233
19258 19260 0.049
19259 19260 0.136
19259 19264 0.297
19260 19289 0.218
19261 19262 0.489
19261 19270 0.291
19261 19271 0.064
19262 19263 0.271
19263 19264 0.404
19265 19288 0.168
19265 19289 0.093
19265 19290 0.376
19266 19287 0.089
19266 31589 0.237
19266 32901 0.068
19267 28932 0.225
19267 29432 0.297
19268 19269 0.263
19268 19272 0.251
19271 19272 0.229
19273 19274 0.144
19273 19299 0.075
19274 19301 0.234
19275 19299 0.218
19275 19300 0.305
19276 19277 0.065
19276 19280 0.188
19277 19300 0.284
19278 19279 0.06
19278 32901 0.189
19279 19280 0.024
19280 31588 0.156
19281 28747 0.106
19281 28802 0.185
19282 19283 0.28
19282 28747 0.066
19283 19290 0.026
19284 28615 0.147
19284 28616 0.131
19285 19286 0.088
19285 28615 0.094
19286 19287 0.122
19286 19288 0.154
19290 19291 0.333
19291 19292 0.062
19292 19305 0.179
19295 19296 0.171
19295 26044 0.435
19296 19297 0.205
19297 19298 0.129
19301 19302 0.053
19302 19303 0.232
19303 19304 0.171
19305 31589 0.082
19313 19314 0.072
19314 19315 0.056
19315 19316 0.116
19317 19318 0.243
19318 19319 0.181
19321 19322 0.252
19323 19324 3.356
19323 19329 4.36
19324 19325 5.026
19326 19327 1.974
19326 19335 1.306
19327 19328 0.824
19330 19336 0.812
19331 19332 1.385
19332 19333 1.354
19333 32615 0.87
19334 19335 1.725
19334 32615 0.838
19336 19337 1.465
19338 19339 1.66
19339 19340 1.404
19340 19341 1.463
19342 19343 0.843
19342 19344 1.296
19344 19345 1.047
19345 19346 0.854
19347 32614 0.263
19348 19349 0.262
19348 19357 0.154
19349 19350 0.195
19350 19351 0.196
19351 19352 0.225
19352 19354 0.179
19355 19356 0.144
19355 19358 0.195
19356 19357 0.234
19358 19359 0.151
19359 19360 0.162
19360 19361 0.234
19361 19362 0.215
19362 19363 0.153
19363 19364 0.202
19364 19365 0.041
19365 19366 0.213
19365 29480 0.238
19366 19367 0.161
19368 19369 0.089
19369 19370 0.196
19370 19371 0.474
19372 19373 0.207
19376 19380 0.243
19376 19392 0.225
19377 19380 0.063
19377 19381 0.283
19378 19379 0.044
19378 19380 0.332
19379 19394 0.481
19379 30987 1.74
19379 31434 0.088
19381 19382 0.314
19382 19383 0.068
19383 19384 0.065
19383 19386 0.13
19384 19385 0.358
19387 19395 0.483
19388 19389 0.249
19388 31729 0.1
19389 19390 0.329
19390 19391 0.363
19392 19393 0.356
19393 31729 0.405
19396 28183 0.06
19397 19398 1.67
19397 28184 0.037
19398 27777 1.663
19399 19404 1.219
19399 31738 0.038
19400 19401 0.444
19400 31738 0.289
19401 19402 0.674
19402 19512 0.462
19403 28823 0.035
19404 19409 0.309
19404 29433 0.485
19405 19410 0.765
19406 19408 0.053
19408 19409 1.476
19409 19410 1.26
19410 29107 1.819
19412 19413 0.031
19413 19414 0.033
19413 19420 0.977
19414 19415 0.092
19415 19416 0.268
19416 19417 0.117
19417 19418 0.204
19418 19419 0.262
19419 19420 0.044
19420 19421 0.069
19421 19422 0.288
19422 19423 0.192
19425 19426 0.178
19426 19427 0.453
19430 19431 0.2
19431 19432 0.421
19432 19433 0.281
19436 19437 0.049
19436 19438 0.053
19437 19440 0.051
19438 19439 0.086
19439 19441 0.184
19440 19444 0.243
19441 19442 0.057
19442 19443 0.218
19444 28748 0.051
19445 19447 0.353
19445 19448 0.089
19445 28748 0.146
19446 19452 0.087
19448 19449 0.209
19449 19450 0.093
19450 19451 0.068
19451 19452 0.266
19454 19455 0.272
19455 19456 0.183
19456 19457 0.073
19457 19458 0.267
19458 19459 0.286
19459 19460 0.322
19460 19461 0.174
19461 19462 0.224
19462 19463 0.077
19463 19464 0.211
19464 19465 0.208
19465 19466 0.11
19468 19469 0.608
19470 19471 0.242
19471 28934 0.042
19472 19473 0.163
19475 19476 0.292
19475 19487 0.061
19475 19513 0.919
19476 19477 0.26
19477 19478 0.365
19478 19496 0.148
19479 19496 0.265
19479 19504 0.253
19480 19481 0.046
19481 19482 0.057
19481 19483 0.05
19482 19484 0.131
19484 19485 0.375
19485 19486 0.077
19487 19488 0.406
19489 19490 0.1
19489 19491 0.406
19489 19492 0.087
19490 19491 0.473
19492 19493 0.151
19493 19498 0.454
19493 19504 0.382
19493 19511 0.598
19494 19495 0.058
19494 19503 0.338
19495 19496 0.133
19495 19497 0.567
19497 19498 0.374
19499 19502 0.177
19499 31655 0.159
19500 19501 0.097
19500 19503 0.132
19500 31655 0.141
19501 19502 0.319
19504 19505 0.033
19505 19506 0.227
19506 19507 0.206
19507 19508 0.204
19508 19509 0.099
19509 19510 0.253
19510 19511 0.108
19512 28823 1.328
19514 19516 0.177
19516 19517 0.234
19518 19519 0.141
19519 27792 0.271
19523 19526 0.036
19523 28935 0.104
19524 28934 0.121
19524 28935 0.244
19525 19526 0.085
19525 19527 0.238
19527 19528 0.306
19528 19529 0.256
19529 19530 0.069
19530 22828 0.096
19531 19532 0.173
19531 19569 0.352
19532 19533 0.141
19533 19534 0.287
19534 19535 0.266
19535 19536 0.387
19537 19540 0.254
19538 19539 0.162
19539 19544 0.35
19540 19541 0.321
19541 19542 0.322
19542 19543 0.323
19544 19545 0.127
19545 19546 0.694
19547 19548 0.633
19547 19550 0.537
19548 28795 0.03
19549 19552 0.342
19549 28796 0.323
19550 19554 0.43
19551 19552 0.104
19551 19553 0.408
19556 19567 0.298
19557 19558 0.297
19558 19559 0.408
19560 19561 0.115
19560 19562 0.148
19561 19570 0.246
19561 31727 0.136
19562 19563 0.147
19563 19564 0.089
19564 19565 0.091
19565 19566 0.219
19566 19567 0.272
19568 19569 0.329
19570 19571 0.117
19572 19573 0.275
19572 31727 0.141
19573 19574 0.193
19574 19575 0.169
19575 19576 0.2
19576 19577 0.302
19577 19578 0.17
19578 32499 0.118
19579 19580 0.165
19580 19581 0.248
19582 19583 0.151
19582 32499 0.052
19584 27796 0.312
19585 19586 0.403
19588 19589 0.233
19590 19605 0.661
19591 28827 0.068
19591 31512 0.523
19592 19593 0.311
19594 19607 0.226
19595 19596 0.327
19595 19607 0.085
19596 19597 0.145
19597 19611 0.172
19598 19611 0.118
19598 19612 0.871
19599 19600 0.048
19599 19608 0.199
19599 28827 0.612
19600 19601 0.129
19601 19602 0.256
19602 19603 0.126
19603 19604 0.218
19604 19605 0.049
19605 19609 0.291
19606 19607 0.099
19614 27991 0.154
19614 27992 0.395
19615 27991 0.036
19616 19618 0.208
19618 19619 0.205
19619 19620 0.2
19620 19621 0.143
19621 19622 0.075
19622 19628 0.089
19622 19638 0.248
19623 19627 0.175
19629 19630 0.042
19629 19635 0.205
19632 19640 0.029
19634 19635 0.251
19634 19640 0.068
19636 19637 0.147
19638 19639 0.457
19639 19640 0.301
19641 19643 0.091
19644 19645 0.033
19645 19646 0.287
19646 29434 0.047
19647 19648 0.073
19647 29434 0.216
19648 19649 0.057
19649 19650 0.264
19651 19652 0.128
19652 19653 0.035
19653 19654 0.078
19653 19657 0.052
19654 19731 0.088
19654 29435 0.305
19655 19656 0.027
19655 19661 0.28
19655 29435 0.316
19656 19662 0.215
19657 19658 0.202
19658 19659 0.243
19659 19660 0.135
19660 19661 0.175
19662 19665 0.248
19663 19664 0.019
19663 19667 0.12
19663 19681 0.04
19664 19668 0.172
19665 19666 0.121
19666 19667 0.138
19668 19669 0.153
19669 19670 0.159
19670 19671 0.291
19671 19672 0.04
19672 19673 0.083
19672 19731 0.197
19674 19675 0.228
19675 19676 0.175
19676 19677 0.142
19677 19678 0.059
19678 19679 0.125
19678 19687 0.134
19679 19680 0.258
19680 19681 0.202
19682 19683 0.062
19683 19684 0.193
19684 19685 0.297
19685 19686 0.243
19686 26838 0.185
19687 26838 0.081
19688 19689 0.288
19688 19691 0.275
19690 19691 0.042
19690 19696 0.156
19691 19692 0.197
19692 19693 0.108
19692 30355 0.243
19693 19694 0.125
19693 19698 0.155
19694 30334 0.204
19695 19697 0.085
19695 30334 0.092
19696 19697 0.073
19698 19728 0.206
19699 19700 0.347
19699 19711 0.726
19701 19735 0.312
19701 30365 0.105
19702 19703 0.212
19702 19711 0.155
19703 19704 0.234
19704 19705 0.221
19705 19706 0.192
19706 19707 0.172
19707 19708 0.119
19708 19709 0.256
19708 19725 0.052
19709 19710 0.301
19711 19714 0.398
19712 19713 0.368
19713 29436 0.134
19714 29436 0.121
19715 19716 0.114
19715 19721 0.243
19716 19717 0.144
19717 19718 0.252
19718 19719 0.132
19719 19720 0.232
19720 28805 0.056
19721 29128 0.081
19722 19723 0.262
19722 28805 0.234
19723 19724 0.288
19724 19725 0.237
19726 19727 0.214
19727 19728 0.03
19728 19729 0.045
19729 19730 0.103
19730 19738 0.156
19732 19733 0.489
19733 19734 0.278
19736 19741 0.384
19737 19738 0.255
19739 19742 0.239
19740 19741 0.223
19744 19745 0.404
19746 19747 0.09
19746 19754 0.163
19747 19748 0.091
19748 19749 0.163
19749 19750 0.252
19752 19753 0.12
19753 19754 0.122
19753 19755 0.129
19753 19816 0.215
19755 19756 0.069
19756 19757 0.085
19758 19759 0.037
19759 19765 0.068
19759 19789 0.146
19760 19761 0.038
19760 19789 0.139
19761 19762 0.121
19762 19763 0.093
19763 19766 0.121
19764 19765 0.164
19764 19772 0.106
19766 19767 0.227
19767 19768 0.212
19768 19769 0.114
19769 19770 0.142
19770 19771 0.204
19771 19772 0.196
19773 19774 0.089
19773 19793 0.134
19774 19775 0.07
19774 19782 0.288
19775 19776 0.213
19776 19777 0.198
19777 19778 0.265
19778 19779 0.21
19779 19780 0.221
19780 19781 0.12
19781 19782 0.053
19782 19783 0.065
19783 19784 0.076
19784 19785 0.1
19785 19786 0.18
19786 19787 0.112
19787 19788 0.1
19788 19789 0.086
19790 19791 0.269
19790 19798 0.15
19791 19792 0.252
19792 19793 0.112
19794 19795 0.177
19794 28749 0.044
19795 19796 0.042
19796 19797 0.116
19796 19799 0.175
19797 19798 0.19
19797 19803 0.681
19797 19817 0.16
19799 19800 0.28
19800 29437 0.131
19801 19802 0.217
19801 29437 0.061
19802 19803 0.183
19803 19804 0.214
19803 19805 0.074
19804 19839 0.412
19805 19806 0.173
19806 19835 0.29
19807 19810 0.573
19808 19818 0.669
19809 19822 0.233
19809 19824 0.263
19810 19811 0.291
19811 30363 0.148
19813 19814 0.137
19813 19819 0.146
19813 28749 0.453
19814 29083 0.281
19815 29083 0.143
19816 19820 0.602
19818 19821 0.667
19819 19820 0.084
19820 29083 0.196
19821 29108 0.392
19822 19823 0.776
19823 19824 0.386
19826 19827 0.204
19828 19829 0.064
19828 19830 0.054
19829 19837 0.062
19829 28251 0.346
19830 19831 0.054
19830 19832 0.056
19831 19843 0.251
19831 19860 0.389
19832 19833 0.1
19833 19834 0.187
19834 19838 0.21
19836 19837 0.197
19838 19847 0.135
19839 19840 0.071
19841 19844 0.037
19841 19845 0.106
19841 19850 0.113
19842 19854 0.063
19842 19855 0.087
19842 19860 0.256
19843 19844 0.338
19845 19846 0.031
19846 19847 0.054
19846 19848 0.104
19848 19849 0.181
19850 19851 0.153
19851 19852 0.322
19852 19853 0.154
19853 19854 0.136
19855 19856 0.129
19856 19857 0.137
19857 19861 0.191
19858 19860 0.22
19858 19862 0.153
19858 19863 0.053
19859 19861 0.099
19859 19862 0.103
19859 19865 0.179
19863 19864 0.186
19864 19878 0.091
19865 19866 0.331
19866 19867 0.381
19868 19869 0.215
19869 19883 0.075
19870 19871 0.195
19870 19883 0.059
19871 19897 0.19
19872 19873 0.043
19872 19875 0.087
19873 19874 0.165
19873 28251 0.751
19874 19879 0.244
19875 19876 0.152
19876 19877 0.214
19877 19878 0.036
19878 28251 0.499
19879 19880 0.218
19880 28797 0.043
19881 19882 0.441
19881 28797 0.032
19883 19884 0.118
19884 19885 0.203
19885 19886 0.146
19886 19887 0.241
19887 19888 0.086
19888 19889 0.032
19888 19890 0.076
19889 19898 0.168
19890 19891 0.16
19891 19892 0.116
19892 19893 0.213
19893 19894 0.182
19894 19895 0.075
19895 19896 0.182
19896 19897 0.057
19898 19899 0.228
19899 19900 0.072
19900 19917 0.173
19900 20118 0.057
19900 31828 0.146
19901 19902 0.331
19902 19903 0.291
19903 19904 0.308
19904 19905 0.18
19905 19906 0.328
19906 19907 0.197
19907 19908 0.364
19908 19909 0.227
19909 19910 0.292
19910 19911 0.104
19911 19912 0.346
19912 19919 0.605
19913 19914 0.19
19913 19918 0.299
19914 19915 0.05
19915 19916 0.136
19916 19917 0.182
19918 19919 0.217
19919 20128 0.245
19920 19921 0.166
19920 19928 0.076
19921 19922 0.269
19922 19923 0.208
19923 19924 0.3
19924 19925 0.076
19925 19926 0.152
19926 20130 0.284
19927 20124 0.252
19927 20125 0.064
19928 20119 0.102
19928 31828 0.078
19930 19931 0.122
19931 19932 0.134
19932 19933 0.39
19933 19934 0.176
19934 19960 0.181
19935 19936 0.115
19935 19943 0.468
19935 19951 0.175
19936 19937 0.293
19937 19938 0.333
19938 19939 0.191
19939 19940 0.186
19940 19941 0.212
19941 19942 0.251
19942 19943 0.078
19943 19944 0.028
19944 19953 0.085
19945 19946 0.269
19945 19953 0.109
19946 19947 0.207
19947 19948 0.39
19948 19949 0.028
19949 19950 0.088
19949 19954 0.203
19950 19951 0.354
19951 19952 0.069
19954 19955 0.325
19955 19956 0.373
19956 19958 0.078
19957 19958 0.062
19958 19959 0.068
19960 19961 0.186
19961 19962 0.096
19965 19966 0.106
19965 19967 0.187
19965 19985 0.171
19966 19969 0.231
19967 19968 0.182
19969 19970 0.201
19970 19971 0.185
19971 19972 0.279
19972 19973 0.181
19973 19974 0.042
19974 19985 0.596
19974 20002 0.094
19975 19976 0.379
19975 19978 0.49
19977 19978 0.155
19979 19980 0.294
19980 19981 0.231
19981 19982 0.302
19982 19992 0.31
19983 19984 0.235
19983 19992 0.085
19985 19986 0.508
19986 19989 0.046
19986 19993 0.047
19987 19988 0.217
19987 19993 0.202
19988 19996 0.047
19988 26836 0.811
19989 19990 0.219
19990 19991 0.247
19991 19992 0.333
19994 19995 0.281
19995 19996 0.251
19997 19998 0.228
19998 19999 0.173
19999 20000 0.158
20000 20001 0.182
20001 20005 0.085
20003 20004 0.182
20005 20006 0.228
20006 20007 0.176
20007 26834 0.106
20008 20009 0.271
20008 26834 0.114
20009 20010 0.121
20010 20011 0.114
20012 20013 0.723
20014 20015 0.17
20014 20016 0.096
20015 20050 0.205
20015 20052 0.167
20016 20017 0.26
20016 20018 0.193
20017 20022 0.048
20018 20020 0.334
20019 20022 0.143
20019 31831 0.096
20020 20024 0.088
20021 20028 0.375
20021 31831 0.298
20022 30225 0.146
20023 20024 0.083
20023 20025 0.25
20024 20044 0.191
20025 20027 0.187
20026 20027 0.132
20026 20028 0.348
20027 20033 0.467
20029 20030 0.223
20029 20049 0.064
20030 20031 0.178
20031 20032 0.243
20032 20033 0.222
20033 20034 0.033
20034 20035 0.276
20035 20058 0.282
20036 20037 0.289
20036 20051 0.152
20037 20038 0.174
20038 20053 0.153
20039 20042 0.214
20039 20048 0.039
20040 20041 0.232
20040 20048 0.046
20041 20049 0.279
20042 20043 0.236
20043 20045 0.099
20044 20045 0.182
20045 20053 0.534
20046 20047 0.709
20046 20049 0.415
20047 20048 0.285
20047 20053 0.314
20052 30225 0.122
20054 20055 0.067
20054 20056 0.079
20055 20059 0.523
20056 20057 0.238
20057 20058 0.505
20060 20061 0.282
20061 20062 0.282
20062 20063 0.28
20063 20064 0.281
20064 20069 0.225
20065 31829 0.281
20065 31830 0.286
20066 20071 0.055
20066 20080 0.22
20066 31829 0.145
20067 20068 0.044
20067 20080 0.143
20067 20081 0.102
20068 31830 0.611
20069 20070 0.251
20075 20076 0.244
20076 20103 0.139
20077 20191 0.358
20079 20084 0.272
20082 20113 0.055
20087 20088 0.291
20089 20090 0.101
20092 20361 0.151
20095 20096 0.168
20096 20097 0.15
20097 20098 0.101
20098 20099 0.217
20099 20100 0.212
20100 20101 0.04
20101 20194 0.244
20102 20110 0.109
20104 20105 0.194
20105 20106 0.187
20106 20107 0.169
20108 20188 0.282
20109 20110 0.319
20111 20112 0.105
20114 20115 0.45
20114 20123 0.387
20116 20117 0.136
20117 20118 0.1
20119 20120 0.294
20120 20121 0.13
20121 20126 0.357
20125 20127 0.33
20127 20130 0.255
20128 20129 0.243
20131 20132 0.159
20132 20133 0.282
20133 20154 0.355
20134 20135 0.956
20135 20136 0.405
20136 20137 0.466
20138 20139 0.466
20139 20140 0.573
20140 20141 0.173
20141 20148 0.12
20142 20148 0.026
20143 20153 0.037
20143 20154 0.052
20143 20155 0.322
20144 20146 0.546
20144 20156 0.141
20144 20157 0.121
20145 20146 0.069
20145 20148 0.887
20145 20149 0.027
20146 20163 0.053
20147 20158 0.097
20147 20159 0.109
20147 20174 0.29
20149 20150 0.324
20150 20151 0.195
20151 20152 0.178
20152 20153 0.266
20155 20156 0.265
20157 20158 0.28
20159 20160 0.222
20160 20161 0.266
20161 20162 0.36
20162 20163 0.154
20164 28826 0.08
20165 20166 0.142
20166 20182 0.117
20167 20168 0.18
20168 20169 0.273
20169 20196 0.168
20170 20171 0.215
20171 20172 0.395
20176 20177 0.23
20177 20204 0.205
20178 20181 0.193
20179 20180 0.236
20180 20182 0.112
20182 20183 0.045
20183 20184 0.291
20184 20185 0.188
20185 20186 0.26
20186 31827 0.164
20187 20193 0.176
20187 31824 0.056
20189 20190 0.147
20190 20192 0.277
20193 20195 0.252
20195 20196 0.164
20197 20198 0.187
20197 20205 0.246
20198 20199 0.327
20199 20200 0.195
20200 20201 0.197
20203 20204 0.314
20206 20275 0.503
20207 20208 0.181
20208 20209 0.125
20209 20210 0.088
20210 20211 0.186
20212 20213 0.402
20212 28826 0.241
20213 20214 0.211
20215 20342 0.08
20215 20343 0.085
20215 31822 0.093
20216 20331 1.062
20216 28008 0.269
20216 30226 0.17
20217 20220 0.08
20218 20219 0.056
20221 20361 0.318
20224 20225 0.25
20225 20232 0.196
20226 20227 0.257
20227 20228 0.364
20229 20234 0.219
20229 28018 0.076
20230 20231 0.189
20230 28018 0.075
20233 20316 0.188
20235 20236 0.253
20236 20237 0.186
20237 20238 0.105
20238 20239 0.089
20239 20240 0.091
20240 20241 0.09
20241 20242 0.117
20243 20244 0.192
20244 20245 0.187
20246 20248 0.102
20248 20249 0.209
20250 20251 0.018
20250 20259 0.266
20251 20252 0.151
20251 20263 0.15
20252 20253 0.265
20253 20254 0.196
20254 20255 0.121
20255 20256 0.036
20257 20263 0.25
20257 20264 0.165
20257 20266 0.115
20258 20262 0.121
20258 20264 0.095
20259 20260 0.192
20260 20261 0.166
20261 20265 0.366
20262 20265 0.204
20267 20268 0.163
20268 20269 0.105
20269 20270 0.121
20270 20349 0.303
20271 20272 0.231
20273 20274 0.259
20273 20281 0.239
20277 20356 0.313
20278 20279 0.234
20279 20280 0.263
20283 20284 0.05
20283 20291 0.085
20284 20285 0.287
20285 20286 0.252
20287 20288 0.273
20287 20306 0.33
20288 20289 0.206
20289 20290 0.367
20290 20291 0.233
20293 20294 0.041
20293 20299 0.271
20293 31814 0.292
20294 20295 0.227
20295 20296 0.241
20296 20297 0.191
20297 20298 0.171
20298 20304 0.256
20299 28017 0.088
20300 20301 0.227
20300 28017 0.226
20302 20303 0.336
20302 20336 0.384
20304 20305 0.238
20305 20321 0.044
20305 31819 0.109
20306 20307 0.049
20307 20308 0.047
20307 20310 0.118
20308 20309 0.2
20309 20313 0.321
20311 20320 0.341
20313 20314 0.208
20317 31820 0.132
20318 20319 0.199
20318 31820 0.185
20319 20338 0.169
20320 20321 0.248
20322 31818 0.297
20322 31821 0.234
20323 20337 0.146
20323 31821 0.132
20325 20333 0.386
20326 20327 0.266
20327 20328 0.274
20328 20329 0.205
20332 20337 0.377
20334 20335 0.317
20338 20339 0.143
20339 20340 0.204
20344 28013 0.074
20344 30226 0.264
20345 28004 0.063
20346 20347 0.26
20346 20351 0.223
20347 20348 0.301
20348 20349 0.054
20350 20351 0.249
20353 20354 0.14
20355 20356 0.255
20358 20359 0.09
20362 28011 0.07
20363 20364 0.704
20363 20369 0.294
20363 20378 0.073
20364 20365 0.046
20364 20370 0.239
20365 20366 0.224
20366 20367 0.22
20367 20368 0.191
20368 20369 0.377
20370 20371 0.151
20371 20409 0.211
20372 20373 0.166
20373 20374 0.333
20374 20375 0.305
20376 31810 0.192
20377 20378 0.238
20379 31810 0.417
20380 20381 0.261
20380 31785 0.104
20381 20382 0.253
20383 20392 0.484
20383 31803 0.068
20384 20385 0.205
20384 31803 0.231
20386 20387 0.266
20388 20393 0.346
20388 20416 0.398
20389 20390 0.303
20390 20391 0.296
20391 20392 0.288
20394 20395 0.328
20395 20396 0.365
20396 20397 0.325
20397 20403 0.189
20398 20403 0.759
20398 20420 0.222
20399 31788 0.159
20400 20401 0.196
20400 31788 0.286
20401 31787 0.335
20402 20403 0.122
20402 20412 0.261
20404 20412 0.127
20404 30227 0.183
20405 20406 0.051
20405 30227 0.054
20406 20411 0.467
20406 31785 0.09
20408 20410 0.102
20409 20410 0.1
20411 20412 0.19
20411 31786 0.114
20413 20414 0.319
20413 20419 0.269
20414 20415 0.178
20418 20443 0.067
20421 20483 0.534
20422 20423 0.272
20422 20428 0.668
20425 20433 0.101
20426 31746 0.148
20427 20474 0.313
20429 20439 0.21
20430 20431 0.324
20433 20434 0.12
20434 30228 0.104
20435 20436 0.222
20435 30228 0.11
20436 20437 0.079
20437 20438 0.035
20438 20439 0.241
20438 20440 0.108
20439 20443 0.601
20440 20441 0.28
20441 20442 0.194
20442 20444 0.168
20443 20444 0.13
20445 20446 0.083
20445 20447 0.26
20445 20452 0.192
20447 20454 0.255
20448 20449 0.373
20448 20454 0.295
20449 31775 0.043
20450 20451 0.207
20450 31775 0.109
20451 20453 0.058
20452 20453 0.244
20453 20458 0.474
20454 20455 0.036
20455 20456 0.263
20456 20457 0.079
20457 31780 0.908
20459 20460 0.269
20461 20462 0.537
20463 27876 0.052
20463 27882 0.033
20464 20465 0.911
20467 20470 0.43
20468 23006 1.057
20469 20471 0.424
20469 31750 0.272
20469 31756 0.24
20470 31753 0.424
20471 20480 0.051
20471 31749 0.047
20472 20473 0.248
20472 20482 0.254
20472 31755 0.129
20474 31754 0.339
20475 20476 0.781
20475 20477 0.167
20475 20483 0.089
20476 20478 0.106
20477 20480 0.497
20478 20479 0.398
20479 31747 0.303
20481 20482 0.113
20481 31749 0.259
20484 27793 0.278
20485 22822 0.141
20486 20488 0.23
20489 22822 0.109
20490 20491 0.09
20490 20494 0.167
20490 20500 0.8
20491 20492 0.212
20492 20493 0.089
20494 20495 0.219
20495 20496 0.145
20496 20497 0.172
20497 20498 0.186
20498 20499 0.154
20499 20500 0.112
20502 20503 0.144
20502 22909 0.125
20502 22910 0.046
20503 22899 0.039
20503 22914 0.087
20504 20506 0.254
20504 20507 0.064
20504 20508 0.084
20505 20506 0.273
20505 22904 0.329
20507 20526 0.175
20508 20509 0.224
20509 20510 0.233
20510 20511 0.262
20511 20512 0.257
20512 20513 0.249
20513 20514 0.294
20514 20515 0.259
20515 20516 0.126
20516 30409 0.031
20517 30409 0.179
20518 20519 0.208
20518 20523 0.452
20519 20520 0.306
20520 20521 0.202
20522 20523 0.268
20524 20525 0.115
20525 20526 0.145
20528 20529 0.17
20530 28134 0.109
20531 20532 0.181
20532 20533 0.286
20533 28127 0.224
20534 20535 0.071
20534 28127 0.022
20535 20536 0.238
20541 20542 0.073
20542 20543 0.128
20543 20544 0.113
20545 20553 0.105
20547 20548 0.081
20548 20549 0.084
20549 20550 0.032
20550 20551 0.141
20551 20552 0.028
20554 20555 0.039
20555 20556 0.183
20556 20557 0.072
20557 20558 0.159
20558 28118 0.06
20559 20560 0.08
20559 28118 0.052
20562 20563 0.143
20564 20565 0.124
20566 20567 0.144
20568 20569 0.094
20569 20570 0.046
20572 22738 0.117
20573 22734 0.018
20574 20575 0.175
20576 20577 0.318
20576 30218 0.123
20578 20579 0.167
20578 28043 0.101
20579 20580 0.092
20580 20581 0.101
20581 20582 0.057
20582 20583 0.149
20584 20585 0.121
20585 20586 0.155
20588 20589 0.092
20589 20590 0.131
20590 20591 0.201
20590 20601 0.078
20591 20592 0.026
20591 20593 0.22
20592 20594 0.164
20593 27331 0.16
20594 20595 0.107
20595 20596 0.208
20596 20597 0.112
20597 20598 0.029
20598 20599 0.149
20599 27300 0.175
20600 20601 0.211
20602 20603 0.201
20603 27436 0.156
20604 20612 0.018
20604 20613 0.063
20604 25685 0.26
20604 27328 0.034
20605 20609 0.103
20605 20613 0.04
20605 28393 0.039
20606 20607 0.104
20606 20608 0.033
20607 20611 0.042
20607 27295 0.107
20608 20609 0.151
20610 20611 0.119
20610 20612 0.105
20616 20617 0.087
20616 27434 0.155
20617 20618 0.04
20619 27438 0.186
20620 20621 0.257
20620 30410 0.26
20623 31269 0.293
20624 20625 0.277
20624 20626 0.227
20627 20628 0.129
20628 31189 0.231
20629 31394 0.238
20631 26131 0.127
20633 20634 0.13
20633 26132 0.191
20635 20636 0.088
20636 20637 0.233
20637 20638 0.178
20642 27997 0.294
20642 32555 0.119
20643 30407 0.064
20643 30945 0.102
20644 20645 0.286
20647 30760 0.034
20648 28900 0.124
20650 20651 0.193
20653 20655 0.116
20656 20657 0.182
20657 20658 0.195
20658 20659 0.198
20659 20660 0.153
20660 27798 0.034
20661 27798 0.108
20664 20665 0.177
20664 29036 0.101
20664 30618 0.456
20664 32591 0.216
20668 20671 0.178
20668 28249 0.152
20669 28249 0.036
20669 32591 0.064
20670 20671 0.055
20670 30946 0.276
20670 30947 0.101
20672 20673 0.059
20672 20677 0.141
20673 20675 0.164
20674 20675 0.03
20674 20677 0.052
20675 20676 0.036
20676 20678 0.145
20677 30946 0.261
20678 32594 0.079
20682 26237 0.195
20685 20686 0.119
20685 20687 0.291
20686 30719 0.252
20687 20688 0.108
20687 20689 0.085
20689 20690 0.098
20690 20691 0.161
20691 30949 0.049
20692 20693 0.031
20692 20698 0.227
20693 30949 0.133
20694 20696 0.089
20698 30951 0.089
20699 30951 0.095
20699 30952 0.099
20700 20701 0.106
20700 30952 0.066
20701 20702 0.088
20702 20703 0.217
20703 20762 0.163
20704 20710 0.114
20704 20713 0.594
20705 20709 0.034
20705 20710 0.136
20706 20712 0.309
20706 20713 0.04
20706 20714 0.244
20707 20709 0.134
20707 29370 0.274
20714 20715 0.077
20715 20716 0.273
20716 20717 0.204
20718 30953 0.036
20719 20720 0.248
20719 30953 0.304
20720 20721 0.241
20721 26918 0.065
20722 20723 0.244
20722 30986 0.04
20723 20724 0.359
20724 20725 0.023
20725 20726 0.189
20725 20734 0.156
20726 30954 0.032
20727 20728 0.172
20727 30954 0.114
20728 26226 0.11
20729 20730 0.168
20729 26226 0.021
20730 20731 0.145
20731 20757 0.143
20732 20736 0.207
20732 32653 0.224
20733 20734 0.16
20733 30718 0.226
20733 30955 0.231
20733 30956 0.229
20735 20736 0.176
20735 30955 0.027
20737 28225 0.494
20737 29438 0.076
20738 30957 0.177
20738 30958 0.196
20739 30957 0.099
20739 30959 0.13
20740 20747 0.05
20740 30959 0.233
20741 20743 0.057
20741 20749 0.15
20741 20753 0.139
20742 20743 0.074
20742 20744 0.094
20742 20746 0.21
20744 20748 0.11
20744 20750 0.043
20745 20747 0.16
20745 20750 0.082
20745 20751 0.038
20746 20751 0.106
20746 32652 0.389
20747 29369 0.464
20748 20749 0.06
20752 26221 0.133
20754 20755 0.212
20756 20757 0.114
20758 29369 0.469
20759 20760 0.147
20759 30722 0.052
20760 20761 0.055
20760 30723 0.263
20761 20762 0.143
20763 20766 0.273
20763 26905 0.062
20764 22811 0.215
20764 26905 0.334
20765 20766 0.395
20765 22810 0.119
20765 22811 0.058
20766 20767 0.111
20768 20769 0.334
20769 20770 0.251
20771 20772 0.332
20771 31402 0.025
20772 22792 0.036
20773 27964 0.143
20774 27972 0.173
20775 27974 0.1
20776 20777 0.236
20776 29133 0.21
20778 20780 0.218
20781 20782 0.201
20784 20785 0.387
20784 31284 0.067
20784 31451 0.244
20784 31522 0.137
20785 20786 0.366
20786 20787 0.332
20787 20788 0.189
20788 20789 0.039
20789 20790 0.052
20790 20810 0.244
20791 20811 0.553
20792 20793 0.32
20793 20802 0.059
20794 20795 0.338
20794 20802 0.104
20795 20801 0.309
20796 20797 0.396
20797 20798 0.318
20798 20799 0.381
20799 20800 0.286
20800 20801 0.256
20802 31465 0.056
20803 20804 0.315
20803 20805 0.312
20804 20807 0.375
20805 20806 0.555
20807 31466 0.221
20807 31467 0.067
20808 20809 0.502
20808 31285 0.42
20810 20811 0.255
20810 31451 0.109
20811 31286 0.355
20812 20813 0.284
20812 20814 0.613
20813 20815 0.126
20816 20817 0.233
20817 20818 0.308
20820 31278 0.943
20821 20822 0.089
20821 31276 0.236
20823 31272 1.101
20826 21106 1.8
20827 20831 0.717
20828 26682 1.094
20829 27952 0.851
20830 20831 0.515
20832 20833 2.083
20832 20834 0.824
20834 20835 1.156
20837 20838 1.322
20841 20842 0.377
20842 20843 0.388
20844 20910 1.961
20845 20891 1.31
20846 20847 0.023
20846 31572 0.424
20847 20909 1.146
20848 20849 0.722
20848 20851 0.654
20848 20854 0.093
20849 31572 0.906
20850 31567 0.302
20851 31563 0.51
20851 31571 0.282
20852 20853 0.143
20852 31569 0.156
20853 20854 0.108
20855 20856 0.122
20855 32457 0.199
20856 20857 0.093
20857 26666 0.028
20858 20859 0.144
20858 26666 0.127
20859 20860 0.227
20860 20861 0.692
20862 26664 0.232
20862 26667 2.073
20863 20864 0.693
20864 20865 0.724
20865 20866 1.277
20866 26667 0.123
20867 32457 0.185
20869 20870 1.716
20870 20871 1.245
20871 20902 0.519
20875 20876 1.449
20875 20881 1.438
20876 20877 1.321
20877 20878 1.799
20878 20879 1.641
20879 31582 0.398
20880 20881 1.688
20882 20883 1.668
20883 20884 1.752
20884 20885 1.809
20885 20886 1.79
20886 20887 1.335
20887 20888 1.42
20889 20890 0.18
20890 20892 0.142
20891 20892 0.89
20892 20893 0.029
20893 20894 0.175
20894 20895 0.152
20895 20896 0.18
20896 20897 0.183
20897 20898 0.151
20898 20899 0.205
20899 20900 0.06
20900 20901 0.115
20901 20902 0.169
20903 20904 0.21
20905 26659 1.545
20906 20907 0.909
20906 26660 0.672
20907 20908 0.177
20909 20910 0.588
20910 26663 1.197
20911 20912 0.223
20912 20913 0.683
20913 20914 0.725
20914 26661 1.299
20915 20916 0.447
20917 20918 0.077
20917 20919 0.134
20918 20923 0.034
20919 20920 0.081
20919 20921 0.08
20920 20934 0.153
20921 20922 0.213
20921 20927 0.19
20922 20923 0.052
20922 20924 0.057
20924 20925 0.275
20925 20926 0.223
20926 20932 0.322
20927 20928 0.212
20928 20929 0.213
20929 20930 0.427
20930 20931 0.211
20931 20932 0.319
20933 20934 0.089
20933 20949 0.395
20934 20935 0.028
20935 20936 0.149
20936 20937 0.212
20937 20938 0.272
20938 20939 0.273
20939 32902 0.043
20940 20941 0.299
20940 32902 0.18
20941 20942 0.146
20942 20950 0.317
20943 20946 0.197
20944 20945 0.067
20944 20947 0.316
20945 20946 0.163
20948 20949 0.204
20950 20951 0.307
20954 20955 1.816
20955 20956 1.667
20957 21017 1.703
20958 27727 0.595
20959 20960 2.823
20960 20961 1.749
20961 20962 1.133
20962 20963 0.559
20963 20967 1.633
20964 20965 0.806
20964 20968 1.646
20966 20967 1.482
20968 20969 2.021
20969 20970 0.277
20970 20971 0.989
20972 20973 1.465
20973 20974 1.511
20974 20975 1.427
20975 20976 1.601
20976 20977 1.625
20977 20978 1.607
20978 20979 1.654
20979 20985 1.5
20980 20981 0.544
20980 20982 1.548
20982 20983 1.121
20983 20984 0.975
20984 29147 3.885
20985 20986 1.48
20988 20989 1.538
20990 21029 1.941
20991 20992 1.146
20991 20994 0.072
20993 20994 1.577
20993 28226 0.541
20994 20999 2.297
20995 28226 6.821
20996 20997 0.081
20996 20998 0.024
20996 28617 0.19
20997 28617 0.266
20998 28226 0.502
21000 21007 0.229
21001 21002 0.269
21002 21003 0.321
21003 21004 0.267
21004 21012 0.198
21005 21006 0.213
21005 21011 0.426
21006 21007 0.249
21008 21009 0.13
21008 21011 0.046
21008 21012 0.122
21009 21010 0.066
21010 21013 1.015
21014 21015 0.659
21015 21016 0.247
21019 21020 0.097
21019 21022 0.199
21019 21027 0.827
21022 21028 0.632
21024 21025 0.031
21024 21026 0.032
21024 28618 0.59
21025 31719 0.296
21026 21027 0.492
21028 21030 0.969
21029 21030 0.042
21031 26621 0.242
21033 21034 0.093
21034 31709 0.999
21037 31272 0.682
21038 21040 0.99
21042 21043 0.077
21042 21076 0.14
21043 21044 0.242
21043 21051 0.098
21044 21045 0.253
21045 28812 0.193
21046 21047 0.173
21046 28812 0.017
21047 21048 0.255
21048 21049 0.263
21049 21050 0.226
21050 21051 0.274
21052 21053 0.251
21052 21076 0.05
21053 21054 0.192
21054 21055 0.242
21055 21056 0.097
21056 21057 0.066
21056 21058 0.565
21057 21063 0.135
21058 21059 0.087
21058 21065 0.064
21059 21060 0.165
21060 21061 0.187
21061 21062 0.297
21062 21063 0.25
21064 21077 0.051
21065 21066 0.129
21065 21077 0.168
21066 21067 0.18
21067 21068 0.182
21068 21069 0.334
21069 21070 0.136
21070 21071 0.065
21070 21073 0.141
21071 21072 0.234
21072 21078 0.025
21073 21074 0.018
21073 31578 0.305
21074 21075 0.352
21075 21076 0.12
21078 21079 0.135
21078 21081 0.256
21080 26586 0.176
21081 21082 0.097
21082 21083 0.151
21083 21084 0.071
21084 21086 0.461
21084 21096 0.246
21084 26585 0.053
21085 21088 0.132
21085 21090 0.44
21086 21087 0.11
21087 31578 0.117
21088 21089 0.204
21089 21095 0.19
21090 21091 0.233
21091 21092 0.327
21092 21093 0.085
21093 21094 0.181
21094 21095 0.435
21094 21103 0.193
21095 21102 0.184
21096 26586 0.361
21096 26587 0.41
21097 21100 0.263
21097 21101 0.262
21098 21099 0.121
21098 28628 0.093
21099 21100 0.166
21099 21101 0.24
21102 26599 0.122
21103 28627 0.225
21104 26587 0.267
21104 26599 0.115
21107 21108 0.18
21107 21116 0.172
21108 21109 0.145
21109 21111 0.125
21110 32952 0.457
21111 21112 0.044
21111 21113 0.233
21112 32952 0.119
21113 21114 0.182
21114 28785 0.034
21115 21116 0.153
21115 28785 0.225
21117 28228 0.119
21117 32079 0.026
21118 21119 0.152
21118 32079 0.262
21119 21120 0.035
21120 21121 0.063
21120 21211 0.302
21120 21212 0.162
21121 21122 0.157
21122 21123 0.142
21123 32077 0.052
21124 21125 0.229
21124 32077 0.155
21125 32071 0.016
21126 21127 0.152
21126 32071 0.173
21127 21128 0.136
21128 21129 0.167
21129 21130 0.213
21130 32072 0.177
21131 21132 0.183
21131 32078 0.055
21132 32072 0.016
21133 21134 0.244
21134 28919 0.079
21135 21201 0.021
21135 28919 0.096
21136 21167 0.079
21136 21201 0.179
21137 21138 0.146
21137 21167 0.143
21138 21202 0.063
21139 21202 0.145
21139 21204 0.078
21140 21156 0.235
21140 21204 0.162
21141 21143 0.387
21141 32084 0.076
21142 21314 0.115
21142 32084 0.133
21142 32609 0.587
21143 21144 0.144
21144 21145 0.153
21145 21146 0.163
21146 21147 0.13
21147 21148 0.129
21148 21149 0.179
21149 32078 0.278
21150 21151 0.268
21152 21392 0.219
21153 21154 0.244
21154 21155 0.802
21155 28228 0.618
21156 21208 0.045
21157 21195 0.084
21157 21208 0.136
21158 21159 0.217
21158 21180 0.209
21159 21160 0.201
21160 21166 0.158
21161 21166 0.12
21161 28919 0.06
21162 21163 0.057
21162 21164 0.139
21163 21272 0.053
21163 21273 0.086
21164 21165 0.162
21165 21166 0.032
21167 32066 0.057
21168 21169 0.268
21168 32066 0.145
21169 21209 0.194
21170 21209 0.027
21170 32067 0.195
21171 21200 0.036
21171 32067 0.078
21172 21176 0.167
21173 21174 0.104
21173 21176 0.078
21174 21175 0.113
21175 28921 0.159
21176 21177 0.393
21176 21200 0.227
21177 21178 0.028
21177 21181 0.128
21178 21179 0.242
21179 28920 0.191
21180 21181 0.127
21182 21183 0.157
21183 21267 0.143
21184 21185 0.155
21184 21267 0.09
21185 21186 0.102
21186 21274 0.092
21187 21188 0.203
21187 28920 0.044
21188 21313 0.21
21189 21219 0.14
21189 21332 0.203
21190 21191 0.162
21190 21355 0.195
21194 21195 0.112
21194 21198 0.171
21194 21199 0.056
21194 32876 0.11
21195 21196 0.114
21195 32068 0.055
21196 21210 0.25
21197 21198 0.094
21197 21218 0.112
21199 21200 0.279
21201 28229 0.934
21202 21203 0.279
21202 28229 0.115
21203 21204 0.121
21203 21205 0.123
21203 21207 0.451
21205 21206 0.457
21205 28229 0.468
21206 21207 0.177
21206 21211 0.234
21207 21208 0.194
21207 21210 0.281
21208 21209 0.356
21210 21211 0.078
21210 21217 0.093
21212 21215 0.228
21212 21216 0.028
21213 21214 0.1
21214 21215 0.216
21216 32903 0.046
21217 21218 0.019
21218 32903 0.077
21219 28921 0.056
21220 21221 0.253
21220 21229 0.281
21221 21222 0.165
21222 21223 0.23
21223 21224 0.282
21224 21243 0.272
21225 21226 0.15
21225 21228 0.453
21226 21227 0.352
21227 21229 0.049
21227 21230 0.052
21228 21243 0.178
21228 32083 0.156
21231 21232 0.279
21232 21233 0.027
21233 21234 0.119
21233 21240 0.13
21233 28227 0.107
21234 21235 0.459
21235 21236 0.185
21236 21237 0.146
21237 21238 0.195
21238 21239 0.147
21239 21240 0.067
21241 21242 0.17
21241 28227 0.187
21242 28227 0.279
21243 21244 0.037
21244 21245 0.181
21245 21246 0.165
21246 21247 0.036
21247 21248 0.266
21247 21254 0.169
21248 21261 0.13
21249 21250 0.124
21249 21261 0.121
21250 21251 0.066
21251 21252 0.128
21252 21253 0.188
21253 32083 0.241
21254 21255 0.189
21255 21256 0.154
21256 21257 0.142
21257 21258 0.22
21258 21259 0.804
21259 21260 0.315
21259 32062 0.104
21260 28619 0.187
21261 21262 0.156
21262 21263 0.209
21263 21264 0.234
21264 21265 0.162
21265 21268 0.036
21265 32063 0.092
21266 21267 0.428
21266 32063 0.023
21266 32064 0.192
21268 21269 0.137
21269 21270 0.163
21270 21271 0.097
21271 32064 0.126
21271 32065 0.053
21273 21274 0.094
21275 21276 0.064
21275 32065 0.13
21276 21277 0.196
21277 21278 0.34
21279 21280 0.229
21280 28230 0.026
21281 28230 0.288
21281 29486 0.191
21282 21284 0.265
21282 29486 0.099
21283 21284 0.192
21283 21285 0.25
21285 21286 0.198
21286 21287 0.033
21286 28230 0.604
21287 21288 0.099
21288 32070 0.101
21289 21355 0.182
21291 21292 0.217
21292 21345 0.252
21293 21294 0.137
21294 21295 0.149
21295 21296 0.164
21296 21297 0.027
21297 21298 0.047
21297 21306 0.191
21298 21299 0.224
21299 21302 0.263
21300 21301 0.119
21300 21302 0.06
21300 21303 0.114
21301 21347 0.222
21303 21304 0.16
21305 21306 0.23
21307 21308 0.653
21307 21385 0.52
21309 21310 0.208
21310 21312 0.16
21311 21312 0.035
21311 21313 0.238
21312 21335 0.388
21315 32087 0.589
21316 32088 0.335
21316 32089 0.132
21317 32089 0.791
21317 32090 0.419
21318 21319 0.167
21318 32090 0.445
21319 21320 0.096
21320 32091 0.06
21321 21328 0.538
21322 21409 0.168
21322 21410 0.235
21323 21325 0.088
21323 32081 0.396
21323 32082 0.096
21324 21331 0.082
21324 32081 0.091
21325 21326 0.416
21326 21327 0.381
21327 32082 0.24
21328 21329 0.208
21329 21330 0.595
21331 21421 0.717
21332 21333 0.222
21333 21334 0.127
21334 21335 0.061
21336 21337 0.175
21337 21338 0.228
21339 21366 0.162
21340 21341 0.178
21340 21366 0.05
21341 21342 0.178
21343 21346 0.248
21348 21354 0.148
21349 21350 0.111
21350 21351 0.224
21351 21352 0.222
21352 21353 0.213
21353 21354 0.221
21358 32611 0.036
21359 21360 0.172
21359 21361 0.164
21360 21362 0.167
21361 21362 0.248
21362 21363 0.103
21363 21364 0.196
21364 28231 0.119
21365 28231 0.142
21366 21367 0.369
21367 21368 0.056
21367 21369 0.157
21368 21372 0.156
21369 21370 0.32
21370 21371 0.101
21371 21381 0.192
21372 21373 0.174
21374 21376 0.021
21375 21379 0.292
21375 32904 0.031
21376 31587 0.095
21376 32904 0.123
21377 30335 0.075
21378 30335 0.129
21379 21380 0.279
21380 21381 0.246
21382 21383 0.055
21383 32611 0.067
21384 26762 1.034
21384 31587 1.021
21385 21386 0.093
21386 21387 0.091
21387 21388 0.077
21388 21389 0.511
21389 21390 0.701
21389 21391 0.778
21392 21406 0.269
21393 21394 0.146
21393 21407 0.324
21395 21396 0.145
21396 21397 0.277
21397 21398 0.055
21398 21399 0.182
21398 21405 0.103
21399 21400 0.147
21400 21401 0.302
21401 21402 0.187
21402 21403 0.248
21403 21404 0.153
21404 21405 0.179
21406 21407 0.237
21408 21409 0.248
21410 21411 0.233
21412 21413 0.227
21412 32091 0.481
21413 21414 0.371
21414 21415 0.036
21415 21416 0.105
21416 32092 0.435
21417 32092 0.864
21418 21419 0.139
21418 32094 0.611
21419 21420 0.322
21420 21421 0.288
21422 21423 0.79
21422 21507 0.914
21423 21424 0.791
21424 21549 0.879
21425 21426 0.26
21425 21441 0.252
21426 21427 0.25
21427 21434 0.356
21427 28786 0.086
21428 28786 0.031
21428 29487 0.158
21429 21430 0.3
21429 29487 0.119
21430 21431 0.205
21431 21432 0.103
21431 21459 0.117
21432 21460 0.305
21433 21434 0.392
21433 21444 0.508
21434 21435 0.413
21435 21443 0.459
21436 21437 0.251
21436 21442 0.181
21437 21438 0.152
21438 21439 0.141
21439 21440 0.147
21440 21441 0.209
21442 21443 0.388
21444 21445 0.165
21445 32905 0.023
21446 21447 0.046
21446 32905 0.107
21447 21448 0.225
21448 21449 0.159
21449 21450 0.212
21450 28787 0.044
21451 21452 0.039
21451 28787 0.13
21452 21453 0.041
21452 21454 0.221
21453 21455 0.132
21454 32106 0.53
21455 21456 0.152
21456 32906 0.351
21457 21458 0.403
21457 32906 0.093
21459 21462 0.14
21460 32106 0.04
21461 21462 0.177
21463 21464 0.243
21465 21466 0.288
21465 21609 0.269
21466 21467 0.239
21467 21468 0.343
21468 21469 0.191
21469 21470 0.27
21470 21471 0.659
21472 21473 0.299
21474 21475 0.102
21475 21476 0.218
21476 21477 0.228
21477 21478 0.697
21479 21480 0.074
21479 21484 0.121
21479 28926 0.303
21480 21481 0.225
21481 21482 0.174
21482 21483 0.198
21483 21497 0.287
21485 21512 0.501
21486 21488 0.214
21486 28926 0.125
21487 21488 0.264
21487 28925 0.093
21489 21490 0.05
21490 21491 0.043
21490 21492 0.13
21491 28926 0.172
21492 21495 0.162
21493 21494 0.196
21495 21496 0.103
21496 21497 0.102
21498 21499 0.34
21499 21500 0.105
21500 21501 0.278
21501 28925 0.04
21503 21504 0.735
21503 21505 0.328
21504 32094 0.374
21508 21509 0.115
21510 21511 0.16
21512 21513 1.027
21513 21514 0.247
21514 32095 0.889
21515 21516 0.221
21515 21563 0.174
21516 21517 0.197
21517 21518 0.151
21518 21519 0.231
21519 21520 0.054
21520 21521 0.188
21520 21524 0.518
21521 21522 0.287
21522 21523 0.168
21523 21535 0.264
21524 21525 0.351
21525 21526 0.374
21526 21527 0.02
21527 21528 0.474
21527 32101 0.111
21528 21533 0.42
21529 32095 0.478
21530 21531 0.249
21530 21538 0.067
21531 21532 0.16
21532 21533 0.337
21534 21537 0.187
21534 21565 0.261
21536 21537 0.066
21536 28788 0.168
21537 21538 0.212
21539 21540 0.081
21539 21541 0.053
21539 21543 0.154
21540 28788 0.02
21541 21542 0.25
21542 32105 0.084
21543 32105 0.331
21544 21545 0.063
21545 32103 0.214
21545 32104 0.234
21546 32102 0.12
21546 32103 0.288
21547 32096 0.298
21547 32102 0.259
21548 28789 0.019
21548 32100 0.184
21549 21550 0.346
21550 21551 0.266
21551 21552 0.299
21552 21553 0.699
21553 21554 0.037
21554 32093 0.478
21555 32093 0.171
21556 21557 0.225
21556 21571 0.067
21557 21558 0.184
21558 21559 0.181
21559 21560 0.207
21560 21561 0.101
21561 21562 0.049
21561 21572 0.145
21562 21563 0.536
21564 21565 0.162
21566 21567 0.141
21567 21568 0.075
21569 21570 0.459
21570 21571 0.046
21571 21572 0.95
21574 21575 0.251
21574 21589 0.434
21575 32115 0.254
21576 21577 0.181
21576 32115 0.124
21577 21578 0.267
21578 21579 0.323
21579 21580 0.211
21580 21581 0.186
21581 21582 0.353
21582 21583 0.251
21583 21584 0.242
21584 21590 0.075
21584 21595 0.524
21585 21591 0.24
21585 21592 0.23
21585 21593 0.128
21586 21587 0.369
21587 21588 0.369
21590 21591 0.17
21592 21593 0.354
21594 21596 0.213
21596 21597 0.113
21597 21598 0.146
21598 21599 0.236
21599 28460 0.382
21600 21601 0.103
21600 21610 0.029
21600 21611 0.31
21601 21602 0.19
21602 21631 0.223
21603 21631 0.059
21603 32114 0.182
21604 21605 0.06
21604 32114 0.14
21605 21606 0.288
21606 21607 0.267
21607 21608 0.078
21608 21618 0.196
21608 21630 0.404
21609 21610 0.175
21611 21612 0.301
21614 21615 0.294
21614 21629 0.36
21615 21616 0.282
21616 21617 0.223
21619 21620 0.156
21621 21622 0.226
21623 21624 0.203
21624 21625 0.187
21626 21627 0.328
21630 32110 0.163
21631 32113 0.061
21632 21633 0.219
21633 21634 0.215
21634 26773 0.125
21635 21636 0.146
21635 32118 0.29
21636 21637 0.339
21637 21639 0.131
21638 21639 0.058
21638 21650 0.376
21639 21640 0.135
21640 21641 0.2
21641 21642 0.149
21642 26777 0.057
21643 21644 0.499
21643 26777 0.316
21645 21646 0.24
21647 21704 0.63
21648 21649 0.144
21650 21710 0.067
21651 26781 0.67
21652 28928 0.028
21653 26780 0.346
21653 28928 0.436
21654 21682 0.977
21656 21657 0.117
21656 26736 0.223
21657 21658 0.123
21658 21659 0.139
21659 21660 0.242
21660 21661 0.17
21661 21662 0.125
21662 21663 0.082
21663 21666 0.181
21664 21665 0.542
21664 21666 0.088
21664 21667 0.105
21665 21673 0.057
21665 21677 0.571
21667 21668 0.145
21668 21669 0.162
21669 21670 0.279
21670 21674 0.223
21671 21672 0.141
21671 21676 0.234
21672 21673 0.172
21674 21675 0.112
21675 21676 0.169
21677 21678 0.423
21678 21679 0.38
21679 21680 0.165
21681 21682 0.396
21681 32125 0.147
21683 21684 0.26
21683 21685 0.018
21684 21685 0.526
21685 21690 0.8
21686 21694 0.055
21686 21695 0.033
21686 21696 0.044
21686 21697 0.026
21687 21689 0.064
21688 21689 0.312
21688 21697 0.277
21690 21699 0.035
21690 21700 0.034
21691 21692 0.098
21693 21694 0.255
21695 32124 0.088
21696 32125 0.15
21698 21699 0.318
21702 21703 0.633
21702 21709 1.121
21705 21706 0.267
21705 21709 0.066
21707 21708 0.254
21709 21710 1.45
21711 21712 0.704
21712 21714 0.635
21713 21714 0.474
21713 21715 1.798
21716 21736 1.86
21717 21718 0.053
21717 21720 0.098
21717 21760 0.23
21718 21719 0.196
21719 21724 0.226
21720 21721 0.238
21721 21726 0.25
21722 32116 0.154
21722 32117 0.119
21723 21724 0.191
21723 32116 0.096
21725 21726 0.163
21725 21727 0.248
21729 21730 0.215
21730 21731 0.221
21731 21732 0.307
21732 21733 0.201
21733 21734 0.159
21734 21742 0.047
21735 26781 0.256
21736 21739 2.157
21737 21738 1.419
21740 21765 0.029
21740 21766 0.023
21740 21767 0.051
21741 21742 0.433
21741 21749 0.401
21741 21761 0.266
21742 21758 0.296
21743 21744 0.048
21743 21746 0.042
21743 21751 0.252
21744 21756 0.248
21745 21746 0.153
21745 21770 0.182
21746 21748 0.16
21747 21748 0.085
21747 21749 0.304
21748 21767 0.468
21750 21751 0.222
21750 21752 0.079
21752 21753 0.078
21753 21754 0.041
21754 21755 0.108
21754 21757 0.099
21755 21756 0.18
21757 21758 0.071
21759 21760 0.424
21759 21768 0.315
21763 21766 0.662
21764 21765 0.231
21768 21769 0.141
21769 21770 0.246
21771 21778 0.503
21771 28232 0.047
21772 21773 0.334
21772 28232 0.286
21774 21775 0.13
21775 21776 0.35
21776 28232 0.092
21777 21781 0.3
21779 21789 0.558
21780 21781 0.628
21780 21798 1.113
21782 21783 0.684
21782 21788 0.496
21782 21790 0.496
21783 21789 0.067
21784 21785 0.105
21784 21786 1.372
21784 21789 0.211
21785 21786 0.073
21785 28750 0.196
21787 21788 0.572
21787 28750 0.036
21790 21791 0.162
21791 21792 0.199
21792 21793 0.359
21793 21794 0.039
21794 21968 0.416
21794 21984 0.446
21795 21999 5.885
21795 28924 3.982
21796 21797 0.849
21796 21999 0.349
21797 21798 0.442
21799 21800 0.049
21799 28233 0.196
21800 21801 0.08
21800 21844 0.2
21801 21802 0.195
21802 21803 0.065
21802 21815 0.177
21803 21804 0.019
21804 21805 0.137
21804 21808 0.262
21805 21806 0.054
21805 21816 0.031
21806 21807 0.149
21807 21810 0.144
21808 28234 0.026
21809 21810 0.08
21809 21836 0.165
21809 28234 0.039
21810 21811 0.036
21811 21812 0.103
21812 21813 0.232
21813 21843 0.188
21814 21816 0.291
21814 21832 0.241
21815 21817 0.338
21817 21818 0.091
21818 21819 0.275
21818 21821 0.074
21819 21820 0.04
21820 21846 0.118
21820 28923 0.467
21821 21822 0.246
21822 21823 0.31
21823 21824 0.135
21824 21825 0.097
21825 21826 0.033
21826 21827 0.042
21826 21831 0.105
21827 21828 0.207
21828 21829 0.123
21828 28751 0.016
21829 21830 0.173
21830 21831 0.147
21832 21833 0.139
21833 21834 0.246
21834 21835 0.214
21835 28751 0.024
21836 21837 0.236
21837 29489 0.068
21838 21839 0.31
21838 29489 0.104
21839 21840 0.213
21840 21841 0.209
21841 21842 0.161
21842 21843 0.096
21845 21847 0.292
21846 21848 0.143
21847 21848 0.074
21847 21849 0.154
21849 21872 0.333
21850 21852 0.527
21850 26757 0.64
21851 21852 0.144
21851 21860 0.268
21853 21854 0.12
21853 21923 0.017
21854 21855 0.168
21855 21858 0.342
21856 21857 0.295
21856 21858 0.066
21857 21859 0.067
21858 32131 0.19
21859 28233 0.101
21860 21861 0.033
21861 21862 0.23
21862 21863 0.168
21863 21864 0.219
21864 21865 0.218
21865 21866 0.176
21866 21867 0.056
21867 21868 0.042
21867 21885 0.844
21868 21869 0.411
21869 21870 0.135
21870 21871 0.111
21872 26745 0.397
21873 21874 0.313
21873 21875 0.33
21875 21876 0.237
21876 21879 0.149
21877 21878 0.262
21878 21879 0.039
21879 21880 0.037
21879 21884 0.177
21880 21881 0.184
21881 21882 0.312
21882 21883 0.185
21883 21884 0.173
21885 21886 0.285
21886 21887 0.392
21887 21888 0.181
21888 21889 0.231
21890 26718 0.216
21891 21892 0.242
21892 21906 0.355
21893 21906 0.043
21893 21911 0.289
21894 21923 0.019
21895 21896 0.359
21897 21912 0.33
21898 21899 0.14
21898 21900 0.212
21899 21907 0.039
21900 21901 0.201
21901 32132 0.207
21902 21903 0.148
21902 32132 0.141
21903 21904 0.157
21904 21905 0.162
21905 21906 0.123
21907 21908 0.083
21907 21911 0.389
21908 21909 0.152
21909 21910 0.218
21910 21929 0.158
21912 21914 0.448
21913 21927 0.515
21913 21932 0.525
21914 21915 0.054
21914 21930 0.092
21915 21916 0.283
21916 21917 0.308
21917 21918 0.131
21918 21919 0.102
21919 21920 0.349
21920 21921 0.065
21921 21930 1.048
21921 21931 0.456
21922 21923 0.217
21924 21925 0.066
21924 21929 0.048
21925 21926 0.142
21926 21927 0.165
21928 21930 0.148
21931 21934 0.432
21932 21933 0.183
21933 21938 0.352
21935 21936 0.665
21935 28924 0.125
21936 21937 0.197
21937 21944 0.285
21939 21940 0.224
21940 21941 0.387
21941 21956 0.94
21942 21943 0.22
21942 21948 0.204
21943 21944 0.308
21945 21946 0.174
21945 32135 0.373
21946 21947 0.069
21947 21948 0.135
21949 21950 0.049
21949 21951 0.301
21950 28968 0.124
21950 32134 0.173
21951 21952 0.296
21952 32135 0.115
21953 21954 0.116
21953 21958 0.223
21954 21955 0.192
21955 21956 0.069
21957 28968 0.062
21959 21962 0.418
21960 21961 0.223
21961 32137 0.118
21962 32137 0.179
21963 21964 0.614
21964 21965 0.844
21965 21966 1.035
21966 22221 0.666
21967 32133 0.037
21968 28929 0.108
21969 21970 0.075
21969 22011 0.132
21970 21971 0.208
21970 21972 0.341
21971 21983 0.123
21972 21973 0.363
21973 21974 0.238
21974 21975 0.06
21975 21976 0.19
21976 21977 0.22
21977 21978 0.223
21978 21979 0.204
21979 21980 0.073
21979 28929 0.444
21980 21981 0.161
21981 21982 0.385
21982 21983 0.168
21984 21985 0.312
21985 21986 0.322
21986 21991 0.676
21986 21995 0.764
21987 21988 0.215
21987 22020 0.182
21989 21990 0.106
21990 21991 0.196
21990 21992 0.076
21992 21993 0.124
21993 21994 0.159
21994 21995 0.074
21995 21996 0.121
21996 22021 0.21
21997 21998 0.469
21997 21999 0.12
21998 22146 0.859
22000 22001 0.075
22000 22002 0.076
22000 22041 0.695
22000 22052 0.11
22001 22053 0.469
22002 22003 0.109
22003 22004 0.092
22004 22005 0.133
22004 22008 0.662
22005 22006 0.111
22006 22007 0.263
22007 22008 0.184
22008 22009 0.072
22009 22010 0.306
22010 22011 0.186
22011 22054 0.785
22012 22013 0.339
22012 22061 0.315
22013 22014 0.181
22014 22015 0.217
22015 22018 0.141
22015 29490 0.384
22016 22058 0.154
22016 22059 0.181
22016 29490 0.534
22017 22018 0.065
22017 22054 0.228
22019 22020 0.358
22021 22022 0.241
22022 22028 0.084
22023 22028 0.055
22023 22033 0.314
22024 22025 0.334
22024 22032 0.026
22025 32143 0.091
22026 22027 0.134
22026 32143 0.101
22027 22028 0.293
22029 22030 0.147
22029 32145 0.432
22030 22032 0.11
22030 22065 0.409
22031 22068 0.128
22031 32144 0.126
22031 32145 0.114
22031 32146 0.212
22034 22035 0.112
22035 22036 0.066
22036 22037 0.152
22038 22039 0.208
22038 22049 0.264
22039 22040 0.161
22040 22041 0.186
22040 22044 0.292
22041 22042 0.083
22043 22048 0.319
22044 22052 0.388
22045 22128 0.059
22045 22136 0.273
22046 22048 0.167
22047 22048 0.056
22047 22049 0.139
22050 22135 0.066
22050 22136 0.228
22051 22055 0.308
22051 22135 0.071
22053 22054 0.123
22055 22060 0.241
22056 22057 0.169
22056 22060 0.098
22057 22058 0.173
22059 28048 0.209
22060 22061 0.287
22062 22064 0.207
22062 22069 0.054
22063 22069 0.158
22063 29491 0.269
22064 28930 0.072
22065 28930 0.05
22066 22067 0.119
22066 22069 0.213
22070 22071 0.327
22070 22077 0.193
22071 22072 0.332
22073 22076 0.171
22073 29491 0.227
22074 22076 0.033
22074 32616 0.079
22075 22076 0.544
22075 22078 0.268
22075 28930 0.847
22076 22077 0.329
22077 22127 0.065
22078 22087 0.706
22078 28790 0.315
22079 22082 0.38
22079 28292 0.042
22080 22081 0.153
22080 22082 0.029
22081 28790 0.067
22082 22083 0.322
22083 22085 0.269
22083 28288 0.052
22084 22085 0.209
22084 22087 0.038
22086 22087 0.066
22086 28294 0.423
22088 22089 0.178
22088 22126 0.342
22089 28293 0.073
22090 22091 0.084
22090 28293 0.04
22091 22092 0.25
22092 22093 0.191
22093 22094 0.179
22095 22096 0.081
22095 22097 1.306
22095 22125 0.707
22096 22098 0.49
22097 22102 0.164
22097 22103 0.428
22098 22099 0.124
22099 22100 0.078
22100 22101 0.105
22101 22102 0.12
22103 32147 2.328
22104 22105 0.206
22104 22109 0.108
22106 22111 0.641
22106 22113 0.076
22107 22108 0.156
22107 22109 0.019
22108 22114 0.083
22109 22113 0.124
22110 22111 0.052
22110 22115 0.172
22111 22112 0.732
22112 22113 0.26
22112 22114 0.131
22114 22122 0.08
22115 22116 0.329
22116 28296 0.288
22117 22118 0.134
22118 22119 0.185
22118 22120 0.031
22120 22121 0.056
22121 22122 0.054
22123 22124 0.066
22123 22125 0.115
22126 22127 0.136
22128 22129 0.251
22129 22130 0.19
22130 22131 0.206
22131 32138 0.145
22132 22133 0.32
22132 32138 0.266
22133 22134 0.41
22134 22135 0.049
22137 22138 0.286
22137 32139 0.493
22138 22139 1.725
22139 22140 0.039
22140 22146 0.511
22140 29492 0.951
22141 22155 0.398
22141 22172 0.548
22142 22143 0.592
22142 22155 0.247
22144 22145 0.45
22145 32139 0.242
22147 22148 0.04
22147 22149 0.098
22147 28752 1.103
22148 22178 0.2
22149 22150 0.342
22150 22151 0.258
22151 22152 0.172
22152 28753 0.045
22153 22154 0.082
22153 28427 0.249
22154 22175 0.098
22154 22176 0.156
22154 28428 0.193
22155 22156 0.409
22156 22157 0.041
22156 22158 0.255
22157 22162 0.233
22158 28753 0.238
22159 22166 0.111
22159 22167 0.204
22159 22174 0.167
22160 22173 0.06
22160 22174 0.03
22160 22197 0.419
22161 22167 0.318
22161 22168 0.039
22161 28752 0.944
22162 22163 0.047
22163 22164 0.095
22164 22165 0.211
22165 22166 0.268
22168 22169 0.183
22169 22196 0.411
22170 22171 0.188
22170 22180 0.369
22176 22177 0.145
22177 22178 0.096
22179 22180 0.112
22180 22181 0.078
22181 22182 0.269
22182 22183 0.293
22183 22184 0.091
22184 22185 0.442
22184 22187 0.099
22185 22186 0.151
22185 22192 0.027
22186 22193 0.087
22186 22195 0.706
22187 22188 0.277
22188 22189 0.232
22189 22190 0.287
22190 22191 0.143
22191 22192 0.179
22194 22195 0.022
22194 22220 0.172
22195 22196 0.027
22198 22199 0.185
22198 22205 0.437
22199 22200 0.199
22200 22201 0.142
22201 22202 0.247
22202 22203 0.07
22203 22208 0.303
22203 22220 0.305
22204 22206 0.265
22204 28235 0.025
22205 28235 0.065
22206 22207 0.307
22207 22208 0.071
22208 22218 0.168
22209 28236 0.065
22210 28927 0.23
22211 22212 0.288
22211 28236 0.664
22212 22213 0.257
22213 22214 0.085
22214 22215 0.08
22214 22217 0.244
22215 22216 0.245
22215 22218 0.077
22216 22219 0.482
22217 22219 0.55
22221 22222 2.029
22223 22224 0.261
22223 28927 0.126
22224 22229 0.302
22225 22226 0.393
22225 22229 0.268
22225 22232 0.48
22226 22227 0.212
22227 22228 0.558
22228 22230 1.468
22231 22232 1.232
22231 22234 0.944
22233 22234 0.201
22233 32245 0.183
22234 22239 0.203
22235 32907 0.789
22236 22237 0.322
22240 22241 0.382
22240 22243 0.48
22241 22242 0.351
22243 22244 0.306
22244 22245 0.382
22245 22246 0.174
22247 32618 1.147
22248 32246 0.55
22250 22251 0.977
22253 22254 0.558
22254 22255 0.409
22255 22263 0.404
22256 22257 1.244
22257 22258 0.249
22258 22259 4.345
22260 22263 0.521
22261 22262 0.474
22262 22264 0.35
22264 22265 0.721
22265 22266 0.217
22266 22269 0.534
22267 22268 0.212
22268 22269 0.497
22270 22271 0.14
22271 22272 0.438
22272 22295 0.335
22273 32195 0.48
22273 32202 0.167
22274 22299 0.839
22274 32203 0.954
22275 32198 0.39
22275 32206 1.062
22276 32198 0.149
22277 32195 0.34
22278 32197 0.083
22280 22281 0.324
22281 22282 0.414
22282 22283 0.128
22282 22284 0.077
22282 22285 0.076
22283 32239 0.664
22284 32210 0.672
22285 22289 0.781
22286 22287 0.022
22286 22289 0.368
22286 22312 0.698
22287 22288 0.285
22288 22296 0.024
22290 22291 0.072
22290 22299 0.213
22291 22292 0.263
22293 22294 0.435
22294 22295 0.144
22296 22297 0.057
22296 22303 0.165
22297 22298 0.39
22298 22299 0.068
22300 22301 0.045
22300 28444 0.317
22300 28445 0.131
22300 32207 0.066
22301 22302 0.432
22302 32208 0.26
22302 32209 0.136
22303 22304 0.035
22303 28445 0.097
22304 22305 0.418
22305 22306 0.212
22306 22307 0.031
22307 22308 0.049
22307 22310 0.09
22308 28441 0.069
22309 22317 0.072
22309 28441 0.02
22310 32212 0.063
22311 22312 0.124
22311 32212 0.219
22312 22313 0.034
22314 22319 0.173
22314 28444 0.28
22315 22316 0.228
22315 22318 0.149
22316 28239 0.219
22317 22318 0.121
22318 22319 0.017
22319 22320 0.101
22321 28238 0.214
22322 22323 0.267
22323 22324 0.232
22324 22336 0.076
22325 22326 0.326
22325 22336 0.162
22326 22334 0.032
22327 22328 0.252
22327 22330 0.09
22328 22329 0.084
22328 22342 0.298
22329 22332 0.342
22330 22331 0.329
22331 22335 0.349
22332 22333 0.263
22333 22334 0.049
22335 22336 0.067
22337 22342 0.078
22337 22343 0.242
22338 22342 0.17
22339 22340 0.261
22340 22341 0.195
22341 22577 0.168
22343 22344 0.103
22344 22345 0.095
22345 22346 0.087
22346 22347 0.03
22346 28629 0.466
22346 29494 0.455
22347 22576 0.291
22348 22349 0.365
22348 22577 0.659
22349 22350 0.473
22350 22396 0.274
22351 22396 0.052
22351 22423 0.373
22352 22353 0.018
22352 22362 0.272
22353 22354 0.138
22353 22356 0.039
22354 22355 0.091
22354 22357 0.119
22354 22374 0.173
22355 22363 0.275
22356 22424 0.32
22357 22373 0.029
22358 22373 0.171
22358 22380 0.121
22359 22360 0.16
22359 22380 0.059
22360 22404 0.251
22361 22364 0.142
22361 22372 0.14
22361 32153 0.034
22362 32153 0.117
22363 22364 0.081
22364 22365 0.153
22365 22366 0.094
22366 22367 0.242
22367 22368 0.276
22368 22369 0.091
22369 22370 0.227
22370 22371 0.193
22371 22372 0.056
22373 32150 0.078
22374 22375 0.24
22374 32150 0.11
22375 22394 0.048
22376 22377 0.163
22376 32152 0.104
22377 22378 0.032
22377 22381 0.164
22378 22379 0.099
22379 22380 0.045
22381 22397 0.196
22382 22383 0.045
22382 22384 0.032
22382 22391 0.161
22383 22397 0.047
22384 22385 0.18
22385 22386 0.12
22386 22387 0.205
22387 22388 0.198
22388 22389 0.064
22389 22390 0.221
22389 22406 0.39
22390 22399 0.041
22391 28240 0.048
22392 22393 0.434
22392 28240 0.23
22393 22398 0.256
22394 22395 0.412
22394 32152 0.113
22395 22396 0.908
22395 22397 0.965
22399 22400 0.057
22399 32149 0.548
22400 22401 0.14
22400 22402 0.53
22401 22419 0.236
22402 22416 0.328
22402 32148 0.044
22403 22415 0.069
22403 22417 0.048
22403 22418 0.089
22404 22405 0.213
22405 22407 0.22
22406 22407 0.064
22408 22422 0.543
22409 22411 0.37
22409 22414 0.131
22410 22412 0.305
22410 22414 0.266
22411 22413 0.365
22412 28754 0.391
22413 28754 0.038
22414 22417 0.136
22415 22416 0.137
22418 22419 0.218
22420 22421 0.709
22421 22422 0.445
22423 22424 0.127
22425 32156 0.053
22425 32157 0.081
22426 22427 0.086
22426 22428 0.139
22426 22431 0.324
22427 32154 0.236
22429 22431 0.948
22429 22443 0.142
22429 22444 0.05
22430 22433 0.088
22430 22437 0.261
22430 22438 0.291
22431 22456 0.231
22432 22450 0.403
22432 22454 0.021
22432 22455 0.056
22433 22434 0.062
22433 22444 0.199
22434 22435 0.136
22435 22436 0.078
22436 22437 0.05
22437 22456 0.29
22438 22439 0.074
22438 22483 0.417
22439 22440 0.114
22440 22441 0.242
22441 22450 0.314
22442 22443 0.251
22442 22455 0.151
22445 22446 0.053
22445 22449 0.243
22445 32162 0.471
22446 22447 0.181
22447 22448 0.179
22448 22453 0.224
22449 22454 0.379
22450 22451 0.031
22451 22452 0.339
22452 22453 0.208
22457 22459 0.244
22457 22471 0.252
22458 22465 0.055
22458 22471 0.043
22458 22472 0.188
22459 22460 0.089
22460 22461 0.044
22461 22462 0.145
22461 22475 0.433
22462 22463 0.026
22462 22480 0.188
22464 22470 0.097
22464 22484 1.517
22465 22466 0.312
22466 22467 0.172
22467 22468 0.077
22468 22469 0.263
22469 22470 0.19
22472 22473 0.412
22473 22479 0.349
22474 22475 0.023
22474 22476 0.146
22475 29493 0.021
22476 22477 0.083
22477 22478 0.185
22478 22479 0.264
22480 32161 0.188
22481 22482 0.365
22482 22483 0.113
22485 22486 0.059
22485 22489 0.296
22486 22487 0.188
22486 22492 0.879
22487 22488 0.189
22488 22607 0.358
22489 22490 0.38
22490 22492 0.149
22491 22492 0.054
22493 22494 0.174
22493 22498 0.142
22494 22495 0.249
22495 22496 0.044
22496 22497 0.077
22496 22516 0.293
22497 22503 0.36
22498 22507 0.152
22498 28052 0.118
22499 22500 0.053
22499 22571 0.231
22499 28051 0.123
22500 22501 0.333
22501 28629 0.267
22502 22503 0.306
22502 28629 0.11
22504 32234 0.149
22506 32234 0.195
22507 22508 0.319
22509 22510 0.26
22510 22579 0.087
22511 32883 0.074
22512 22549 0.681
22513 22514 0.159
22514 22515 0.159
22515 22536 0.068
22517 22518 0.348
22518 22519 0.253
22519 22520 0.064
22520 22521 0.063
22520 22522 0.189
22521 22544 0.773
22522 28755 0.478
22523 22524 0.066
22523 28755 0.062
22524 22538 0.343
22524 28756 0.338
22525 32238 0.114
22526 22531 0.332
22527 22531 0.024
22527 32224 0.419
22528 22529 0.399
22528 32237 0.23
22531 22532 0.34
22532 22533 0.039
22532 22534 0.155
22533 22535 0.436
22534 28755 0.27
22535 28756 0.04
22536 32224 0.219
22536 32225 0.03
22536 32226 0.116
22537 28756 0.378
22537 32225 0.148
22538 32239 0.311
22539 22540 0.557
22539 22548 0.229
22540 22541 0.061
22540 28440 0.842
22541 22667 1.564
22542 22543 0.124
22542 22544 0.602
22543 28440 0.534
22544 22545 0.043
22545 22546 0.302
22546 22547 0.48
22547 22548 0.039
22549 22550 0.425
22550 32211 0.094
22551 22552 0.083
22551 22566 0.356
22552 22553 0.028
22553 22554 0.09
22554 22555 0.36
22555 22556 0.181
22556 22557 0.254
22557 22558 0.08
22557 32218 0.15
22558 22559 0.208
22559 22560 0.185
22560 22567 0.256
22561 22562 0.067
22561 22565 0.211
22561 22570 0.08
22562 22563 0.168
22563 22564 0.207
22564 32219 0.062
22565 32221 0.056
22566 32221 0.481
22567 22568 0.225
22568 32219 0.212
22569 22570 0.307
22569 22608 0.881
22571 22572 0.183
22572 22573 0.072
22572 29494 1.348
22572 32217 0.208
22573 22574 0.069
22574 22575 0.243
22575 22576 0.066
22577 29494 0.893
22578 32233 0.197
22578 32908 0.194
22579 32231 0.224
22580 22589 0.409
22580 22594 0.226
22580 22595 0.066
22581 22582 0.09
22581 22583 0.131
22581 22593 0.106
22582 22587 0.231
22583 22584 0.255
22584 22585 0.179
22585 22586 0.206
22586 22587 0.038
22587 22588 0.208
22588 32182 0.06
22589 22602 0.067
22589 32182 0.228
22590 22591 0.038
22590 22594 0.185
22591 22592 0.101
22592 22593 0.247
22596 22597 0.204
22597 22598 0.236
22598 22599 0.067
22599 22600 0.437
22602 22603 0.381
22603 32181 0.321
22604 22605 0.093
22605 22606 0.092
22606 22607 0.198
22608 22609 0.119
22609 32178 0.231
22610 22611 1.44
22611 22631 0.404
22612 22627 0.082
22612 22628 0.167
22612 31020 0.387
22613 22616 0.198
22613 32168 0.128
22614 22624 0.273
22614 32165 0.208
22615 32165 0.17
22615 32166 0.092
22616 22617 0.344
22617 32169 0.262
22618 22619 0.038
22618 32163 0.356
22619 22620 0.044
22619 32175 0.297
22621 22625 0.389
22622 22623 0.297
22622 32163 0.314
22623 32164 0.254
22624 32164 0.081
22625 32173 0.125
22626 29495 0.831
22626 29496 0.328
22627 32175 0.676
22628 32176 0.141
22629 22630 0.322
22629 32176 0.251
22635 22636 0.324
22637 22638 0.251
22638 22639 0.139
22639 22659 0.059
22640 22660 0.216
22642 22643 0.039
22645 22646 0.077
22645 32192 0.349
22647 32192 0.076
22648 22649 0.098
22651 22652 0.188
22651 32186 0.054
22652 22653 0.084
22653 22661 0.201
22654 22655 0.376
22655 22656 0.035
22655 32190 0.196
22656 22657 0.257
22657 22658 0.058
22658 32191 0.13
22659 32191 0.071
22660 22662 0.591
22662 22663 0.073
22664 22665 0.636
22665 32197 0.848
22666 28439 0.691
22668 22669 1.501
22670 22671 0.75
22671 32617 0.537
22671 32618 0.457
22672 22673 0.283
22672 22708 0.51
22673 22674 0.184
22674 22675 0.23
22675 22676 0.219
22676 22678 0.142
22677 22678 0.044
22677 22679 0.046
22677 22680 0.048
22679 22688 0.18
22680 22681 0.237
22681 22682 0.278
22682 22683 0.277
22683 22689 0.214
22684 22685 0.114
22684 22686 0.25
22685 26722 0.196
22686 22687 0.027
22686 22689 0.067
22687 22688 0.068
22690 22691 0.127
22690 22699 0.211
22691 22692 0.124
22692 22693 0.144
22693 22694 0.158
22694 22695 0.169
22695 22696 0.144
22696 22697 0.239
22697 22698 0.061
22698 22699 0.126
22698 22712 0.097
22699 22700 0.018
22700 22701 0.053
22701 22714 0.399
22702 22703 0.18
22702 22704 0.195
22702 22710 0.211
22703 22707 0.269
22704 22705 0.4
22705 22711 0.301
22706 22707 0.159
22706 22712 0.277
22708 22709 0.231
22711 22713 0.652
22713 22716 0.793
22714 22715 0.221
22715 26759 0.43
22716 26766 0.302
22717 22718 0.174
22717 26761 0.403
22718 26767 0.191
22720 22721 0.27
22720 27265 0.08
22723 22724 0.133
22725 22726 0.153
22730 22731 0.022
22731 22732 0.101
22731 27269 0.085
22732 27268 0.059
22733 27268 0.036
22734 22735 0.134
22734 28366 0.056
22735 22736 0.112
22735 22740 0.076
22735 28365 0.078
22736 30697 0.031
22737 22739 0.024
22739 22740 0.122
22741 22747 0.182
22742 22767 0.042
22744 22764 0.219
22745 28357 0.034
22746 28357 0.225
22748 32909 0.042
22749 30575 0.157
22749 32909 0.057
22753 26211 0.048
22754 26209 0.087
22755 22756 0.051
22755 31640 0.046
22756 26210 0.026
22758 30430 0.086
22759 26213 0.047
22760 22761 0.084
22760 22770 0.128
22761 22762 0.061
22762 27250 0.086
22763 22764 0.14
22765 28091 0.036
22765 28092 0.028
22765 28093 0.095
22766 22767 0.193
22766 28094 0.019
22768 27257 0.21
22769 27257 0.032
22771 22775 0.051
22772 22773 0.24
22772 22774 0.43
22772 22779 0.027
22773 22780 0.066
22775 22776 0.194
22776 22777 0.158
22777 22778 0.062
22778 22779 0.164
22780 28409 0.269
22781 30567 0.086
22781 30713 0.039
22782 22790 0.092
22782 30567 0.099
22783 26911 0.042
22783 30960 0.15
22784 22789 0.128
22784 30960 0.048
22785 22786 0.202
22785 22789 0.061
22786 22787 0.276
22787 22791 0.08
22788 22791 0.131
22788 30711 0.044
22789 22792 0.022
22790 22798 0.198
22790 26911 0.025
22791 30709 0.489
22792 22793 0.066
22793 30961 0.057
22794 22795 0.072
22794 30961 0.096
22795 22796 0.124
22796 22797 0.129
22797 22798 0.147
22798 30986 0.221
22799 22800 0.1
22799 26906 0.116
22800 22801 0.114
22801 22802 0.274
22802 30714 0.031
22803 22804 0.157
22804 22805 0.138
22805 22812 0.032
22806 22812 0.027
22807 22808 0.06
22807 22812 0.027
22808 22809 0.072
22809 22810 0.128
22813 22827 0.261
22814 22827 0.045
22815 22823 0.039
22816 22817 0.256
22816 22823 0.043
22817 22818 0.353
22818 22819 0.041
22819 22820 0.12
22820 22821 0.068
22821 22822 0.103
22824 22825 0.066
22825 31718 0.301
22826 22827 0.306
22826 31718 0.274
22830 22831 0.216
22830 22832 0.23
22832 22833 0.342
22835 22836 0.232
22836 29398 0.037
22837 28829 0.067
22838 27814 0.134
22838 28829 0.121
22842 27763 0.358
22844 22845 0.203
22844 22846 0.25
22845 28937 0.032
22846 22847 0.146
22847 22848 0.104
22848 27764 0.084
22849 22851 0.076
22850 22856 0.484
22850 22857 0.052
22850 27759 0.24
22851 22856 0.184
22852 22853 0.161
22852 22855 0.04
22853 22856 0.21
22854 22855 0.154
22858 22859 0.131
22860 22867 0.222
22861 22862 0.291
22861 22868 0.135
22862 22863 0.126
22863 22864 0.1
22864 22865 0.053
22865 22866 0.198
22867 22868 0.031
22869 27834 0.172
22870 22871 0.299
22872 22873 0.056
22873 22874 0.105
22874 22875 0.065
22875 22876 0.082
22876 22877 0.141
22877 22878 0.052
22878 22879 0.053
22878 22880 0.13
22879 22881 0.151
22882 22883 0.134
22885 22886 0.23
22886 22887 0.172
22887 22888 0.429
22888 22889 0.177
22889 22890 0.15
22890 22891 0.104
22891 22892 0.089
22892 22893 0.138
22893 22894 0.26
22894 22895 0.085
22895 22927 0.061
22895 22928 0.053
22895 22929 0.046
22896 22897 0.107
22896 22932 0.303
22897 22898 0.138
22898 28134 0.255
22899 22900 0.143
22900 22901 0.063
22900 29439 0.349
22901 22902 0.061
22903 22904 0.206
22905 22906 0.233
22905 28126 0.113
22906 22907 0.219
22910 22911 0.267
22912 22913 0.269
22913 22914 0.208
22915 22916 0.316
22915 28126 0.043
22918 22919 0.146
22919 22920 0.272
22920 29440 0.259
22921 22922 0.217
22921 29440 0.05
22923 22924 0.118
22923 22926 0.171
22924 22925 0.241
22926 22927 0.205
22929 22930 0.198
22934 30434 0.597
22938 22939 0.305
22941 22942 0.61
22941 22945 0.861
22942 22943 0.168
22943 22944 0.373
22944 22947 1.323
22945 22946 0.311
22946 22948 0.588
22947 26848 0.051
22947 26849 0.515
22950 22954 0.856
22952 22953 0.674
22955 22957 0.855
22958 22959 0.323
22961 27778 1.059
22962 27778 0.397
22963 22964 0.472
22963 26854 0.056
22964 22965 0.286
22965 22966 0.408
22966 26853 0.07
22967 22968 0.454
22967 26853 0.287
22969 22970 0.042
22969 22983 0.156
22969 31771 0.087
22970 22971 0.217
22971 22972 0.179
22972 22973 0.149
22973 22974 0.323
22974 22975 0.171
22975 22976 0.364
22976 22977 0.201
22977 22978 0.307
22978 22979 0.114
22979 22980 0.028
22979 31770 0.178
22980 31421 0.077
22982 22984 0.304
22982 22990 0.735
22984 22985 0.257
22985 22986 0.187
22986 22987 0.054
22987 22988 0.235
22988 22992 0.396
22989 22993 0.131
22989 31770 0.169
22990 22991 0.311
22991 22996 0.04
22991 22997 0.056
22992 22993 0.17
22994 22995 0.329
22994 23001 0.19
22995 22996 0.212
22998 22999 0.226
22998 23001 0.204
22999 23000 0.282
23000 27885 0.273
23001 31423 0.193
23002 23003 0.228
23007 23015 1.356
23008 23009 0.096
23008 23011 0.594
23009 23010 0.603
23010 23014 1.595
23011 23012 0.465
23012 23016 1.349
23013 23015 0.306
23013 23016 0.359
23013 31745 0.182
23014 31745 0.543
23018 31383 0.105
23025 23026 0.083
23026 23027 0.118
23027 23028 0.08
23039 32333 0.083
23040 23041 0.167
23040 32333 0.099
23042 23043 0.182
23043 23044 0.125
23044 23045 0.098
23046 23047 0.211
23047 32338 0.036
23048 23118 0.169
23049 23050 0.139
23050 23051 0.172
23053 27116 0.038
23054 27116 0.216
23055 32320 0.118
23057 23058 0.237
23058 30411 0.162
23059 23060 0.244
23060 32332 0.116
23062 23063 0.049
23062 32326 0.291
23063 23064 0.037
23064 32328 0.076
23065 23066 0.171
23065 32328 0.139
23066 23067 0.028
23067 23069 0.263
23067 23110 0.173
23068 23069 0.157
23068 23111 0.118
23068 29007 0.141
23070 23071 0.224
23070 23072 0.29
23072 32326 0.028
23073 23074 0.228
23074 23075 0.156
23075 23076 0.07
23076 23077 0.221
23077 23078 0.37
23078 23079 0.418
23080 23081 0.219
23080 23088 0.026
23081 23082 0.292
23082 23087 0.347
23083 23084 0.166
23083 23085 0.255
23085 23086 0.235
23086 23087 0.299
23089 23091 0.284
23091 23092 0.224
23092 23093 0.246
23093 23101 0.207
23094 23095 0.319
23096 23097 0.107
23097 23106 0.022
23098 23107 0.055
23099 23100 0.228
23102 32910 0.215
23103 32910 0.03
23104 23105 0.153
23104 23107 0.108
23105 23106 0.176
23110 23111 0.126
23112 23113 0.043
23112 23114 0.044
23113 23115 0.141
23115 23116 0.116
23116 23117 0.299
23117 23119 0.164
23118 23119 0.031
23120 23121 0.14
23121 23131 0.533
23123 23124 0.1
23124 27066 0.029
23125 23126 0.151
23126 23127 0.099
23127 23128 0.152
23128 23129 0.104
23129 23130 0.117
23132 23133 0.185
23132 28269 0.094
23133 23134 0.282
23137 23138 0.101
23141 27053 0.275
23142 23143 0.185
23142 27053 0.044
23144 23145 0.171
23146 23147 0.197
23147 27060 0.173
23148 23149 0.287
23148 27060 0.018
23152 23153 0.267
23153 27052 0.236
23154 23155 0.205
23156 25388 0.169
23156 27059 0.121
23157 23158 0.272
23157 27059 0.04
23158 23159 0.038
23159 23160 0.055
23159 23161 0.064
23162 27045 0.177
23163 27064 0.279
23164 25387 0.066
23165 23166 0.172
23165 23172 0.19
23166 23167 0.124
23167 23168 0.029
23168 23169 0.078
23168 23172 0.124
23169 23170 0.123
23170 23171 0.239
23171 23182 0.156
23172 23173 0.062
23173 23174 0.171
23174 23175 0.288
23175 23176 0.197
23176 23177 0.257
23177 23178 0.041
23178 23180 0.15
23179 23185 0.154
23179 23186 0.077
23180 23181 0.144
23181 27023 0.111
23182 23183 0.06
23183 27040 0.165
23184 23185 0.17
23184 27040 0.031
23186 30229 0.047
23187 23188 0.137
23188 23189 0.089
23189 23190 0.237
23191 23192 0.197
23192 23195 0.128
23195 23196 0.109
23196 32911 0.175
23197 23198 0.15
23197 32911 0.078
23198 23199 0.213
23199 23200 0.211
23200 32347 0.271
23201 23202 0.063
23201 23203 0.054
23201 32347 0.142
23202 23211 0.222
23203 23204 0.155
23204 23205 0.332
23205 23206 0.157
23206 23207 0.22
23207 23208 0.245
23208 23209 0.298
23209 23210 0.38
23210 23211 0.185
23213 23214 0.135
23213 23229 0.142
23214 23215 0.1
23215 23216 0.028
23215 23217 0.111
23216 23218 0.161
23217 23221 0.354
23217 23223 0.094
23218 23219 0.124
23219 23220 0.134
23220 23221 0.017
23221 23224 0.133
23222 23223 0.343
23222 23224 0.167
23223 23287 0.204
23225 23226 0.139
23225 29441 0.161
23226 23227 0.175
23227 23228 0.183
23228 23229 0.23
23230 23231 0.207
23231 29441 0.075
23233 23234 0.215
23233 23241 0.166
23234 23235 0.085
23235 23236 0.105
23236 23237 0.02
23236 23238 0.03
23237 28894 0.189
23239 23240 0.065
23239 23242 0.214
23240 23241 0.123
23242 23243 0.103
23243 23253 0.062
23243 28894 0.094
23244 23245 0.136
23244 23293 0.2
23245 23246 0.143
23246 23247 0.125
23247 23248 0.025
23247 23249 0.067
23248 23255 0.132
23249 23250 0.182
23250 23251 0.173
23251 23252 0.083
23252 23253 0.184
23254 28894 0.071
23256 23291 0.085
23258 23259 0.151
23260 23261 0.105
23261 23262 0.15
23262 23263 0.208
23263 23264 0.138
23265 23266 0.027
23265 23267 0.143
23266 23271 0.119
23267 23268 0.116
23268 23269 0.023
23269 23270 0.155
23270 23273 0.236
23271 23272 0.244
23272 23273 0.155
23274 23275 0.11
23274 31621 0.526
23275 23276 0.119
23276 23277 0.095
23277 23278 0.141
23278 23279 0.151
23279 23280 0.093
23280 23281 0.098
23281 23282 0.153
23282 23283 0.256
23283 23284 0.19
23286 23287 0.092
23286 27034 0.072
23288 29190 0.425
23289 23290 0.043
23289 23291 0.235
23290 23292 0.065
23290 28376 0.087
23290 28377 0.094
23294 23295 0.327
23294 23308 0.201
23296 23297 0.212
23297 23298 0.265
23299 23300 0.143
23300 23301 0.273
23301 23302 0.202
23302 23303 0.124
23303 23304 0.217
23304 23305 0.196
23305 23306 0.219
23307 23308 0.184
23307 23309 0.204
23310 23311 0.243
23311 26500 0.459
23312 23313 0.095
23312 23314 0.05
23314 23315 0.299
23315 23318 0.328
23316 23317 0.183
23317 23327 0.222
23318 23319 0.217
23319 23320 0.166
23320 23321 0.183
23321 23323 0.133
23322 23324 0.126
23322 23325 0.123
23322 23326 0.107
23323 23333 0.126
23324 23333 0.128
23325 23332 0.294
23326 23327 0.027
23327 23328 0.169
23328 23329 0.2
23329 23330 0.171
23330 23331 0.334
23331 28757 0.038
23332 28757 0.068
23334 23335 0.146
23334 23341 0.042
23335 23336 0.198
23336 30981 0.14
23337 23338 0.196
23337 30981 0.231
23339 23340 0.245
23340 27212 0.102
23341 23342 0.253
23342 23343 0.097
23343 23344 0.156
23344 23345 0.244
23346 23347 0.037
23347 23348 0.073
23348 29442 0.038
23349 29442 0.089
23351 32731 0.146
23352 32733 0.128
23353 23354 0.299
23353 32733 0.151
23354 23355 0.095
23355 23356 0.256
23355 23369 0.223
23356 23357 0.332
23357 23367 0.162
23358 23359 0.207
23358 23367 0.042
23359 23360 0.166
23360 23361 0.167
23361 23362 0.216
23362 23363 0.203
23363 23366 0.163
23364 23365 0.029
23364 23371 0.084
23365 23366 0.069
23365 23368 0.559
23366 23367 0.193
23368 23369 0.14
23368 23381 0.331
23370 23371 0.153
23370 23376 0.315
23370 23377 0.021
23371 23372 0.201
23372 23373 0.178
23373 23374 0.259
23374 23375 0.187
23375 23376 0.252
23377 23378 0.091
23378 23379 0.172
23379 23380 0.174
23380 23381 0.22
23382 31634 0.134
23383 23384 0.179
23383 25542 0.144
23384 23385 0.098
23386 23387 0.223
23388 23394 0.178
23389 23390 0.143
23390 25532 0.327
23391 23392 0.108
23393 23394 0.335
23395 25537 0.156
23396 23403 0.316
23397 23398 0.203
23398 23399 0.302
23400 23775 0.173
23401 31682 0.082
23402 23404 0.258
23404 23412 0.245
23405 23416 0.409
23406 23407 0.208
23407 23408 0.331
23408 23409 0.308
23410 23411 0.299
23411 23412 0.232
23417 23418 0.215
23419 23420 0.297
23420 31682 0.236
23421 23422 0.155
23423 23424 0.05
23424 23425 0.112
23425 23426 0.096
23426 23427 0.055
23427 23428 0.086
23428 23429 0.05
23429 23430 0.053
23430 23432 0.081
23431 23432 0.019
23431 23434 0.054
23432 23435 0.591
23433 23434 0.098
23433 23440 0.313
23434 31646 0.232
23435 23436 0.062
23435 23437 0.179
23436 23784 0.171
23437 23438 0.218
23438 23439 0.27
23439 23440 0.233
23441 23442 0.193
23442 23443 0.248
23443 23444 0.312
23444 23445 0.221
23445 23446 0.19
23446 23447 0.221
23448 23449 0.107
23449 23450 0.201
23450 23451 0.203
23451 23452 0.178
23452 23453 0.245
23454 23468 0.253
23455 23460 0.059
23455 23461 0.111
23455 23462 0.083
23456 23457 0.079
23456 23461 0.178
23456 23465 0.084
23457 23458 0.179
23458 23459 0.222
23459 23460 0.434
23462 23463 0.104
23463 23464 0.134
23465 23466 0.175
23466 23477 0.176
23468 23469 0.111
23469 23470 0.13
23471 23476 0.583
23473 23474 0.222
23475 23478 0.714
23476 23477 0.043
23479 23480 0.296
23480 23489 0.357
23481 31706 0.088
23482 23483 0.214
23482 23567 0.349
23483 23484 0.284
23486 23487 0.051
23487 23488 0.06
23488 23555 0.364
23490 23491 0.146
23490 31706 0.327
23491 23492 0.543
23492 23498 0.48
23493 23494 0.248
23493 23510 0.208
23494 23495 0.378
23495 23496 0.539
23496 23497 0.247
23499 23500 0.441
23500 23501 0.168
23501 23502 0.242
23502 23503 0.304
23504 23505 0.128
23504 25410 0.472
23505 23506 0.235
23506 23507 0.222
23507 23508 0.37
23508 23509 0.389
23510 23511 0.374
23511 23512 0.27
23512 23513 0.395
23513 23514 0.376
23514 23853 0.267
23515 23547 0.279
23516 23517 0.279
23517 23522 0.556
23518 23519 0.168
23518 23520 0.218
23519 23526 0.27
23520 23521 0.163
23524 23557 0.534
23525 23526 0.233
23527 23528 0.232
23528 23529 0.304
23529 23530 0.279
23531 23532 0.453
23531 23534 0.142
23532 23535 0.242
23533 23534 0.206
23533 23536 0.192
23535 23536 0.115
23536 23537 0.05
23537 23538 0.217
23538 23539 0.046
23539 23540 0.086
23539 23541 0.164
23540 23546 0.084
23541 23542 0.266
23542 23543 0.203
23543 23544 0.221
23544 28758 0.087
23545 23587 0.111
23545 28758 0.169
23549 23587 0.073
23550 23551 0.199
23550 23552 0.208
23551 23605 0.267
23552 23553 0.27
23555 23556 0.264
23556 23557 0.24
23558 23559 0.139
23559 23560 0.141
23560 23561 0.233
23561 23562 0.135
23561 31705 0.512
23562 23568 0.263
23563 23574 0.518
23564 23565 0.26
23565 23566 0.187
23566 23567 0.271
23568 23608 0.205
23569 23570 0.518
23570 23571 0.437
23571 23572 0.584
23572 23573 0.175
23574 23575 0.24
23575 23576 0.325
23577 23578 0.204
23577 28758 0.195
23578 23579 0.296
23579 23580 0.29
23580 23581 0.298
23581 23582 0.267
23582 23583 0.168
23583 29443 0.059
23584 23585 0.403
23584 29443 0.25
23585 23586 0.11
23586 23587 0.24
23586 23604 0.102
23588 23589 0.284
23588 29444 0.202
23589 23680 0.293
23590 23591 0.314
23590 29444 0.188
23591 23592 0.244
23592 23593 0.195
23595 29148 0.173
23596 23598 0.397
23597 23643 0.305
23598 29091 0.229
23599 23600 0.322
23599 29079 0.143
23601 23602 0.417
23602 23603 0.113
23603 23604 0.26
23605 23606 0.303
23607 23614 0.079
23607 23622 0.203
23607 31704 0.359
23608 23609 0.097
23608 31704 0.105
23609 23610 0.136
23610 23611 0.107
23611 23612 0.102
23612 23613 0.091
23613 23616 0.384
23614 23615 0.266
23615 23617 0.33
23616 23617 0.372
23619 23620 0.591
23620 23621 0.31
23621 23622 0.365
23623 23624 0.359
23623 23788 0.822
23624 23625 0.223
23625 23626 0.323
23626 23627 0.368
23627 23628 0.283
23628 23629 0.141
23629 23630 0.231
23631 23651 0.066
23631 23652 0.278
23632 23633 0.076
23632 23639 0.06
23633 23640 0.054
23634 23642 0.119
23634 23643 0.229
23634 23644 0.098
23635 23636 0.268
23635 23662 0.336
23636 23637 0.321
23639 23648 0.179
23640 23641 0.146
23641 23642 0.19
23645 23646 0.181
23646 23647 0.233
23647 23689 0.446
23648 23649 0.225
23649 23650 0.216
23650 23651 0.232
23652 23653 0.214
23653 23654 0.232
23658 23659 0.484
23658 23702 0.418
23660 23661 0.116
23661 23666 0.181
23662 23663 0.063
23663 23664 0.257
23664 23665 0.377
23665 23666 0.333
23667 29445 0.119
23668 23669 0.293
23668 31346 0.074
23671 23672 0.381
23672 23673 0.438
23674 23677 0.16
23677 23678 0.204
23678 23679 0.086
23681 23682 0.19
23683 23684 0.178
23685 23686 0.161
23687 23688 0.182
23688 23689 0.179
23692 23693 0.413
23694 23695 0.209
23695 23696 0.242
23698 23699 0.219
23699 23700 0.382
23705 23706 0.292
23706 23707 0.461
23708 23709 0.109
23709 23710 0.228
23710 23711 0.241
23711 23712 0.059
23712 23713 0.264
23713 23714 0.122
23714 23715 0.078
23716 23724 0.265
23716 23725 0.035
23717 23728 0.034
23717 23729 0.085
23722 23730 0.097
23723 23735 0.346
23725 23726 0.234
23726 23727 0.171
23727 23728 0.22
23729 23730 0.207
23731 23732 0.289
23734 23736 0.066
23736 23737 0.126
23737 31694 0.064
23738 23739 0.171
23738 31694 0.119
23739 23740 0.064
23743 23744 0.308
23744 25618 0.219
23745 23746 0.13
23747 23748 0.237
23747 28791 0.11
23748 23749 0.098
23749 23750 0.311
23750 23751 0.075
23751 30982 0.15
23752 23753 0.325
23752 30982 0.056
23753 23754 0.067
23754 23755 0.174
23754 23758 0.203
23755 23756 0.201
23756 23757 0.257
23757 23763 0.114
23758 23760 0.361
23759 23760 0.082
23759 23761 0.263
23761 23762 0.292
23762 23763 0.12
23764 27463 0.256
23765 27463 0.093
23766 23767 0.146
23767 23768 0.222
23768 23769 0.333
23770 23771 0.209
23770 23781 0.078
23771 23772 0.166
23773 23774 0.104
23774 23775 0.1
23776 25557 0.16
23777 23778 0.242
23778 25497 0.233
23779 23780 0.093
23779 26569 0.233
23780 23781 0.071
23782 23783 0.067
23783 23784 0.051
23785 23786 0.269
23785 25450 0.404
23787 23788 0.496
23789 23790 0.213
23789 25439 0.531
23790 23791 0.507
23791 23792 0.455
23792 23793 0.179
23794 23795 0.276
23795 23796 0.315
23796 23797 0.154
23797 23798 0.532
23798 23799 0.507
23799 23800 0.289
23800 23801 0.499
23802 23803 0.488
23802 29134 3.77
23803 23804 0.224
23804 23805 0.196
23805 23806 0.183
23806 23807 0.301
23807 23808 0.166
23808 25435 0.584
23809 23810 0.53
23810 31676 0.094
23811 23812 0.421
23811 31676 0.248
23812 23813 0.228
23814 23815 0.376
23815 23816 0.418
23816 23817 0.217
23816 23829 1.602
23817 23818 0.327
23818 23819 0.213
23819 25394 0.25
23820 23821 0.069
23820 23830 0.612
23821 23822 0.255
23822 23823 0.242
23823 23824 0.377
23824 23825 0.17
23825 32763 0.029
23826 23827 0.33
23826 32763 0.302
23827 23828 0.166
23828 23829 0.025
23830 23831 0.362
23831 23832 0.331
23832 23833 0.223
23833 23834 0.121
23834 23835 0.202
23835 23836 0.296
23836 23837 0.519
23837 23838 0.395
23838 23839 0.283
23839 23840 0.544
23840 23841 0.135
23841 23842 0.616
23843 29446 0.455
23844 23845 0.573
23845 23846 0.073
23846 23847 0.271
23848 23849 0.238
23848 25434 0.673
23849 23850 0.114
23851 23852 0.2
23851 25400 0.512
23852 23853 0.17
23854 26546 0.253
23855 23856 0.229
23857 23858 0.15
23858 23859 0.164
23859 23860 0.159
23860 23861 0.192
23861 23862 0.111
23863 23864 0.323
23864 23865 0.255
23865 23866 0.19
23866 23867 0.131
23868 23869 0.253
23871 29088 0.259
23872 23874 0.213
23874 23875 0.175
23875 23876 0.194
23876 23877 0.355
23878 23879 0.033
23878 26541 0.048
23879 23880 0.257
23881 23882 0.121
23881 26541 0.025
23882 23883 0.208
23883 25251 0.361
23884 23885 0.153
23884 28871 0.111
23885 23886 0.283
23887 23888 0.092
23888 23889 0.1
23889 23890 0.017
23890 23891 0.104
23890 23893 0.242
23891 23892 0.028
23891 23895 0.103
23892 23894 0.224
23893 23894 0.139
23895 23896 0.24
23896 23897 0.113
23897 23898 0.166
23898 23905 0.252
23899 23900 0.263
23899 23906 0.214
23900 23901 0.267
23901 23902 0.161
23902 23903 0.171
23903 23904 0.132
23904 28871 0.131
23905 23910 0.282
23906 23907 0.255
23907 23908 0.178
23908 23909 0.142
23909 23910 0.094
23911 23912 0.154
23912 28083 0.032
23913 23914 0.105
23913 28083 0.194
23914 28085 0.048
23915 23916 0.121
23915 28085 0.254
23916 23917 0.166
23917 23918 0.168
23918 23919 0.034
23919 27243 0.509
23920 23921 0.247
23921 28759 0.283
23922 23923 0.254
23922 28759 0.038
23923 23924 0.159
23924 23925 0.122
23925 23926 0.13
23926 23927 0.222
23927 23928 0.281
23928 23930 0.036
23929 23930 0.052
23929 23931 0.403
23931 23932 0.238
23932 23933 0.295
23933 23934 0.324
23934 23935 0.18
23935 23936 0.19
23936 23937 0.037
23936 23939 0.106
23937 23938 0.348
23938 23939 0.136
23940 23941 0.326
23941 23942 0.238
23942 23943 0.216
23944 23959 0.08
23945 23950 0.196
23946 23947 0.231
23946 23950 0.136
23947 23948 0.219
23948 23960 0.128
23948 29999 0.665
23949 23950 0.027
23949 24034 0.149
23950 23951 0.099
23951 23952 0.279
23951 23955 0.203
23952 23953 0.193
23953 23954 0.132
23954 23955 0.029
23955 23956 0.053
23956 29447 0.17
23957 23958 0.238
23957 29447 0.025
23958 23959 0.148
23960 23961 0.104
23961 23962 0.104
23962 23963 0.133
23963 23964 0.163
23964 23965 0.157
23965 23966 0.195
23966 23967 0.12
23967 23968 0.193
23968 23969 0.18
23969 23970 0.049
23970 23971 0.04
23971 24011 0.308
23972 24165 0.226
23973 23974 0.131
23974 23975 0.21
23975 23976 0.087
23976 30230 0.092
23977 30230 0.053
23978 23979 0.106
23979 23980 0.148
23980 23992 0.304
23981 26549 0.155
23982 24127 0.287
23984 26549 0.17
23985 23986 0.318
23986 23987 0.121
23987 23988 0.049
23987 23991 0.275
23988 23989 0.278
23989 23990 0.105
23990 23991 0.155
23993 23995 0.235
23996 28876 0.021
23997 23998 0.239
23997 23999 0.368
23998 28072 0.033
23999 24000 0.153
24000 24001 0.054
24000 24002 0.072
24001 24003 0.113
24002 24006 0.123
24003 24004 0.117
24004 24005 0.148
24005 24006 0.141
24007 28071 0.306
24009 24010 0.205
24010 24011 0.202
24012 24019 0.175
24013 24014 0.19
24014 24079 0.178
24015 24016 0.032
24015 24017 0.135
24015 24025 0.276
24016 24024 0.152
24017 24018 0.201
24019 24020 0.039
24020 24021 0.158
24021 24022 0.202
24022 24023 0.054
24023 24024 0.046
24023 28070 0.221
24026 24027 0.176
24026 24042 0.22
24027 24028 0.219
24028 24029 0.17
24029 24030 0.225
24030 24031 0.166
24031 24101 0.035
24032 24101 0.059
24032 24102 0.141
24033 24034 0.191
24033 24102 0.062
24035 24036 0.102
24036 24037 0.062
24037 24038 0.253
24038 24039 0.123
24039 24040 0.22
24040 24041 0.165
24042 24043 0.131
24043 24048 0.304
24044 24045 0.215
24044 24049 0.163
24045 24046 0.232
24046 24047 0.21
24047 24048 0.283
24049 24050 0.255
24050 24051 0.107
24051 24052 0.147
24052 24053 0.134
24053 24058 0.344
24054 24055 0.212
24054 24059 0.348
24055 24056 0.363
24056 24057 0.204
24057 24058 0.167
24060 24061 0.023
24060 24063 0.126
24060 24064 0.203
24061 24062 0.189
24062 24063 0.149
24064 24065 0.24
24065 24066 0.162
24066 24067 0.294
24067 24068 0.214
24068 24069 0.18
24069 24070 0.043
24070 24071 0.08
24070 24072 0.119
24071 24080 0.146
24072 24086 0.185
24073 24074 0.214
24073 24075 0.241
24074 24075 0.35
24075 24091 0.211
24076 24077 0.047
24076 24080 0.097
24076 24081 0.309
24077 24078 0.137
24078 24079 0.248
24081 24082 0.042
24081 24084 0.059
24083 24088 0.246
24084 24085 0.174
24085 24086 0.052
24085 24087 0.309
24087 28792 0.128
24088 28792 0.152
24089 24090 0.217
24089 28792 0.042
24090 24092 0.205
24091 24092 0.189
24093 24097 1.271
24094 24095 0.173
24095 24096 0.295
24097 24098 0.415
24097 28069 1.104
24098 24099 0.41
24099 24100 0.728
24101 24103 0.121
24102 24103 0.242
24104 24105 0.07
24104 24107 0.029
24104 24108 0.303
24105 24106 0.132
24106 24154 0.133
24107 24115 0.184
24108 24109 0.378
24109 24110 0.345
24110 24111 0.189
24111 24112 0.182
24112 24113 0.148
24113 24114 0.158
24114 24115 0.246
24116 24117 0.15
24116 24154 0.022
24117 24153 0.031
24118 24153 0.116
24119 24122 0.114
24120 24121 0.125
24120 24125 0.209
24121 24122 0.14
24123 24124 0.087
24123 24125 0.246
24124 24126 0.084
24126 24127 0.285
24128 24129 0.264
24130 24131 0.247
24131 24132 0.13
24132 24133 0.24
24133 24134 0.164
24134 24135 0.154
24135 24136 0.147
24136 24137 0.192
24137 24138 0.205
24137 24139 0.079
24139 24143 0.228
24140 24141 0.286
24142 29088 0.15
24143 24144 0.073
24144 24145 0.05
24144 24146 0.112
24148 24149 0.209
24149 28888 0.237
24150 24151 0.483
24151 25252 0.013
24152 24153 0.059
24152 24156 0.342
24154 24155 0.503
24155 24158 0.138
24156 24157 0.253
24157 24162 0.314
24158 24159 0.182
24159 24160 0.09
24160 24161 0.107
24161 24162 0.154
24162 24163 0.157
24164 24165 0.047
24164 24166 0.092
24164 24167 0.188
24166 24172 0.301
24168 24169 0.095
24169 24170 0.089
24170 24171 0.252
24171 24173 0.165
24172 24173 0.324
24174 24175 0.071
24174 24182 0.315
24174 24190 0.292
24175 24176 0.246
24176 24177 0.164
24177 24178 0.122
24178 24179 0.213
24179 24180 0.168
24180 24181 0.047
24180 24183 0.041
24181 24182 0.178
24183 24184 0.229
24184 24185 0.144
24185 24186 0.082
24186 24187 0.219
24187 24188 0.251
24188 24189 0.211
24189 25213 0.187
24191 24192 0.165
24192 24193 0.17
24193 24194 0.223
24194 24195 0.112
24195 24196 0.134
24196 24197 0.192
24197 24198 0.171
24199 24200 0.241
24201 24203 0.241
24201 25161 0.047
24202 25161 0.195
24203 24294 0.096
24204 24295 0.065
24205 24306 0.429
24208 24213 0.204
24209 24210 0.118
24209 24213 0.088
24210 24214 0.162
24211 24212 0.38
24212 24213 0.321
24214 24215 0.174
24215 24216 0.067
24216 24217 0.076
24217 24218 0.35
24220 32271 0.165
24221 24222 0.194
24221 32271 0.047
24222 24488 0.261
24223 24224 1.037
24223 25359 1.226
24224 24225 0.195
24225 24226 0.278
24225 24251 0.477
24226 24227 0.327
24227 24237 0.152
24228 24229 0.214
24228 24237 0.051
24232 32655 0.017
24233 32296 0.088
24234 32296 0.175
24235 24236 0.321
24235 32657 0.133
24237 24238 0.044
24238 24239 0.138
24239 24240 0.031
24240 24241 0.211
24241 24242 0.226
24242 24249 0.117
24243 24244 0.239
24243 24249 0.284
24243 24258 0.358
24244 24245 0.055
24244 24253 0.053
24245 24248 0.192
24246 24253 0.051
24247 24256 0.191
24248 24250 0.232
24249 24250 0.048
24251 24252 0.263
24252 24258 0.213
24253 24254 0.158
24254 24255 0.209
24256 24257 0.14
24259 24260 0.056
24259 29000 0.047
24260 24261 0.124
24261 24262 0.237
24262 24263 0.034
24263 24264 0.078
24263 24271 0.06
24264 24265 0.19
24265 24266 0.17
24266 24267 0.038
24267 24268 0.195
24267 24270 0.124
24268 24269 0.28
24269 24270 0.199
24270 24271 0.096
24275 24276 0.129
24279 24478 0.348
24279 31386 0.111
24279 31387 0.125
24280 24288 0.121
24281 24282 0.292
24283 24287 0.059
24284 30212 0.104
24285 24286 0.332
24285 30231 0.028
24286 24452 0.469
24287 24288 0.423
24287 30009 0.14
24287 30231 0.203
24289 24290 0.085
24290 24291 0.152
24291 24292 0.2
24293 24489 0.283
24294 24295 0.021
24294 24300 0.089
24295 24301 0.043
24296 24297 0.169
24296 24302 0.136
24296 29477 1.249
24297 24298 0.231
24298 24299 0.268
24299 24300 0.175
24299 32259 0.021
24302 28762 0.041
24303 24308 0.365
24303 28762 0.338
24304 24305 0.104
24304 24307 0.211
24305 24306 0.205
24306 28762 0.267
24308 28997 0.04
24309 24310 0.031
24309 24311 0.244
24309 28997 0.067
24312 32873 0.056
24314 24502 0.176
24315 24317 0.194
24315 24320 0.053
24315 24375 0.345
24316 24332 0.106
24316 24346 0.054
24316 24390 0.047
24317 24322 0.177
24318 24319 0.102
24318 24321 0.071
24318 24322 0.064
24319 24327 0.048
24320 24334 0.166
24321 24330 0.23
24325 24350 0.25
24326 24337 0.282
24327 24328 0.26
24328 24329 0.166
24329 24360 0.04
24330 24331 0.188
24331 24362 0.279
24332 24333 0.196
24333 24334 0.068
24335 24336 0.216
24335 24473 0.314
24338 24339 0.321
24339 32302 0.049
24340 29023 0.208
24341 29023 0.032
24342 24343 0.261
24343 24344 0.265
24344 24360 0.489
24344 32303 0.133
24345 24346 0.129
24345 24375 0.059
24347 24348 0.199
24347 24365 0.133
24348 24376 0.216
24349 24350 0.174
24349 31984 0.073
24351 24352 0.045
24352 24353 0.061
24352 24354 0.057
24354 24355 0.211
24355 24356 0.193
24356 24357 0.032
24357 24358 0.055
24357 24366 0.111
24358 24367 0.056
24359 24367 0.033
24359 24384 0.236
24360 24361 0.046
24361 24362 0.078
24363 24364 0.186
24363 24365 0.19
24363 24391 0.036
24364 24365 0.323
24366 24372 0.063
24366 31983 0.061
24367 24368 0.104
24367 29497 0.26
24368 29498 0.204
24369 24370 0.17
24369 29498 0.051
24370 24371 0.058
24370 24373 0.077
24371 24372 0.184
24373 24374 0.056
24374 24375 0.079
24376 24377 0.179
24377 24378 0.187
24379 24380 0.19
24380 24381 0.192
24381 24382 0.195
24382 31988 0.066
24383 24385 0.285
24385 31987 0.108
24386 31987 0.023
24387 27621 0.019
24388 27621 0.171
24389 29497 0.152
24392 24393 0.264
24393 24394 0.207
24395 24396 0.197
24396 32004 0.165
24397 24444 0.172
24397 32004 0.102
24398 24399 0.189
24398 24411 0.038
24399 24403 0.286
24400 24401 0.31
24400 24409 0.149
24401 24402 0.057
24402 24404 0.228
24402 24420 0.204
24402 31992 0.655
24403 24404 0.018
24404 24405 0.032
24405 24406 0.135
24406 24407 0.249
24406 32001 0.345
24407 24408 0.206
24409 24410 0.087
24409 24434 0.054
24409 31991 0.131
24410 24411 0.149
24411 24412 0.029
24412 24424 0.181
24413 24414 0.115
24413 24424 0.017
24414 24415 0.181
24415 31995 0.069
24416 24417 0.178
24416 31995 0.069
24417 24418 0.073
24418 24419 0.033
24419 31994 0.087
24421 24422 0.165
24422 32006 0.037
24423 32006 0.061
24424 24425 0.176
24425 24426 0.066
24426 24427 0.037
24426 24430 0.029
24426 24436 0.122
24427 24428 0.241
24428 24429 0.168
24430 24431 0.172
24431 24432 0.161
24433 24434 0.1
24435 24436 0.398
24435 24536 0.265
24437 24438 0.207
24439 32002 0.14
24440 24441 0.209
24441 27623 0.236
24442 27623 0.049
24443 32270 0.17
24445 24458 1.15
24445 24478 0.059
24446 24462 0.075
24446 24463 0.119
24447 24448 0.189
24447 24450 0.041
24448 24449 0.092
24450 24451 0.027
24451 24453 0.182
24453 24454 0.243
24454 24455 0.118
24455 24456 0.063
24456 24457 0.187
24457 24458 0.025
24458 24938 0.068
24459 24460 0.115
24459 24935 0.21
24461 24462 0.303
24464 27625 0.059
24465 24473 0.237
24466 24481 0.426
24466 27625 0.028
24467 24468 0.092
24468 24469 0.156
24469 24470 0.088
24470 24471 0.077
24471 24472 0.107
24475 29000 0.119
24476 30232 0.288
24477 30232 0.12
24479 24480 0.02
24480 24481 0.038
24480 24482 0.088
24482 27626 0.149
24483 24484 0.213
24483 27618 0.034
24484 31986 0.144
24485 31986 0.27
24486 24487 0.225
24486 27606 0.024
24487 27605 0.264
24490 24491 0.144
24490 32013 0.048
24491 24492 0.211
24492 24493 0.22
24493 24494 0.188
24494 24495 0.138
24496 24497 0.159
24497 24498 0.281
24499 24500 0.205
24500 24501 0.253
24501 24502 0.257
24503 24504 0.135
24504 24505 0.134
24505 32016 0.04
24506 24507 0.114
24506 32016 0.082
24508 24509 0.154
24509 24510 0.206
24510 24511 0.26
24512 24520 0.172
24513 24514 0.207
24514 32017 0.038
24515 32017 0.165
24517 28999 0.171
24517 32008 0.068
24518 24519 0.227
24519 24530 0.228
24520 32012 0.091
24521 24522 0.187
24521 32011 0.062
24523 24524 0.041
24523 24525 0.03
24524 24527 0.351
24525 24526 0.076
24527 24528 0.276
24528 24529 0.109
24528 29006 0.066
24530 24531 0.064
24532 24533 0.233
24532 24545 0.446
24534 24535 0.392
24535 24885 0.026
24537 24887 0.049
24538 24878 0.077
24538 29004 0.134
24539 24540 0.16
24539 24878 0.026
24541 24547 0.247
24542 32007 0.161
24543 24544 0.165
24545 24546 0.178
24547 24550 0.186
24548 24549 0.146
24548 24551 0.253
24548 29002 0.046
24549 24562 0.33
24550 29002 0.151
24551 24552 0.039
24552 24553 0.379
24552 24554 0.054
24553 24876 0.036
24553 24877 0.188
24554 24555 0.369
24555 24556 0.02
24556 24557 0.041
24556 24562 0.259
24557 24558 0.261
24558 24559 0.045
24558 24846 0.369
24559 24560 0.07
24559 24561 0.195
24560 32011 0.205
24561 24562 0.1
24563 24564 0.426
24564 24565 0.287
24565 24566 0.237
24568 24569 0.225
24568 24860 0.159
24569 24570 0.314
24571 24574 0.38
24571 28922 0.264
24572 24573 0.692
24572 28922 0.052
24574 24575 0.296
24575 24576 0.14
24576 24580 0.163
24577 24578 0.042
24578 24579 0.104
24578 24591 1.787
24579 28760 0.024
24580 24581 0.203
24581 24582 0.397
24582 24583 0.238
24584 24585 0.206
24584 24586 0.294
24585 24589 0.188
24586 24587 0.199
24587 24588 0.041
24588 24589 0.261
24588 24590 0.34
24590 24591 0.011
24591 24592 0.552
24592 24593 0.36
24594 24599 0.573
24595 24596 0.323
24596 24597 0.475
24597 24611 0.287
24598 24599 0.44
24598 28300 0.317
24600 24601 0.202
24600 24612 0.169
24601 24602 0.04
24602 28299 0.397
24602 28302 0.051
24602 32059 0.134
24603 28309 0.052
24603 32060 0.1
24604 24605 0.338
24604 32059 0.154
24605 24606 0.272
24606 24607 0.111
24607 24608 0.129
24608 24609 0.153
24609 24610 0.13
24610 32060 0.204
24611 24612 0.284
24613 24614 0.207
24613 28304 0.214
24614 24615 0.156
24615 24616 0.18
24616 24617 0.218
24617 24618 0.223
24618 24619 0.073
24619 24620 0.123
24620 24621 0.092
24621 24626 0.187
24622 24625 0.454
24622 24638 0.434
24623 24625 0.176
24624 24626 0.288
24627 24639 0.223
24628 24631 0.148
24629 24630 0.191
24630 24637 0.259
24631 28322 0.054
24632 28322 0.203
24633 24634 0.38
24634 24635 0.131
24635 28316 0.139
24636 24637 0.368
24636 24640 0.179
24638 24639 0.08
24640 24641 0.375
24641 24642 0.249
24642 24643 0.251
24643 24644 0.406
24644 24645 0.233
24645 24646 0.158
24646 24665 0.039
24647 24661 0.277
24647 24665 0.212
24648 24659 0.084
24648 24660 0.096
24649 24650 0.05
24649 24657 0.092
24649 24668 1.463
24650 24651 0.077
24650 24654 0.122
24651 24655 0.198
24652 24653 0.236
24652 24655 0.182
24653 24654 0.172
24656 24658 0.246
24657 24659 0.364
24660 24662 0.424
24662 24663 0.351
24663 24664 0.247
24664 28332 0.219
24665 24666 1.192
24666 29482 1.661
24667 24668 0.089
24668 24683 0.071
24669 32057 0.14
24670 24674 0.359
24670 32057 0.135
24671 24672 0.178
24671 24683 0.236
24672 24673 0.145
24673 24674 0.076
24675 24676 0.183
24676 24677 0.291
24677 29014 0.098
24678 29014 0.207
24679 32048 0.091
24680 32048 0.112
24681 24682 0.242
24684 24685 0.278
24685 24686 0.293
24687 24688 0.224
24688 24742 0.173
24690 24691 0.245
24690 24708 0.444
24692 24693 0.189
24693 24694 0.396
24694 24701 0.208
24695 24696 0.523
24695 24699 0.293
24696 24697 0.183
24697 24698 0.115
24698 24700 0.194
24698 29015 0.158
24699 24700 0.082
24701 24702 0.286
24702 24703 0.229
24704 24705 0.193
24706 24707 0.159
24708 24709 0.267
24709 24710 0.206
24710 24711 0.15
24711 24712 0.16
24712 24713 0.285
24713 24714 0.31
24714 24715 0.362
24717 24729 0.069
24718 24724 0.502
24719 24720 0.316
24721 24722 0.167
24721 24725 0.311
24722 24723 0.279
24723 29499 0.22
24724 29499 0.222
24727 24728 0.18
24728 24729 0.109
24729 24741 0.168
24730 24731 0.081
24730 24736 0.595
24730 24750 0.293
24731 29500 0.141
24732 24733 0.34
24732 29500 0.058
24733 29009 0.165
24734 24735 0.114
24734 24737 0.029
24734 29009 0.031
24735 24736 0.112
24737 24738 0.067
24738 24739 0.22
24739 24740 0.028
24744 24745 0.212
24746 24747 0.174
24747 24748 0.326
24748 24749 0.245
24750 24751 0.252
24752 24753 0.241
24753 24754 0.243
24754 24755 0.257
24756 24771 0.698
24759 24763 0.298
24760 32046 0.654
24761 24762 0.219
24761 32042 0.022
24763 24764 0.28
24764 24765 0.196
24765 24766 0.201
24766 24806 0.23
24767 24768 0.211
24767 24769 0.322
24770 24778 0.101
24773 24774 0.586
24773 32061 0.822
24774 24775 0.523
24775 24819 0.291
24778 24779 0.049
24779 24780 0.046
24780 24781 0.186
24781 24782 0.101
24782 24783 0.24
24783 24784 0.063
24784 24785 0.163
24785 24786 0.409
24788 24789 0.133
24788 32040 0.059
24789 24790 0.349
24789 24795 0.072
24790 24792 0.171
24791 32040 0.109
24792 24793 0.315
24793 24795 0.337
24796 24797 0.128
24797 24798 0.428
24800 24809 0.201
24800 28992 0.025
24801 24802 0.24
24801 24809 0.057
24803 24810 0.484
24804 24805 0.205
24806 24807 0.35
24808 24809 0.192
24810 24811 0.206
24811 24812 0.227
24812 24813 0.283
24813 32025 0.138
24814 24815 0.035
24814 32025 0.14
24815 32027 0.106
24816 32027 0.063
24817 24818 0.467
24820 24821 0.223
24821 24822 0.232
24822 24823 0.161
24823 24825 0.06
24824 24825 0.199
24825 24826 0.191
24826 24827 0.186
24827 24828 0.04
24828 24829 0.325
24828 24830 0.173
24829 24831 0.122
24830 24831 0.292
24832 32034 0.092
24833 28338 0.062
24833 32036 0.32
24834 24835 0.042
24834 24859 0.194
24835 24836 0.061
24835 24838 0.056
24836 24837 0.317
24837 24848 0.24
24838 24839 0.222
24840 24870 0.053
24841 24868 0.056
24842 24845 0.118
24842 24848 1.171
24843 24844 0.216
24844 28917 0.034
24845 24847 0.178
24847 24853 0.098
24848 24849 0.028
24849 24850 0.096
24850 24851 0.045
24851 24852 0.255
24852 24853 0.056
24854 24855 0.253
24855 24856 0.153
24856 24857 0.046
24857 24858 0.077
24857 24859 0.034
24860 24861 0.315
24861 24862 0.216
24862 24872 0.155
24863 32024 0.239
24865 29034 0.251
24866 29034 0.016
24867 24868 0.025
24867 24869 0.167
24869 24870 0.043
24871 24873 0.247
24873 24874 0.196
24875 24877 0.088
24878 24883 0.298
24879 29004 0.031
24879 29005 0.07
24880 24881 0.106
24880 29005 0.12
24881 24882 0.141
24882 24883 0.046
24883 24884 0.075
24884 24885 0.05
24886 27604 0.039
24887 24888 0.119
24890 32012 0.224
24891 24893 0.204
24892 24893 0.014
24892 24897 0.246
24893 24894 0.03
24894 24895 0.232
24895 24896 0.147
24896 24897 0.038
24897 24898 0.054
24898 24899 0.11
24898 32023 0.073
24899 24900 0.24
24900 32020 0.027
24901 24923 0.123
24902 24905 0.161
24904 24913 0.289
24906 24907 0.085
24908 24909 0.297
24909 24910 0.2
24911 24914 0.202
24912 28206 0.017
24914 24960 0.17
24915 24916 0.185
24916 24917 0.203
24917 28916 0.089
24918 24919 0.144
24918 28916 0.069
24920 24921 0.2
24920 25008 0.023
24924 31387 0.096
24925 24926 0.159
24927 24991 0.155
24928 24997 0.182
24929 28918 0.083
24930 24958 0.136
24930 28918 0.078
24931 24958 0.083
24932 24953 0.06
24932 29008 0.088
24933 24934 0.081
24936 24937 0.119
24937 24938 0.085
24939 24940 0.472
24939 28806 0.023
24940 24941 0.164
24940 24945 0.221
24941 24942 0.232
24942 24943 0.118
24942 24944 0.134
24944 24945 0.484
24945 24946 0.228
24946 24947 0.059
24948 24949 0.046
24949 29001 0.036
24950 24951 0.026
24950 29001 0.126
24952 24953 0.033
24952 24957 0.021
24953 29354 0.081
24954 24955 0.061
24954 24957 0.173
24955 24956 0.165
24955 28211 0.098
24956 24957 0.062
24956 24958 0.062
24959 28205 0.13
24959 28209 0.2
24960 24961 0.222
24962 24976 0.166
24963 24964 0.071
24965 24966 0.119
24966 24967 0.161
24967 24968 0.117
24968 24969 0.142
24970 28297 0.021
24971 25003 0.12
24971 28297 0.103
24972 24973 0.225
24972 25003 0.071
24975 24976 0.19
24977 24992 0.163
24978 24979 0.222
24981 25022 0.187
24982 25018 0.052
24983 25020 0.371
24984 24985 0.157
24985 24990 0.383
24986 24987 0.12
24986 25004 0.039
24986 25009 0.263
24987 24988 0.224
24988 24989 0.2
24989 24990 0.174
24991 24992 0.033
24992 24993 0.026
24993 24994 0.121
24994 24995 0.133
24995 24996 0.058
24996 24997 0.146
24997 24998 0.058
24998 24999 0.043
24999 25000 0.217
25001 25002 0.201
25002 25003 0.075
25004 25005 0.159
25005 25006 0.16
25006 25007 0.051
25006 25009 0.127
25007 25008 0.024
25010 25011 0.118
25010 25012 0.073
25010 25021 0.183
25011 25013 0.755
25011 25020 0.484
25012 32291 0.116
25013 25014 0.061
25013 32291 0.065
25014 25015 0.278
25015 28807 0.173
25016 25017 0.241
25016 28807 0.052
25017 25018 0.036
25018 25019 0.114
25019 25020 0.032
25019 25021 0.21
25022 25023 0.145
25022 25025 0.022
25025 32292 0.043
25026 32292 0.219
25027 25045 0.462
25028 25029 0.289
25030 25045 0.106
25031 25032 0.117
25032 25034 0.197
25033 25034 0.174
25033 25035 0.18
25035 25036 0.046
25036 25037 0.04
25036 25042 0.071
25038 25039 0.038
25038 25040 0.072
25039 25041 0.238
25040 25043 0.468
25041 25042 0.178
25043 25044 0.191
25044 25045 0.633
25046 25047 0.24
25046 25053 0.942
25047 25048 0.22
25048 25049 0.262
25049 25050 0.284
25050 25051 0.472
25052 25053 0.351
25052 25054 0.19
25055 25056 0.024
25056 25057 0.441
25056 25060 1.038
25057 25058 0.311
25058 25059 0.265
25059 25060 0.287
25061 25062 0.048
25061 25063 0.276
25062 25073 0.278
25063 25064 0.113
25064 25065 0.086
25065 25066 0.436
25066 25067 0.477
25067 25068 0.345
25068 25069 0.33
25069 25070 0.435
25071 25072 0.257
25074 25075 0.349
25075 25076 0.192
25076 25077 0.233
25077 25078 0.205
25078 25079 0.181
25079 25081 0.093
25080 25081 0.042
25082 25083 0.146
25083 25084 0.138
25084 25085 0.182
25085 25086 0.267
25086 25087 0.243
25088 25089 0.075
25089 32248 0.213
25090 25091 0.117
25091 25102 0.273
25092 25093 0.159
25092 32248 0.093
25093 25094 0.133
25094 29448 0.149
25095 29448 0.085
25096 25097 0.201
25099 25100 0.331
25099 25103 0.206
25101 25102 0.278
25104 25105 0.166
25104 25155 0.11
25104 25156 0.207
25105 25106 0.182
25106 25107 0.192
25107 25108 0.152
25108 25109 0.255
25109 25112 0.214
25110 25111 0.169
25111 25113 0.358
25112 25113 0.391
25114 25115 0.066
25114 25119 0.089
25114 25133 0.077
25115 25134 0.163
25115 25135 0.099
25116 25117 0.174
25116 25119 0.715
25116 25138 0.083
25117 25118 0.258
25117 25140 0.349
25118 25139 0.089
25118 25147 0.224
25119 25136 0.118
25120 25137 0.238
25121 25135 0.198
25122 25123 0.234
25123 25124 0.275
25124 25125 0.148
25125 25126 0.151
25127 25128 0.29
25127 25134 0.232
25129 25153 0.144
25130 25157 0.248
25131 25132 0.174
25132 25133 0.265
25136 25152 0.222
25137 25138 0.271
25139 25143 0.225
25140 25142 0.344
25141 25142 0.328
25141 25146 0.366
25143 25144 0.314
25144 25145 0.256
25145 25146 0.237
25147 25148 0.254
25148 25149 0.276
25149 25150 0.353
25150 25151 0.176
25151 25152 0.218
25154 25155 0.145
25156 25158 0.222
25157 25159 0.329
25160 25168 0.151
25161 32258 0.043
25162 25358 0.283
25163 25164 0.211
25164 32257 0.208
25165 25166 0.171
25165 25167 0.075
25166 25168 0.118
25167 25170 0.344
25167 25177 0.213
25169 25176 0.121
25169 25177 0.039
25170 25171 0.093
25171 25172 0.155
25174 25359 0.713
25175 25176 0.048
25178 25179 1.218
25179 25180 0.136
25181 25182 0.167
25182 25183 0.287
25183 25184 0.154
25184 25185 0.033
25185 25186 0.05
25185 25212 0.291
25186 25187 0.239
25187 25188 0.32
25188 25189 0.314
25189 25190 0.134
25190 25191 0.188
25191 25192 0.118
25192 28763 0.185
25193 25194 0.212
25193 28763 0.182
25194 25195 0.104
25196 25197 0.185
25197 25198 0.097
25198 26407 0.053
25200 32664 0.089
25201 25204 0.156
25202 25203 0.261
25204 25205 0.219
25205 25207 0.342
25206 25207 0.054
25206 26452 0.275
25207 25208 0.521
25208 25209 0.055
25208 26464 0.121
25209 25210 0.42
25210 32665 0.297
25211 25212 0.04
25211 32664 0.329
25211 32665 0.099
25213 25214 0.215
25214 25215 0.32
25215 25216 0.215
25216 25217 0.097
25217 25218 0.168
25218 25219 0.189
25220 25221 0.026
25220 25222 0.238
25221 25243 0.024
25222 25223 0.038
25223 25224 0.131
25223 28893 0.37
25224 25225 0.043
25224 25230 0.199
25225 25244 0.191
25226 25227 0.178
25226 25244 0.164
25227 25228 0.077
25228 25229 0.092
25229 25230 0.21
25230 25231 0.289
25231 25232 0.065
25232 25233 0.115
25233 25234 0.13
25234 25235 0.254
25236 25237 0.042
25236 25238 0.26
25238 25239 0.251
25239 25240 0.033
25240 25241 0.173
25241 25242 0.161
25246 25247 0.169
25247 25248 0.163
25248 25249 0.149
25249 25250 0.15
25250 26503 0.228
25254 32861 0.122
25255 25256 0.052
25255 25257 0.122
25255 25258 0.154
25256 25263 0.209
25258 25259 0.26
25259 25260 0.272
25260 25261 0.162
25262 25264 0.123
25264 25265 0.161
25265 25266 0.276
25267 25268 0.081
25268 25269 0.163
25270 25294 0.249
25270 26515 0.082
25271 25272 0.191
25272 25273 0.202
25272 25285 0.06
25273 25291 0.03
25274 25275 0.119
25274 31623 0.128
25276 25277 0.151
25277 25278 0.116
25278 25279 0.086
25279 25280 0.127
25280 25281 0.148
25281 25283 0.084
25281 28764 0.112
25282 25284 0.174
25282 28764 0.038
25283 32668 0.145
25284 32668 0.125
25285 25286 0.165
25286 25287 0.103
25287 25288 0.024
25288 25289 0.224
25288 25294 0.717
25289 25290 0.017
25290 25292 0.23
25290 25293 0.113
25291 25292 0.146
25294 25295 0.059
25295 25296 0.117
25296 25297 0.255
25297 32766 0.057
25298 25299 0.185
25300 26501 0.14
25301 25302 0.25
25303 26505 0.316
25304 26516 0.046
25305 26516 0.151
25306 26460 0.235
25308 26468 0.199
25309 25310 0.2
25311 25312 0.277
25313 26486 0.196
25314 25315 0.171
25314 26470 0.357
25315 25316 0.267
25317 32662 0.103
25318 25319 0.166
25318 26403 0.263
25319 25320 0.106
25321 25332 0.218
25322 25323 0.268
25322 25332 0.055
25323 25324 0.212
25324 25325 0.306
25325 25326 0.213
25326 25331 0.029
25327 25346 0.456
25327 28254 0.026
25328 25345 0.467
25329 25330 0.163
25329 25331 0.229
25330 28254 0.283
25331 25332 0.184
25333 25334 0.063
25333 25346 0.313
25333 25347 0.056
25334 25335 0.037
25335 25336 0.079
25335 25339 0.056
25335 25353 0.187
25336 25337 0.207
25337 25338 0.193
25338 25347 0.381
25339 25340 0.203
25340 25341 0.194
25341 25342 0.104
25341 25352 0.116
25342 25343 0.283
25343 25344 0.242
25344 25345 0.288
25348 25349 0.21
25350 28255 0.062
25351 25356 0.188
25352 28256 0.157
25353 25354 0.153
25355 25356 0.217
25357 25358 0.323
25360 25361 0.043
25360 25368 0.27
25361 27055 0.148
25362 25363 0.062
25362 25388 0.065
25362 27055 0.084
25363 25364 0.098
25364 25365 0.16
25365 25366 0.21
25366 25367 0.028
25367 25369 0.066
25367 28765 0.049
25368 28765 0.06
25369 25370 0.038
25370 25371 0.061
25370 25372 0.108
25371 25374 0.329
25372 25373 0.189
25373 25393 0.209
25374 25375 0.234
25375 25376 0.15
25376 25377 0.141
25377 25378 0.217
25378 25389 0.319
25379 25380 0.033
25379 25383 0.033
25380 25381 0.024
25381 25382 0.214
25382 25387 0.148
25383 25384 0.113
25384 25385 0.188
25385 25386 0.354
25387 27058 0.154
25389 25390 0.201
25389 25391 0.059
25391 25392 0.3
25392 25393 0.046
25394 25395 0.243
25395 25396 0.321
25396 25397 0.241
25397 25398 0.207
25399 25401 0.449
25401 25413 1.079
25402 25403 0.258
25403 25404 0.511
25404 25405 0.463
25405 25406 0.135
25406 25407 0.42
25407 25423 0.056
25408 25409 0.307
25408 25423 0.234
25411 25412 0.318
25412 25413 0.195
25414 25415 0.303
25414 25423 0.643
25415 25416 0.571
25416 25417 0.583
25417 25418 0.309
25418 25419 0.066
25419 25420 0.226
25420 25421 0.269
25420 25422 0.31
25424 25425 0.239
25426 25427 0.235
25427 25428 0.444
25428 25429 0.176
25429 25430 0.41
25430 25431 0.166
25431 25432 0.096
25432 31699 0.608
25433 25434 0.432
25433 31699 0.031
25435 25436 0.239
25436 25437 0.252
25437 31701 0.053
25438 25439 0.204
25438 31701 0.526
25440 25441 0.399
25440 28138 1.729
25441 25442 0.811
25442 25443 0.035
25443 25444 0.056
25445 25446 0.267
25446 25447 0.297
25447 25448 0.56
25448 25449 0.18
25449 25450 0.281
25451 25452 0.021
25451 25453 0.056
25451 25459 0.17
25452 25460 0.521
25453 25454 0.302
25454 25455 0.256
25456 25457 0.32
25458 25459 0.197
25461 29445 0.229
25462 31322 0.25
25462 31324 0.129
25463 31324 0.097
25463 31474 0.251
25464 25466 0.861
25464 31473 0.173
25464 31474 0.051
25465 31471 0.121
25465 31472 0.201
25466 25475 0.696
25467 25468 0.589
25467 31327 0.477
25469 25471 0.215
25469 28836 0.126
25471 25477 0.095
25472 25473 0.149
25472 25475 0.613
25472 31501 0.087
25473 31475 0.082
25474 31475 0.204
25474 31476 0.238
25474 31477 0.117
25476 25481 0.109
25476 25482 0.089
25476 31476 0.14
25477 25478 0.11
25477 31502 0.076
25478 25479 0.341
25479 25480 0.341
25480 25481 0.232
25482 25489 0.149
25483 25484 0.295
25486 25487 0.129
25487 31499 0.05
25488 25489 0.277
25488 31505 0.355
25490 25491 0.216
25491 25492 0.19
25494 25495 0.177
25494 27476 0.241
25495 25496 0.037
25496 25497 0.043
25496 25498 0.085
25498 25499 0.219
25499 25500 0.187
25500 25501 0.191
25501 25502 0.107
25502 25503 0.064
25503 25504 0.13
25504 25576 0.064
25505 25575 0.141
25506 25572 0.267
25507 25508 0.269
25508 25511 0.257
25509 25510 0.239
25509 25557 0.131
25510 25511 0.196
25512 25513 0.239
25513 25514 0.103
25514 25515 0.111
25515 25516 0.082
25516 25517 0.182
25517 25518 0.232
25518 25519 0.178
25519 25520 0.196
25520 25521 0.032
25521 25522 0.091
25522 25523 0.077
25523 25524 0.201
25524 25528 0.094
25525 25526 0.232
25525 25527 0.129
25527 25528 0.061
25527 25529 0.114
25533 25534 0.193
25535 25536 0.119
25536 25537 0.115
25536 25538 0.216
25538 25539 0.064
25540 25541 0.114
25541 31645 0.113
25544 25545 0.304
25545 27242 0.234
25546 25571 0.153
25546 29449 0.237
25547 25571 0.104
25548 25549 0.185
25548 25577 0.189
25549 25550 0.079
25550 25551 0.12
25552 25553 0.089
25554 25555 0.205
25554 25556 0.127
25555 29449 0.101
25556 25572 0.236
25558 25559 0.182
25559 25560 0.151
25560 25561 0.164
25561 25562 0.317
25562 25563 0.284
25563 25564 0.134
25565 25566 0.147
25565 25570 0.228
25566 25567 0.124
25567 25568 0.241
25568 25569 0.206
25569 25570 0.1
25570 25571 0.181
25573 25574 0.061
25573 27478 0.259
25574 25575 0.136
25574 25576 0.131
25575 25576 0.075
25578 25582 0.044
25578 27119 0.165
25579 28402 2.718
25580 25589 0.077
25580 27119 0.068
25581 25582 0.02
25581 25604 0.837
25582 25583 0.102
25583 25584 0.041
25584 25585 0.105
25584 25586 0.135
25585 25587 0.406
25586 25588 0.302
25587 25588 0.123
25589 25590 0.149
25590 29450 0.166
25591 25592 0.095
25591 29450 0.055
25592 25593 0.174
25592 25596 0.098
25593 25595 0.196
25594 25595 0.125
25594 25596 0.272
25598 25617 0.249
25599 25600 0.22
25600 25601 0.149
25602 25603 0.199
25603 31641 0.258
25606 25618 0.324
25608 25609 0.176
25609 25610 0.191
25610 29451 0.165
25611 25612 0.056
25612 25613 0.164
25613 29451 0.123
25614 25615 0.313
25615 25616 0.095
25616 29452 0.157
25617 29452 0.06
25619 25620 0.235
25619 32794 0.705
25621 25622 0.215
25622 25623 1.371
25623 25648 1.983
25624 25625 0.19
25624 25630 0.564
25625 25626 0.124
25626 25627 0.213
25627 25628 0.193
25628 25629 0.662
25630 25631 0.413
25631 25632 0.15
25631 25637 0.251
25632 25650 0.035
25632 28766 0.042
25632 28987 0.28
25633 25634 0.05
25633 32914 0.869
25634 25646 0.203
25634 28988 0.483
25635 25640 0.368
25635 25642 0.233
25635 28261 0.712
25636 25638 0.07
25636 25639 0.273
25636 25641 0.764
25637 25638 0.388
25639 28260 0.098
25640 28260 0.031
25641 28261 0.249
25642 25643 0.2
25643 25649 0.294
25644 25645 0.081
25645 25646 0.189
25647 32619 0.392
25647 32914 0.102
25648 32619 0.529
25650 25651 0.323
25651 25652 0.195
25652 25653 1.032
25653 25654 0.074
25654 25656 0.841
25654 25659 1.501
25655 25657 0.079
25655 25658 0.048
25656 25657 0.614
25657 25658 0.568
25659 29453 1.266
25660 25661 0.197
25660 28986 0.146
25661 25662 1.114
25662 25663 1.869
25664 25665 0.148
25664 25666 0.096
25664 28262 0.488
25665 25667 0.493
25666 25772 0.432
25667 25668 0.075
25668 25677 0.656
25668 28262 0.328
25669 25670 0.453
25669 25676 0.094
25669 25678 0.397
25670 25671 0.217
25671 25672 0.197
25672 25673 0.322
25673 25674 0.189
25674 25675 0.319
25675 28799 0.024
25676 25681 0.78
25677 25680 0.778
25678 25679 0.421
25679 25771 0.337
25681 25682 0.233
25682 27664 0.382
25683 25684 0.135
25684 27293 0.12
25685 27432 0.126
25686 25687 0.072
25686 28391 0.058
25687 25688 0.167
25688 27333 0.031
25689 25690 0.185
25689 25695 0.057
25690 25691 0.136
25691 25692 0.177
25692 25693 0.228
25693 25694 0.069
25694 27338 0.038
25694 30412 0.127
25695 27355 0.047
25695 27356 0.035
25696 25701 0.293
25696 28800 0.06
25697 25698 0.127
25697 28800 0.158
25698 25706 0.079
25699 25700 0.198
25699 28800 0.147
25700 25702 0.169
25701 25705 0.184
25702 25703 0.144
25703 25704 0.127
25704 25705 0.24
25707 25708 0.259
25707 25715 0.23
25708 25709 0.087
25709 25710 0.096
25709 25713 0.086
25710 25711 0.153
25711 25720 0.217
25712 25720 0.07
25712 25731 0.315
25713 25714 0.214
25714 25716 0.262
25715 25717 0.372
25716 25718 0.074
25717 25718 0.024
25718 25719 0.028
25719 25735 0.176
25720 25721 0.362
25721 25722 0.17
25723 25724 0.171
25723 25734 0.265
25724 25725 0.353
25725 25726 0.05
25726 25727 0.026
25726 25730 0.107
25727 25728 0.134
25728 25729 0.172
25729 25731 0.227
25730 25732 0.281
25732 25733 0.265
25735 25736 0.164
25736 29454 0.075
25737 29454 0.177
25738 25739 0.041
25738 25743 0.086
25739 25740 0.141
25739 25741 0.205
25742 25743 0.251
25742 25744 0.157
25743 25751 0.22
25744 25745 0.052
25744 25760 0.381
25745 25746 0.023
25745 25760 0.351
25746 25747 0.253
25747 25748 0.026
25748 25749 0.096
25748 25753 0.254
25749 25750 0.042
25749 25752 0.215
25750 25751 0.116
25752 25756 0.214
25753 25754 0.191
25754 25755 0.044
25754 25757 0.025
25755 25756 0.054
25755 25758 0.159
25757 25759 0.141
25758 25759 0.457
25761 25763 0.355
25762 25765 0.414
25763 28384 0.217
25764 27921 0.091
25764 28384 0.065
25765 27921 0.054
25766 25767 0.077
25766 27706 0.157
25768 25769 0.386
25768 25771 0.488
25769 25770 0.193
25770 28799 0.225
25771 27711 0.185
25772 32915 0.192
25773 25774 0.381
25773 32632 0.206
25774 25775 0.327
25775 25776 0.486
25776 25777 0.195
25777 28060 0.172
25777 32635 0.638
25778 28061 0.091
25779 25780 0.773
25779 27710 0.914
25781 25782 0.327
25782 25783 0.246
25783 28951 0.07
25784 25785 0.251
25784 28951 0.763
25785 25786 0.243
25786 25787 0.337
25788 25789 0.491
25789 25790 0.252
25790 27156 0.512
25791 25792 0.857
25791 27725 0.171
25792 28063 0.568
25793 28063 0.266
25793 28064 0.442
25794 28064 0.338
25794 28982 0.399
25795 25796 0.722
25795 28982 0.291
25796 25797 0.847
25797 25798 0.779
25798 25799 0.423
25799 25800 0.517
25800 25801 0.304
25801 25802 0.23
25802 25803 0.157
25803 25804 0.454
25804 25805 0.291
25805 25806 0.083
25807 25808 0.229
25807 25827 0.409
25809 25810 0.518
25810 25811 0.454
25811 25812 0.211
25812 32644 0.146
25813 25814 0.144
25813 25815 0.359
25814 25815 0.162
25814 25816 0.13
25816 25817 0.274
25817 28813 0.181
25818 25819 0.292
25818 28813 0.046
25819 25820 0.216
25820 27194 0.284
25821 25822 0.36
25821 25838 0.04
25822 25823 0.261
25823 25824 0.262
25824 25825 0.115
25825 25826 0.199
25826 25827 0.377
25828 25829 0.334
25829 25830 0.021
25829 25846 0.209
25830 25838 0.121
25831 25841 0.329
25832 25833 0.507
25832 25834 0.369
25833 25834 0.18
25834 25835 0.058
25835 25836 0.167
25836 25837 0.046
25837 25838 0.15
25837 32640 0.226
25839 25840 0.386
25839 32640 0.4
25840 25841 0.039
25841 26242 1.142
25842 25843 0.169
25842 29455 0.087
25843 25844 0.06
25844 25845 0.06
25844 25847 0.445
25848 25849 0.3
25849 25850 0.242
25850 25851 0.15
25851 25852 0.128
25851 25854 0.108
25852 25853 0.195
25853 25857 0.409
25854 25855 0.221
25855 25856 0.339
25856 25859 0.292
25857 25858 0.224
25859 25860 0.136
25860 25861 0.177
25861 25862 0.52
25863 25864 0.21
25864 25870 0.271
25865 25866 0.275
25865 25871 0.036
25865 25872 1.165
25866 25867 0.245
25867 25868 0.412
25868 25869 0.218
25869 25872 0.178
25870 25871 0.177
25872 25873 0.49
25873 26059 0.513
25874 27188 0.349
25875 25876 0.485
25875 27188 0.922
25876 25877 0.476
25878 25879 0.481
25878 27192 0.296
25879 27189 0.252
25881 25882 0.309
25882 25883 0.311
25883 25884 0.137
25884 26091 0.132
25885 25886 0.184
25885 26094 0.348
25886 27193 0.525
25887 25888 0.211
25887 25911 0.306
25888 25889 0.275
25889 25890 0.172
25891 25892 0.167
25892 25893 0.185
25894 25895 0.096
25894 25899 0.294
25895 25896 0.069
25895 25897 0.213
25896 25903 0.157
25897 25898 0.058
25898 25900 0.094
25898 25902 0.14
25899 25900 0.02
25900 25901 0.106
25901 25902 0.172
25903 25904 0.25
25904 25905 0.141
25905 25906 0.14
25906 25907 0.129
25907 25908 0.118
25908 25909 0.123
25909 25910 0.131
25911 25912 0.241
25913 25914 0.252
25913 28767 0.018
25914 25915 0.187
25915 25916 0.217
25916 25917 0.218
25917 25918 0.215
25919 25920 0.187
25920 25934 0.254
25921 26000 0.437
25921 32476 0.317
25922 25923 0.224
25922 25926 0.223
25923 25924 0.044
25924 25925 0.069
25924 25933 0.218
25925 25926 0.127
25927 25928 0.137
25927 25939 0.315
25928 25929 0.191
25929 25930 0.17
25930 25931 0.2
25931 25932 0.036
25931 28767 0.284
25932 25933 0.42
25934 25935 0.043
25934 28767 0.487
25935 25936 0.124
25936 25938 0.152
25937 25938 0.066
25937 25939 0.259
25938 29092 2.371
25940 25974 0.514
25940 28815 0.082
25941 26011 0.064
25941 32488 0.064
25942 32486 0.031
25942 32488 0.134
25943 25944 0.058
25944 25945 0.517
25944 25950 0.346
25945 25946 0.053
25945 25947 0.172
25947 25948 0.16
25948 26002 0.111
25949 25950 0.067
25949 25951 0.107
25950 32486 0.183
25951 25952 0.129
25952 25953 0.155
25953 25954 0.177
25954 25955 0.209
25955 25969 0.331
25956 25957 0.148
25956 25966 0.222
25957 25958 0.18
25958 25959 0.104
25959 25960 0.039
25960 25961 0.122
25960 25966 0.351
25961 28801 0.158
25962 25963 0.428
25962 25969 0.348
25962 28801 0.437
25963 25964 0.292
25964 25965 0.266
25965 25966 0.038
25967 25968 0.204
25967 28801 0.239
25970 25971 0.201
25970 25990 0.046
25970 25999 0.032
25970 26000 0.025
25971 32639 0.057
25972 25973 0.223
25972 32639 0.136
25973 32484 0.08
25974 32484 0.083
25974 32485 0.21
25975 25976 0.048
25975 25984 0.065
25975 25988 0.243
25976 25977 0.027
25977 25978 0.134
25977 25983 0.178
25978 25979 0.202
25979 25980 0.125
25980 25982 0.203
25980 26003 0.031
25981 25982 0.091
25981 28768 0.105
25982 25983 0.131
25984 25985 0.164
25985 25986 0.263
25986 25987 0.119
25987 25988 0.241
25989 25990 0.242
25989 25994 0.218
25991 25992 0.103
25991 28814 0.047
25992 25993 0.2
25993 28768 0.092
25994 26003 0.03
25994 28768 0.118
25995 25996 0.072
25995 25998 0.208
25996 25997 0.141
25996 28768 0.109
25997 26002 0.202
25999 28814 0.203
26004 26005 0.124
26004 26010 0.037
26004 32490 0.051
26005 26006 0.032
26005 26007 0.161
26006 28815 0.096
26007 29456 0.098
26008 26009 0.112
26008 26010 0.175
26009 26014 0.172
26011 28815 0.17
26011 32489 0.057
26012 26013 0.157
26012 29456 0.123
26013 26014 0.169
26013 26015 0.128
26016 26019 0.117
26016 26021 0.028
26017 26018 0.16
26017 26021 0.102
26019 26022 0.12
26020 26021 0.294
26020 26022 0.021
26023 26024 0.564
26023 26060 0.543
26024 26054 1.309
26025 26026 0.057
26025 26029 0.08
26025 30233 0.187
26026 26027 0.08
26027 26028 0.021
26028 28817 0.088
26029 26030 0.093
26030 26031 0.083
26033 26034 0.057
26035 30233 0.173
26037 30073 0.119
26039 26040 0.102
26041 26042 0.786
26043 26044 0.078
26045 26046 0.83
26045 26047 0.038
26047 26049 0.113
26048 26049 0.115
26048 26058 0.271
26049 26051 0.046
26050 26051 0.14
26050 26052 0.336
26052 26053 0.301
26053 26054 0.143
26054 26055 0.171
26055 26056 0.029
26055 26057 0.186
26057 26058 0.198
26060 26061 1.016
26061 27186 0.179
26062 26063 0.012
26063 26064 0.044
26064 28981 0.073
26065 28803 0.268
26065 28981 0.02
26066 26067 0.022
26066 28803 0.074
26067 26068 0.257
26067 26070 0.407
26068 26069 0.066
26069 26073 0.252
26070 26071 0.381
26071 32494 0.095
26072 26079 0.201
26072 32494 0.205
26073 26074 0.208
26074 26075 0.222
26075 26076 0.65
26076 28976 0.056
26077 26078 0.338
26077 28977 0.099
26078 32493 0.396
26081 28353 0.055
26082 26083 0.194
26084 32496 0.102
26085 32496 0.067
26086 26087 0.138
26086 26092 0.373
26087 26088 0.152
26088 26089 0.101
26089 26090 0.136
26090 26091 0.041
26092 28264 0.094
26093 26094 0.14
26093 28263 0.112
26095 26096 0.133
26096 26097 0.105
26097 26098 0.184
26098 26099 0.189
26100 26101 0.103
26101 26102 0.13
26102 26103 0.107
26104 26105 0.132
26105 26106 0.127
26106 26107 0.154
26109 26110 0.064
26111 26112 0.167
26113 26114 0.365
26113 32783 0.216
26115 26116 0.055
26115 26122 0.373
26116 26117 0.084
26117 26118 0.057
26118 26119 0.141
26119 26120 0.24
26120 26121 0.079
26121 26123 0.044
26121 26124 0.025
26126 26127 0.061
26126 26128 0.067
26128 26129 0.024
26133 26134 0.024
26133 26135 0.041
26133 28909 0.277
26134 26137 0.044
26136 26151 0.125
26137 26138 0.14
26138 26139 0.068
26139 26155 0.118
26140 26141 0.026
26140 26142 0.14
26141 26144 0.237
26141 26155 0.035
26142 26149 0.185
26143 26144 0.034
26143 26148 0.027
26143 26150 0.171
26144 26145 0.023
26145 26146 0.109
26146 26147 0.085
26148 26149 0.097
26151 26153 0.303
26154 28145 0.047
26158 26159 0.031
26158 26170 0.211
26158 31844 0.326
26159 26160 0.156
26160 26161 0.024
26160 26162 0.144
26161 26165 0.164
26162 26164 0.119
26163 26164 0.04
26163 26167 0.188
26165 26166 0.219
26166 26174 0.146
26167 26168 0.252
26168 26169 0.049
26169 27381 0.452
26171 30410 0.094
26173 27367 0.049
26173 27385 0.393
26174 28395 0.038
26175 26176 0.059
26175 26196 0.117
26176 26177 0.112
26177 26298 0.273
26178 26179 0.164
26179 26196 0.06
26180 26181 0.361
26180 26207 0.229
26181 26298 0.02
26182 26183 0.036
26182 26194 0.317
26183 26184 0.193
26184 26185 0.044
26185 26186 0.037
26186 26191 0.238
26187 26188 0.209
26188 26189 0.038
26189 26190 0.119
26190 26191 0.026
26190 26192 0.209
26192 26193 0.043
26193 26194 0.04
26193 26195 0.049
26196 26197 0.184
26197 26198 0.239
26198 26199 0.049
26199 26200 0.091
26199 28345 0.391
26201 26309 0.031
26202 26309 0.035
26203 26204 0.161
26203 26206 0.074
26204 26205 0.179
26206 26207 0.068
26208 26297 0.045
26209 26210 0.114
26210 26220 0.096
26211 26212 0.279
26211 26218 0.047
26212 26215 0.133
26213 26214 0.173
26213 26215 0.165
26216 26217 0.044
26218 26219 0.039
26219 26220 0.101
26221 26222 0.312
26222 26223 0.136
26223 26224 0.04
26223 26227 0.13
26224 26225 0.056
26225 32652 0.135
26225 32653 0.05
26226 26227 0.183
26227 30956 0.454
26229 26230 0.347
26230 30505 0.114
26231 26930 0.112
26231 30505 0.082
26232 32599 0.086
26233 26240 0.027
26234 26241 0.053
26235 26236 0.259
26238 26241 0.35
26239 26241 0.144
26239 30342 0.245
26240 30342 0.105
26242 26243 0.134
26242 26255 0.284
26243 26244 0.205
26244 26245 0.157
26245 26252 0.196
26245 26259 0.117
26246 26247 0.054
26246 26251 0.229
26246 26258 0.211
26247 26248 0.463
26248 26249 0.407
26249 26250 0.343
26251 26252 0.187
26252 26256 0.427
26253 26255 0.232
26253 26296 0.153
26254 26256 0.376
26254 26263 0.071
26257 26258 0.198
26257 26262 0.412
26259 26260 0.187
26260 26261 0.102
26261 29455 0.093
26262 26263 0.191
26264 26265 0.217
26264 26271 0.175
26265 26280 0.384
26266 26267 0.224
26266 26278 0.05
26267 26269 0.046
26267 28769 0.091
26268 26277 0.219
26268 28769 0.044
26269 26273 0.256
26270 26271 0.135
26270 28769 0.235
26271 26272 0.033
26272 26273 0.033
26273 26274 0.072
26274 26275 0.208
26275 26294 0.125
26276 26277 0.047
26276 26279 0.084
26277 26278 0.107
26278 26279 0.178
26280 28770 0.262
26281 26282 0.06
26281 28770 0.039
26282 26283 0.057
26282 32641 0.095
26283 26284 0.297
26284 26285 0.233
26285 26290 0.35
26286 26287 0.311
26287 26288 0.171
26288 26289 0.276
26289 26290 0.28
26291 26292 0.338
26292 26293 0.079
26293 26294 0.202
26293 26295 0.073
26294 32643 0.307
26295 26296 0.223
26299 26300 0.118
26299 26301 0.067
26301 26302 0.082
26302 26303 0.173
26303 31836 0.076
26304 26305 0.075
26304 31836 0.114
26306 26307 0.256
26307 26308 0.197
26308 26309 0.019
26310 26311 0.162
26310 26314 0.292
26311 26312 0.059
26312 26313 0.168
26314 26315 0.048
26315 26316 0.026
26317 26318 0.256
26318 26319 0.268
26319 26320 0.168
26320 26321 0.153
26321 26322 0.165
26322 26323 0.051
26323 26324 0.105
26325 26327 0.223
26325 26331 0.268
26325 26350 0.315
26326 26327 0.048
26326 26328 0.178
26328 26329 0.04
26329 26330 0.088
26329 27359 0.267
26330 26331 0.136
26331 26332 0.032
26332 26334 0.337
26333 27359 0.022
26334 27351 0.172
26335 26337 0.16
26335 26345 0.329
26336 26337 0.072
26336 26341 0.115
26337 26342 0.239
26338 26339 0.04
26338 26340 0.134
26339 26343 0.364
26340 29457 0.097
26341 29457 0.093
26342 26343 0.147
26344 28898 0.117
26345 26346 0.041
26346 26347 0.243
26347 26348 0.05
26349 26350 0.072
26349 26351 0.256
26352 26353 0.267
26354 26355 0.112
26354 26368 0.153
26354 26370 0.113
26355 26356 0.325
26356 26357 0.06
26357 26358 0.273
26357 26366 0.189
26358 26359 0.176
26358 26361 0.075
26359 26360 0.174
26361 26362 0.289
26364 26365 0.169
26365 26366 0.028
26365 28244 0.34
26367 32567 0.119
26367 32571 0.222
26368 26369 0.095
26369 30220 0.052
26374 27406 0.12
26374 27407 0.025
26375 26376 0.181
26377 26378 0.05
26377 26385 0.537
26378 26381 0.32
26378 30413 0.494
26379 26380 0.065
26379 27644 0.027
26379 27645 0.025
26380 26382 0.053
26380 26385 0.089
26382 26383 0.165
26384 27644 0.063
26384 30413 0.07
26386 26389 0.159
26386 28215 0.043
26387 26388 0.057
26390 26391 0.078
26390 26393 0.146
26390 26401 0.123
26391 26405 0.234
26392 26404 0.041
26392 26405 0.025
26393 26394 0.039
26394 26400 0.32
26395 26396 0.223
26395 26401 0.248
26396 26397 0.199
26397 26402 0.2
26398 26399 0.196
26398 26402 0.307
26399 26400 0.247
26403 26404 0.172
26403 32662 0.139
26406 26407 0.23
26406 26408 0.025
26408 26409 0.353
26408 28622 0.135
26409 28622 0.263
26410 26411 0.144
26410 26412 0.167
26410 26414 0.301
26411 26473 0.028
26411 26478 0.509
26412 26413 0.409
26413 26416 0.29
26414 26415 0.183
26415 26416 0.145
26418 26425 0.256
26419 28267 0.128
26420 26421 0.069
26420 26429 0.22
26421 26422 0.207
26421 28267 0.185
26422 26427 0.33
26423 26424 0.109
26423 26426 0.249
26424 26425 0.04
26425 32349 0.084
26426 26427 0.229
26428 26434 0.304
26428 28267 0.239
26429 26430 0.227
26430 26431 0.368
26431 26432 0.124
26432 26439 0.024
26433 26437 0.339
26433 26439 0.104
26434 26438 0.061
26435 26436 0.16
26435 26438 0.313
26436 26437 0.212
26438 26439 0.306
26440 26441 0.016
26440 26442 0.072
26440 26448 0.279
26441 26447 0.247
26442 26443 0.015
26442 26444 0.027
26443 26445 0.166
26443 32661 0.639
26444 26449 0.378
26445 26446 0.059
26446 26447 0.057
26446 26471 0.374
26448 26449 0.335
26450 26451 0.101
26450 26452 0.346
26450 26455 0.026
26452 26463 0.04
26452 26464 0.054
26453 26458 0.059
26453 26459 0.051
26453 26461 0.254
26454 26457 0.048
26455 26456 0.363
26456 26457 0.21
26459 32663 0.1
26461 26462 0.157
26462 26463 0.192
26465 26466 0.059
26472 26473 0.14
26474 26476 0.158
26476 26477 0.113
26481 26483 0.036
26481 26485 0.085
26482 29381 0.027
26483 26484 0.062
26484 26485 0.083
26487 32666 0.323
26488 26489 0.295
26490 28268 0.265
26491 26492 0.362
26491 28268 0.085
26495 26496 0.362
26496 26497 0.139
26497 26498 0.209
26499 26508 0.035
26501 26502 0.182
26502 26503 0.033
26506 26507 0.046
26506 32765 0.03
26507 26508 0.045
26507 28626 0.052
26509 26510 0.098
26511 26512 0.217
26511 30382 0.347
26512 30414 0.336
26513 26514 0.355
26513 26515 0.454
26516 30414 0.453
26517 26518 0.132
26517 26520 0.092
26519 31625 0.195
26520 26521 0.217
26521 26522 0.166
26522 26523 0.183
26523 26524 0.223
26524 26525 0.034
26525 26526 0.183
26526 26527 0.163
26527 26528 0.085
26528 26529 0.165
26529 26530 0.289
26530 26531 0.05
26531 26532 0.044
26532 26533 0.078
26533 26534 0.094
26534 31625 0.193
26535 26536 0.13
26537 32667 0.1
26538 29176 0.147
26539 26540 0.496
26541 26542 0.105
26543 26544 0.178
26547 26548 0.125
26548 26549 0.241
26550 30234 0.145
26551 30234 0.028
26552 26553 0.133
26553 26554 0.065
26554 26555 0.076
26555 26556 0.116
26556 26557 0.088
26557 26558 0.106
26558 26559 0.045
26558 27481 0.077
26558 29375 0.362
26559 26560 0.09
26560 26561 0.129
26562 26563 0.17
26563 26565 0.122
26564 26565 0.099
26564 26566 0.264
26565 28080 0.439
26566 26567 0.309
26567 26568 0.101
26568 26569 0.038
26571 26572 0.193
26571 26586 0.052
26572 26573 0.161
26573 26574 0.157
26574 26575 0.103
26575 26576 0.151
26576 26577 0.132
26577 26588 0.056
26578 26579 0.166
26578 26588 0.061
26579 26580 0.112
26580 26598 0.14
26581 26582 0.252
26581 26598 0.255
26582 26591 0.062
26583 26589 0.042
26583 26599 0.219
26584 26585 0.294
26584 26589 0.041
26587 26588 0.079
26587 26589 0.163
26590 26591 0.063
26590 26600 0.479
26591 26592 0.039
26592 26593 0.08
26593 26594 0.064
26594 28771 0.058
26595 26596 0.228
26595 28771 0.241
26596 26597 0.229
26597 26599 0.088
26601 26623 0.899
26601 26625 0.215
26602 26626 0.324
26603 29384 0.252
26605 26645 2.525
26606 26647 0.601
26608 26611 0.183
26608 31656 0.198
26609 26610 0.045
26609 26612 0.253
26610 26611 0.028
26610 26619 0.243
26612 26613 0.159
26613 26614 0.338
26613 26616 0.198
26614 26615 0.164
26614 26621 0.193
26615 31656 0.195
26616 26617 0.34
26617 26618 0.335
26618 26619 0.067
26619 26620 0.171
26620 26622 0.614
26621 31720 0.444
26622 26623 0.033
26623 26624 0.266
26625 26626 0.142
26625 26627 1.752
26627 26628 0.448
26628 26636 0.083
26628 31577 0.093
26629 26635 0.082
26629 32454 0.074
26630 26631 0.334
26630 26635 0.102
26631 26633 0.056
26632 26634 0.139
26632 28824 0.138
26633 26634 0.503
26633 28824 0.109
26635 26636 0.123
26637 26638 0.106
26638 26639 0.223
26639 26640 0.13
26645 26646 0.316
26646 29458 0.549
26647 28087 1.051
26647 29458 0.228
26648 26649 0.388
26648 26656 0.448
26649 26650 0.279
26650 26651 0.112
26651 26657 0.293
26652 26653 0.521
26652 26655 0.288
26654 32450 0.559
26655 26656 0.058
26660 26661 0.629
26664 26665 0.408
26665 26666 0.78
26665 32456 0.61
26667 26668 0.135
26669 26670 0.04
26670 26671 1.354
26671 26672 1.788
26673 26674 0.116
26674 26675 0.101
26675 26676 0.046
26676 26681 0.908
26677 26678 0.456
26679 26680 1.048
26679 31575 0.91
26680 26681 0.079
26684 26685 0.25
26684 26686 0.464
26685 26687 0.464
26686 29446 6.801
26687 26688 0.047
26688 26689 0.346
26689 26690 0.366
26690 26691 0.131
26691 26692 0.219
26692 26693 0.579
26693 26694 0.411
26694 26695 0.64
26695 26696 0.088
26696 32947 0.073
26698 32795 0.346
26699 26700 0.1
26699 26702 0.377
26699 26704 1.361
26700 26701 0.145
26703 26704 0.596
26705 32128 0.502
26706 26707 0.321
26707 26708 0.397
26708 26709 0.2
26709 32127 0.299
26710 26711 0.039
26710 32127 0.058
26712 26713 0.991
26713 26714 1.041
26714 32126 1.013
26715 26716 0.294
26717 26718 0.386
26719 26721 0.167
26720 28411 0.533
26721 28410 0.434
26724 26725 0.025
26724 26726 0.127
26725 26726 0.141
26728 26729 0.131
26730 26731 0.233
26732 28414 0.133
26733 28415 0.035
26734 28414 0.042
26736 26737 0.043
26736 26739 0.243
26737 26738 0.301
26738 32124 0.1
26740 32613 0.041
26741 28420 0.056
26742 26754 0.024
26743 26754 0.135
26743 28418 0.032
26744 26755 0.316
26746 26747 0.019
26746 26754 0.144
26747 26748 0.016
26748 26749 0.015
26749 26750 0.015
26750 26751 0.015
26751 26752 0.015
26752 26753 0.016
26753 26755 0.046
26755 28418 0.092
26756 28421 0.041
26759 26760 0.191
26760 26761 0.055
26763 26764 0.028
26763 26765 0.452
26763 26767 0.068
26765 26766 0.037
26768 26769 0.401
26769 26770 0.014
26770 26771 0.026
26771 29501 0.134
26772 29501 0.055
26772 30336 0.195
26773 26778 0.408
26773 30336 0.156
26774 26775 0.142
26774 26776 0.445
26774 28623 0.162
26775 28623 0.349
26776 26777 0.727
26776 26778 0.525
26779 32123 0.152
26782 26783 0.32
26782 26785 1.378
26783 26784 0.568
26785 27900 1.62
26786 26787 0.432
26787 26788 0.257
26788 26789 0.218
26789 26790 0.634
26790 26791 0.162
26791 26792 0.511
26792 26811 0.796
26793 26794 0.405
26795 26796 0.645
26796 26797 0.402
26797 26809 1.64
26798 26799 0.463
26800 28404 0.14
26800 32406 0.09
26801 31425 0.731
26802 26805 1.38
26802 31626 0.605
26803 26804 0.186
26806 32449 0.451
26807 31424 0.792
26810 26811 0.44
26812 26813 0.379
26812 26818 1.312
26813 26814 0.432
26814 26815 0.437
26815 26816 0.377
26816 26817 0.183
26817 26818 0.28
26818 26819 0.789
26820 26822 0.051
26820 26823 1.194
26821 26823 3.326
26824 26825 1.608
26826 32402 0.038
26826 32403 0.25
26827 32403 0.249
26827 32404 0.06
26828 26829 0.116
26828 32404 0.125
26829 32400 0.069
26830 26831 0.086
26830 26832 0.113
26830 32400 0.108
26831 30988 0.374
26832 32405 0.12
26834 26835 0.822
26835 26836 0.068
26836 26837 0.066
26838 26839 0.079
26839 26840 0.358
26840 26841 0.105
26841 26842 0.274
26842 32833 0.77
26843 26844 0.351
26844 26845 0.303
26845 26846 0.154
26846 26847 0.101
26848 26850 0.578
26850 26851 0.553
26852 26853 0.587
26852 26855 0.054
26852 26861 0.792
26854 26857 0.052
26855 26856 0.379
26856 26857 0.513
26858 26859 0.439
26858 26862 0.063
26858 28624 0.199
26859 26860 0.03
26859 28624 0.154
26860 26861 0.1
26862 26863 0.195
26863 26864 0.166
26864 26865 0.206
26865 26866 0.099
26869 26870 0.216
26870 30689 0.314
26871 26872 0.39
26871 26873 0.515
26872 26873 0.301
26874 26875 0.144
26875 26876 0.259
26876 26877 0.024
26877 26878 0.211
26877 26880 0.124
26878 26879 0.275
26881 26882 0.159
26882 26884 0.056
26882 32853 0.043
26883 26884 0.057
26883 26898 0.039
26885 26886 0.234
26886 26887 0.027
26886 26888 0.043
26887 26892 0.291
26888 26889 0.03
26890 26891 0.062
26893 26894 0.092
26894 26895 0.047
26894 26896 0.083
26895 26896 0.103
26896 26897 0.057
26900 26901 0.07
26901 26902 0.026
26902 26903 0.085
26903 26904 0.065
26906 32649 0.026
26907 26912 0.251
26907 30415 0.134
26907 32649 0.14
26908 30415 0.129
26908 30962 0.027
26909 26910 0.102
26909 30962 0.099
26910 26911 0.3
26915 30506 0.151
26916 26917 0.253
26918 26919 0.12
26920 26921 0.075
26920 32714 0.202
26921 26922 0.336
26922 26923 0.049
26923 26924 0.046
26928 26929 0.079
26928 26932 0.144
26929 26930 0.024
26930 26931 0.037
26931 26933 0.226
26932 26936 0.161
26933 26935 0.043
26934 26935 0.026
26934 26936 0.077
26935 26938 0.377
26937 26938 0.066
26939 26940 0.019
26939 26941 0.183
26940 30480 0.137
26942 26943 0.114
26943 30449 0.149
26943 30507 0.13
26946 26947 0.049
26947 26948 0.061
26947 32686 0.079
26948 26949 0.177
26949 26950 0.081
26953 26954 0.144
26953 26955 0.182
26955 26956 0.107
26956 26957 0.114
26961 26962 0.053
26961 26963 0.055
26963 26964 0.167
26964 26965 0.149
26966 30347 0.166
26966 30416 0.205
26967 29174 0.059
26967 30416 0.14
26969 26970 0.24
26971 26972 0.083
26972 26973 0.315
26974 26975 0.048
26974 31957 0.161
26978 26979 0.311
26980 26981 0.365
26980 30423 0.185
26982 26983 0.02
26983 26984 0.022
26983 32357 0.079
26985 26986 0.222
26985 32357 0.595
26988 26989 0.048
26989 26990 0.026
26990 26991 0.252
26991 26992 0.12
26992 26993 0.194
26993 28772 0.055
26993 32356 0.026
26995 26996 0.032
26996 26997 0.017
26996 26998 0.178
26997 32673 0.353
26998 26999 0.155
26999 27000 0.057
26999 32672 0.75
27000 32673 0.024
27002 29611 0.07
27002 30421 0.23
27003 29610 0.156
27003 30422 0.377
27004 27005 0.15
27005 27006 0.1
27005 31631 0.064
27006 27007 0.095
27007 31661 0.132
27008 27009 0.114
27008 31661 0.079
27009 27010 0.154
27010 31631 0.185
27011 27215 0.397
27013 27014 0.043
27014 27015 0.034
27015 27016 0.033
27017 27018 0.443
27024 27025 0.089
27025 27026 0.152
27026 27027 0.057
27027 30229 0.233
27028 27029 0.028
27028 27031 0.14
27029 27030 0.019
27030 27037 0.142
27031 27032 0.167
27032 27033 0.067
27033 27036 0.266
27034 27035 0.077
27035 27036 0.236
27037 30235 0.422
27038 30235 0.213
27040 27041 0.098
27042 27043 0.066
27043 27044 0.266
27045 27046 0.033
27045 28257 0.452
27046 27047 0.142
27047 27048 0.287
27048 29459 0.219
27049 27050 0.08
27049 27051 0.033
27051 29459 0.297
27053 27054 0.207
27055 27056 0.033
27056 27057 0.263
27057 27058 0.026
27060 27061 0.322
27061 27062 0.2
27062 27063 0.234
27063 27064 0.057
27065 27066 0.227
27065 27068 0.207
27069 27070 0.019
27069 27074 0.063
27070 27071 0.049
27071 27072 0.177
27073 27074 0.054
27075 27083 0.074
27076 27077 0.022
27076 29622 0.074
27077 27078 0.042
27078 27079 0.021
27079 27080 0.022
27080 27081 0.049
27081 27082 0.016
27081 27083 0.021
27082 29624 0.063
27084 29624 0.033
27085 30411 0.067
27091 32864 0.052
27092 27093 0.092
27093 28906 0.083
27094 27095 0.209
27094 32339 0.085
27097 30424 0.187
27097 32929 0.097
27098 32824 0.263
27098 32917 0.188
27099 32929 0.162
27100 32917 0.048
27101 27102 0.201
27102 27103 0.081
27103 27108 0.115
27104 27106 0.138
27104 27114 0.086
27104 28461 0.086
27105 27106 0.485
27110 27113 0.107
27112 27113 0.064
27113 31643 0.117
27116 32319 0.037
27117 32313 0.24
27120 28403 2.672
27125 27126 0.123
27125 27129 0.333
27126 27127 0.07
27126 27129 0.063
27127 27128 0.176
27131 27134 0.31
27131 27917 0.053
27132 27133 0.036
27132 27142 0.337
27133 27134 0.332
27133 27135 0.307
27134 27136 0.509
27135 27136 0.036
27136 27137 0.14
27137 27138 0.03
27137 32918 0.304
27138 27139 0.208
27139 27146 0.259
27140 27141 0.183
27140 32918 0.023
27141 27148 0.196
27142 27921 0.469
27143 27144 0.15
27143 27145 0.145
27143 27917 0.356
27144 27145 0.134
27145 27914 1.694
27147 27148 0.017
27147 27150 0.223
27148 32919 0.121
27149 27946 0.397
27149 32919 0.1
27150 27151 0.016
27151 27152 0.028
27151 32621 0.22
27152 27919 0.144
27153 28387 0.363
27153 28389 0.687
27154 27155 0.099
27154 27162 0.036
27155 27160 0.454
27155 27163 0.1
27156 27722 0.171
27156 32637 0.091
27157 27158 0.216
27157 27161 0.215
27158 27159 0.15
27159 27160 0.429
27161 27162 0.456
27163 32636 0.098
27164 27165 0.169
27164 32636 0.266
27165 27166 0.256
27166 32637 0.341
27167 27168 0.049
27168 27169 0.039
27168 27171 0.046
27168 27957 0.308
27169 27170 0.13
27171 27172 0.268
27172 27173 0.177
27173 27174 0.14
27174 27175 0.157
27175 27176 0.048
27176 27177 0.046
27178 27179 0.256
27178 27960 0.03
27181 27182 0.252
27181 27184 0.083
27181 27185 0.05
27182 32492 0.183
27183 32492 0.196
27184 27185 0.131
27186 27187 0.1
27194 32645 1.02
27195 27196 0.145
27197 32731 0.162
27198 27206 0.116
27199 27205 0.165
27199 27206 0.228
27200 27201 0.227
27201 27202 0.074
27203 27204 0.095
27206 27207 0.125
27208 29170 0.065
27211 27214 0.197
27214 27215 0.177
27216 27217 0.095
27216 27218 0.051
27217 27227 0.068
27218 27226 0.041
27219 27220 0.061
27220 27221 0.028
27221 27222 0.032
27223 27226 0.059
27223 28773 0.05
27224 27225 0.209
27224 28773 0.202
27224 29460 0.277
27224 31638 0.179
27225 31639 0.384
27227 29460 0.146
27228 27229 0.077
27228 27242 0.061
27235 27236 0.045
27244 28082 0.131
27247 27248 0.165
27247 28876 0.11
27248 27249 0.054
27248 28876 0.149
27250 27251 0.054
27251 27252 0.181
27252 27253 0.041
27253 27254 0.089
27253 27255 0.161
27254 28774 0.017
27255 27256 0.329
27256 27257 0.047
27257 27259 0.13
27258 28774 0.335
27259 27260 0.107
27260 27261 0.185
27261 27262 0.204
27262 27263 0.034
27266 27268 0.2
27266 27269 0.222
27267 28366 0.028
27270 32416 0.397
27271 29461 0.453
27271 32413 0.043
27273 27274 0.046
27275 27384 0.05
27275 27385 0.026
27275 27386 0.098
27276 27277 0.11
27277 27278 0.161
27278 27279 0.07
27278 27280 0.155
27279 27284 0.169
27280 27281 0.235
27281 27282 0.043
27282 27283 0.07
27282 31852 0.121
27284 27285 0.187
27285 27294 0.04
27286 27287 0.107
27286 27294 0.082
27287 27288 0.087
27288 27289 0.012
27288 27291 0.076
27289 27290 0.057
27291 27292 0.098
27295 27296 0.097
27297 27298 0.016
27297 27299 0.087
27297 27307 0.103
27298 27301 0.082
27301 27302 0.108
27302 27303 0.062
27305 27306 0.082
27306 27307 0.054
27308 27313 0.146
27309 27310 0.028
27309 27315 0.087
27312 27313 0.085
27314 27315 0.275
27317 27319 0.23
27318 32538 0.08
27320 27321 0.077
27323 27324 0.221
27324 31849 0.093
27325 27431 0.137
27326 27431 0.254
27327 29625 0.071
27328 27329 0.049
27329 27330 0.048
27330 27331 0.055
27332 27333 0.016
27334 27335 0.034
27334 27336 0.039
27336 27337 0.186
27339 27340 0.041
27339 27341 0.144
27340 27345 0.109
27340 27349 0.172
27341 27342 0.076
27342 27343 0.046
27343 27344 0.035
27346 27347 0.139
27347 27348 0.045
27347 27350 0.067
27348 27349 0.201
27351 27352 0.164
27352 27372 0.162
27353 27372 0.047
27353 27375 0.174
27354 27355 0.06
27354 27375 0.149
27355 27369 0.094
27356 27357 0.258
27358 27359 0.082
27358 27360 0.052
27358 28892 1.261
27360 27361 0.163
27361 27362 0.182
27362 27363 0.04
27363 27364 0.134
27364 27365 0.179
27365 27366 0.234
27366 27367 0.223
27367 27378 0.356
27369 27370 0.095
27372 27373 0.309
27373 27374 0.086
27373 27375 0.09
27376 27377 0.265
27376 27378 0.091
27377 27409 0.033
27377 29194 0.467
27380 27381 0.351
27382 27383 0.052
27382 28975 0.064
27383 28266 0.086
27386 30412 0.079
27387 27388 0.076
27387 27389 0.047
27389 27390 0.184
27390 27391 0.136
27391 27392 0.035
27392 27393 0.167
27392 27397 0.127
27393 27394 0.019
27394 27395 0.046
27394 27398 0.138
27395 27396 0.148
27396 27397 0.218
27399 27400 0.291
27399 28695 0.34
27401 27403 0.241
27402 27405 0.362
27403 27404 0.387
27406 28898 0.147
27406 30417 0.172
27407 28892 0.309
27407 30417 0.14
27408 27409 0.122
27408 27410 0.281
27409 27410 0.259
27411 27417 0.143
27412 27414 0.205
27414 27415 0.093
27416 27417 0.059
27418 28604 0.097
27419 32804 0.309
27420 27421 0.752
27421 27426 0.189
27422 27423 0.153
27422 27426 0.098
27425 27426 0.042
27426 27427 0.198
27427 27429 0.045
27428 29625 0.124
27429 31846 0.222
27429 31850 0.203
27430 27431 0.141
27430 31849 0.128
27430 31850 0.147
27432 28391 0.101
27432 28393 0.243
27433 27434 0.049
27433 27435 0.066
27435 27436 0.074
27436 28253 0.366
27437 27439 0.327
27438 27439 0.066
27441 27443 0.098
27441 27444 0.087
27442 27447 0.049
27443 27445 0.222
27444 27448 0.152
27445 27446 0.231
27446 27447 0.306
27448 27449 0.066
27449 27450 0.178
27450 27451 0.117
27450 32559 0.608
27451 27452 0.182
27452 27453 0.051
27453 27457 0.037
27459 27460 0.148
27460 27461 0.159
27461 32521 0.107
27462 27464 0.097
27462 27465 0.104
27463 27464 0.037
27464 28379 0.303
27465 27466 0.158
27466 27467 0.164
27467 28378 0.101
27468 27469 0.061
27468 28378 0.083
27468 28379 0.324
27469 28381 0.224
27470 27471 0.101
27470 28381 0.044
27471 27472 0.089
27471 27474 0.134
27472 27473 0.119
27473 27474 0.144
27474 28382 0.068
27475 27477 0.235
27477 27478 0.192
27479 27480 0.086
27479 28382 0.191
27480 27481 0.216
27482 30963 0.086
27483 30963 0.099
27484 30608 0.039
27485 28513 0.054
27486 30896 0.081
27487 31395 0.052
27488 29324 0.053
27489 29332 0.043
27490 30189 0.069
27493 29256 0.021
27494 28158 0.038
27494 30145 0.042
27495 28170 0.055
27495 30236 0.078
27496 30237 0.041
27496 30443 0.009
27499 29806 0.026
27500 29463 0.022
27500 29836 0.019
27501 29463 0.028
27501 30133 0.025
27502 30238 0.036
27503 30120 0.033
27503 30238 0.037
27504 30239 0.02
27505 29763 0.038
27506 29462 0.03
27507 28155 0.033
27507 29325 0.031
27508 29711 0.015
27510 29270 0.049
27512 27515 0.039
27513 27514 0.02
27513 27515 0.26
27518 29334 0.044
27519 30964 0.065
27520 30964 0.063
27525 28567 0.018
27526 27527 0.056
27528 27529 0.702
27528 27530 0.916
27529 27530 0.302
27530 28579 0.124
27531 28579 0.095
27531 30240 0.256
27532 29335 0.125
27532 30240 0.077
27533 27534 0.031
27533 27539 0.038
27533 30241 0.022
27535 27536 0.044
27535 30241 0.021
27536 29046 0.034
27536 29643 0.016
27536 29646 0.026
27536 30242 0.033
27537 29045 0.023
27538 29636 0.028
27538 30199 0.015
27540 29248 0.046
27541 30124 0.016
27542 27543 0.04
27542 27544 0.074
27544 27545 0.042
27544 30989 0.065
27545 27546 0.097
27546 27547 0.058
27546 30670 0.073
27547 27548 0.071
27548 28775 0.061
27549 27550 0.181
27549 28775 0.016
27550 30965 0.05
27551 27552 0.103
27551 30966 0.019
27552 29628 0.039
27552 30244 0.035
27552 30246 0.022
27553 29464 0.062
27553 30245 0.018
27553 30251 0.031
27554 30250 0.017
27554 30256 0.015
27555 29300 0.039
27555 30019 0.061
27555 30257 0.039
27556 30154 0.034
27557 30151 0.051
27559 27560 0.206
27559 27562 0.288
27560 27561 0.204
27561 27563 0.041
27563 27564 0.036
27564 27565 0.034
27564 28620 0.134
27565 28620 0.124
27566 28556 0.016
27567 29282 0.019
27567 30185 0.022
27568 30259 0.016
27569 30190 0.028
27569 30260 0.022
27570 29843 0.015
27570 29848 0.015
27570 30055 0.014
27570 30261 0.036
27571 27572 0.053
27571 30261 0.032
27572 27573 0.031
27574 30262 0.017
27577 29465 0.046
27577 29931 0.059
27578 29465 0.036
27579 30184 0.025
27580 29288 0.03
27581 30131 0.032
27581 30138 0.023
27582 27583 0.056
27582 29302 0.027
27584 29283 0.023
27585 29216 0.073
27585 29217 0.111
27586 29251 0.07
27589 29249 0.031
27590 29258 0.025
27590 30992 0.031
27591 30845 0.028
27595 29812 0.054
27596 29812 0.044
27596 29813 0.048
27597 28553 0.014
27597 28554 0.021
27598 30264 0.036
27599 30775 0.274
27599 30780 0.483
27599 30784 0.105
27600 28157 0.036
27600 29257 0.024
27601 27602 0.242
27603 27604 0.687
27605 27607 0.313
27605 27611 0.259
27606 29479 0.622
27606 29502 0.342
27607 27608 0.121
27607 27622 0.165
27607 29502 0.112
27608 27609 0.118
27608 27610 0.129
27609 27622 0.077
27609 28915 0.07
27609 29478 0.113
27610 27616 0.093
27610 28915 0.13
27611 27612 0.111
27613 27614 0.135
27615 27616 0.076
27617 27620 0.053
27617 28915 0.062
27618 27619 0.191
27618 27626 0.069
27619 27620 0.353
27619 27621 0.682
27623 27624 0.468
27625 27626 0.39
27627 29503 0.182
27629 32920 0.505
27630 30967 0.133
27631 30809 0.027
27632 30825 0.024
27633 27634 0.183
27633 30824 0.491
27635 27636 0.331
27636 27637 0.217
27637 30968 0.041
27638 30968 0.049
27640 27641 0.158
27641 27642 0.024
27642 27643 0.021
27643 30900 0.065
27645 28349 0.04
27646 28349 0.054
27647 27648 0.149
27647 28389 0.031
27648 27649 0.129
27649 27650 0.216
27650 27651 0.268
27651 27652 0.103
27652 27653 0.174
27654 27655 0.12
27654 27658 0.055
27656 27657 0.314
27656 27684 0.255
27657 27660 0.401
27657 30984 0.186
27658 27659 0.432
27659 27661 0.198
27660 27708 0.863
27660 30983 0.407
27661 27662 0.396
27662 28798 0.032
27663 27664 0.279
27663 28798 0.133
27665 27666 0.073
27665 32625 0.16
27665 32626 0.162
27666 27668 0.118
27667 32626 0.117
27667 32627 0.046
27668 28804 0.219
27669 27670 0.249
27669 32625 0.209
27670 28804 0.198
27671 27672 0.413
27671 27680 0.213
27672 27679 0.217
27672 27908 0.065
27673 27674 0.206
27673 27908 0.055
27674 27675 0.313
27675 32623 0.121
27676 32622 0.081
27676 32623 0.144
27676 32627 0.064
27677 27905 0.486
27678 27679 0.198
27678 27909 0.013
27678 28798 0.358
27679 27910 0.175
27679 32628 0.308
27680 27681 0.086
27680 27910 0.241
27681 27707 0.155
27682 27938 0.092
27683 27684 0.663
27684 30985 0.247
27685 27687 0.247
27685 27700 0.12
27686 27691 0.214
27686 27701 0.243
27687 27688 0.235
27688 27689 0.059
27688 27692 0.31
27689 27690 0.042
27690 27691 0.035
27690 27692 0.797
27693 27694 0.202
27693 27695 0.915
27694 27696 0.427
27695 27697 0.121
27696 27697 0.1
27697 27698 0.041
27697 27699 0.101
27698 27703 0.227
27699 27700 0.02
27700 27701 0.189
27700 27702 0.169
27702 27705 0.295
27703 27704 0.196
27704 27705 0.115
27705 27923 0.066
27706 28187 0.767
27707 27912 0.07
27709 28984 0.091
27712 27713 0.324
27712 28776 0.651
27713 27715 0.675
27714 27720 0.656
27715 27717 0.401
27716 27726 0.437
27717 27718 0.189
27718 27719 0.465
27719 27724 0.518
27720 29044 0.276
27721 28776 0.034
27721 28983 0.074
27721 29044 0.175
27722 28983 0.113
27723 27725 0.357
27723 27726 0.578
27724 28777 0.306
27725 28777 0.093
27728 30991 0.074
27728 30993 0.028
27729 27730 0.02
27729 30993 0.013
27730 28516 0.013
27733 29466 0.067
27734 27738 0.085
27734 29466 0.183
27735 27736 0.083
27735 28046 0.197
27736 27737 0.028
27737 27738 0.026
27739 27740 0.279
27739 28594 0.129
27741 29640 0.015
27741 29943 0.044
27741 30182 0.024
27741 30311 0.029
27742 30242 0.045
27743 30796 0.139
27745 30969 0.212
27746 30933 0.026
27747 30781 0.102
27748 27749 0.095
27750 27751 0.137
27750 27754 0.234
27751 27752 0.04
27752 27753 0.146
27754 27755 0.224
27760 27761 0.077
27761 27762 0.062
27762 27763 0.029
27763 27764 0.043
27765 27766 0.774
27765 27775 1.439
27766 27767 0.923
27768 27769 0.053
27769 27770 0.473
27769 27775 0.624
27770 27771 0.032
27770 27772 0.037
27771 27773 0.626
27772 27776 1.176
27773 27774 0.053
27775 27776 1.36
27776 27777 0.971
27777 27778 1.064
27779 27780 0.053
27779 28098 0.407
27782 27783 0.573
27786 32774 0.118
27787 32775 0.135
27787 32779 0.209
27788 27789 0.043
27788 31901 0.079
27790 27791 0.089
27792 27793 0.034
27794 27808 0.392
27795 27796 0.146
27795 27808 0.087
27797 27815 0.071
27798 27815 0.26
27799 27801 0.198
27799 27805 0.046
27800 27801 0.052
27800 27807 0.276
27802 27803 0.159
27803 27804 0.096
27805 27806 0.103
27808 27809 0.209
27809 29467 0.028
27810 27811 0.403
27810 29467 0.13
27812 27813 0.13
27814 27815 0.215
27816 27817 0.019
27816 27818 0.041
27816 27821 0.071
27818 27819 0.095
27819 27820 0.162
27820 27825 0.148
27821 27822 0.05
27822 27823 0.085
27823 27825 0.252
27825 27826 0.03
27826 28106 0.117
27828 27829 0.169
27829 27830 0.095
27831 27832 0.066
27832 30266 0.098
27833 27840 0.114
27833 27841 0.109
27833 30266 0.101
27835 28108 0.099
27836 27837 0.032
27837 30344 0.047
27838 27839 0.186
27838 27846 0.127
27838 28105 0.114
27839 27840 0.11
27839 27844 0.216
27839 27847 0.078
27841 27842 0.228
27842 28106 0.47
27844 28834 0.049
27845 27846 0.06
27845 29069 0.078
27847 27848 0.12
27850 28834 0.072
27851 27852 0.935
27852 27853 0.06
27853 27854 0.029
27856 27857 0.878
27857 27858 0.35
27858 27861 0.029
27859 27860 0.289
27859 27861 0.027
27860 31660 0.069
27861 27864 2.552
27862 31660 1.962
27863 28274 6.141
27864 27866 0.581
27865 27866 0.041
27865 27867 0.269
27868 27869 0.049
27868 27870 0.223
27871 27872 5.139
27871 27873 4.704
27875 27876 0.179
27875 27877 0.232
27875 29100 1.546
27877 27878 0.16
27877 27879 0.185
27878 28816 0.179
27879 27881 0.047
27880 27881 0.04
27880 27885 0.205
27881 27882 0.198
27881 28816 0.103
27883 27884 0.059
27884 27885 0.195
27884 31423 0.639
27887 27888 0.054
27887 27891 0.503
27888 27889 0.074
27888 31412 0.089
27889 27891 0.24
27890 27896 0.61
27892 27893 0.154
27893 27897 0.892
27894 27895 0.119
27895 31413 0.223
27897 27898 0.814
27898 28390 1.119
27901 28973 0.035
27902 27903 0.113
27903 31424 0.321
27904 28969 0.309
27905 27906 0.139
27906 27907 0.042
27906 27909 0.267
27907 27908 0.151
27910 27913 0.059
27911 27912 0.242
27911 27913 0.254
27911 32628 0.175
27911 32629 0.201
27914 27915 0.067
27914 27918 0.996
27915 27916 0.894
27916 27917 0.241
27918 28187 0.31
27919 27920 0.057
27920 27921 0.119
27920 28385 0.303
27920 28387 0.203
27922 27923 0.144
27922 27927 0.255
27924 27925 0.261
27925 27928 0.295
27926 27927 0.182
27926 27928 0.166
27927 27939 0.378
27929 27930 0.065
27929 27932 0.281
27930 27931 0.155
27930 27933 0.206
27931 27937 0.146
27933 27934 0.278
27934 27935 0.151
27935 27936 0.337
27936 27937 0.285
27938 27939 0.243
27938 27943 0.497
27939 27941 0.123
27940 27941 0.054
27944 27945 0.237
27944 28385 0.197
27945 27946 0.072
27946 32621 0.135
27947 27948 0.148
27948 27949 1.154
27949 27950 0.495
27950 27951 0.86
27951 27954 0.409
27952 27953 1.916
27953 27954 1.229
27955 27956 0.578
27957 27958 0.221
27958 27959 0.337
27959 27960 0.431
27961 27962 0.044
27962 27963 0.593
27964 27965 0.083
27965 29468 0.273
27966 29468 0.078
27967 27968 0.047
27967 27969 0.089
27967 28621 0.169
27968 28621 0.1
27969 27970 0.043
27969 27971 0.135
27970 31426 0.253
27971 27972 0.084
27974 27975 0.098
27974 27982 0.181
27975 27976 0.057
27976 27977 0.167
27978 28407 0.054
27979 28407 0.052
27980 27981 0.121
27981 27982 0.083
27983 31527 0.039
27984 27985 0.076
27984 29469 0.28
27985 27986 0.106
27986 29469 0.065
27987 27988 0.142
27989 27990 0.313
27991 27993 0.471
27992 27993 0.049
27994 27995 0.075
27996 27997 0.094
27996 27998 0.192
27999 28001 0.234
28000 28001 0.1
28003 31393 0.382
28004 28005 0.927
28005 28006 0.508
28006 28015 0.017
28008 28012 0.065
28009 28010 0.093
28009 28011 0.191
28010 28011 0.164
28012 28013 0.214
28012 31822 0.579
28014 28015 0.237
28016 28019 0.324
28017 28019 0.361
28018 28019 0.646
28020 28021 2.405
28020 28023 0.866
28021 28022 0.536
28022 28023 0.135
28024 28025 0.334
28025 32406 1.222
28026 28972 0.178
28029 28030 0.126
28030 28031 0.162
28030 28032 0.243
28031 28032 0.383
28032 32537 0.331
28033 28034 0.15
28033 28036 0.047
28033 28037 0.065
28034 28035 0.083
28035 28036 0.05
28037 28038 0.131
28039 28041 0.048
28039 28200 0.174
28040 28041 0.028
28040 28042 0.09
28044 31091 0.365
28044 31189 0.111
28045 32550 0.038
28045 32551 0.013
28046 28505 0.203
28047 32146 0.085
28048 28049 0.168
28050 28051 0.169
28050 28052 0.284
28051 28052 0.185
28054 28055 2.118
28054 28056 0.83
28054 32455 0.859
28055 28056 0.227
28056 28057 0.268
28058 28059 0.746
28059 28060 0.312
28059 28061 0.34
28060 28061 0.421
28062 28063 0.523
28062 28064 0.316
28062 28065 0.851
28066 28067 0.084
28067 28068 0.042
28071 28072 0.054
28075 28076 0.115
28076 28077 0.146
28078 28079 0.135
28081 28082 0.077
28083 28084 0.191
28084 28085 0.171
28084 28086 0.145
28087 28088 0.074
28088 28089 0.192
28093 28094 0.068
28097 32772 0.028
28098 28099 0.045
28099 29145 0.054
28103 31896 0.262
28103 31898 0.405
28104 31894 0.085
28104 31895 0.263
28105 30344 0.269
28110 32647 0.136
28111 28112 0.102
28113 28114 0.331
28115 28856 0.372
28116 28117 0.059
28117 28118 0.157
28120 28121 0.181
28122 28124 0.24
28123 28127 0.206
28124 28125 0.317
28125 28126 0.065
28128 29439 0.361
28129 28130 0.363
28129 28136 0.477
28130 28133 0.575
28131 28778 0.741
28132 28136 0.428
28132 28137 1.109
28132 29603 0.545
28133 28778 0.663
28134 28137 0.371
28135 28137 0.353
28139 28140 0.09
28139 28141 0.111
28140 28142 0.043
28141 28144 0.048
28142 28143 0.083
28143 28144 0.127
28145 28146 0.057
28148 28149 0.046
28150 28158 0.025
28150 28551 0.034
28151 29970 0.063
28151 30042 0.045
28152 28169 0.037
28152 28534 0.031
28153 29253 0.021
28154 29051 0.046
28155 28156 0.019
28156 29778 0.039
28157 30041 0.019
28159 29263 0.023
28159 30267 0.028
28160 28161 0.061
28161 29471 0.021
28161 29920 0.017
28162 29245 0.031
28162 30135 0.018
28164 29229 0.046
28166 31396 0.501
28167 29344 0.375
28168 29342 0.054
28168 29345 0.176
28169 28544 0.024
28169 29968 0.035
28172 30174 0.03
28173 29691 0.019
28173 30175 0.024
28176 32944 0.154
28177 30970 0.062
28178 28561 0.043
28179 30429 0.135
28180 31966 0.095
28181 30521 0.159
28181 30935 0.014
28182 28276 0.115
28182 30972 0.178
28183 28184 0.301
28183 28185 1.293
28184 28185 1.461
28186 28187 0.069
28186 28383 0.546
28188 28189 0.146
28188 28190 0.523
28191 31251 0.022
28191 31269 0.062
28192 28193 0.133
28197 29151 0.434
28198 29153 0.431
28204 28487 0.074
28204 28896 0.266
28204 30911 0.284
28205 28761 0.083
28206 28207 0.16
28207 28208 0.263
28208 28761 0.077
28209 28918 0.274
28210 28211 0.241
28213 28214 0.187
28213 28215 0.29
28214 30385 0.167
28217 30375 0.36
28219 28220 0.101
28221 28222 0.157
28233 28234 0.51
28235 28236 0.487
28238 28239 0.113
28240 32149 0.206
28241 28242 0.097
28241 30829 0.044
28249 29036 0.214
28250 29978 0.052
28250 29988 0.04
28250 29993 0.025
28250 30022 0.018
28252 28253 0.391
28255 28256 0.296
28257 28258 0.294
28259 31487 0.278
28259 31503 0.186
28259 31504 0.127
28260 28261 0.304
28263 28264 0.019
28264 28354 0.261
28265 28353 0.116
28265 28354 0.129
28265 28355 0.158
28265 28356 0.214
28266 28394 0.096
28266 28397 0.073
28268 28269 0.404
28270 28906 0.075
28270 32352 0.126
28270 32354 0.139
28271 28527 0.017
28272 29307 0.03
28272 29317 0.035
28272 29633 0.026
28272 30270 0.039
28273 28512 0.014
28273 29472 0.042
28275 30967 0.055
28276 30971 0.17
28277 30499 0.05
28278 28279 0.291
28283 28285 0.121
28284 28285 0.188
28284 28286 0.101
28286 28287 0.044
28288 28289 0.373
28289 28290 0.04
28289 28295 0.292
28290 28291 0.256
28291 28292 0.027
28292 28293 0.379
28294 28295 0.048
28295 28296 0.038
28297 28298 0.478
28298 29003 0.804
28299 28300 0.096
28300 28301 0.331
28303 28304 0.04
28303 28305 0.179
28305 28306 0.085
28306 28307 0.054
28306 28308 0.21
28307 28309 0.286
28310 28311 0.062
28310 28319 0.185
28310 28320 0.235
28311 28313 0.031
28312 28313 0.11
28312 28314 0.079
28314 28315 0.356
28315 28323 0.494
28316 28318 0.19
28317 28318 0.022
28318 28319 0.059
28318 28326 0.277
28321 28324 0.351
28322 28323 0.191
28324 28334 0.4
28326 28327 0.14
28326 28329 0.073
28327 28328 0.138
28328 28330 0.403
28329 29025 0.029
28330 28331 0.085
28330 29025 0.297
28333 28334 0.228
28335 28336 0.079
28335 28337 0.109
28335 29043 0.057
28336 28338 0.185
28336 28339 0.069
28337 28339 0.065
28338 32029 0.145
28340 28341 0.289
28341 28342 0.138
28343 28344 4.539
28346 28347 0.035
28346 28348 0.035
28348 28350 0.274
28349 28350 0.138
28350 30380 0.185
28351 31477 0.227
28351 31478 0.058
28351 31479 0.072
28352 31480 0.111
28352 32880 1.043
28353 28354 0.135
28355 32495 0.109
28356 32921 0.462
28357 29473 0.123
28358 28360 0.134
28358 28361 0.149
28359 28360 0.056
28359 29473 0.243
28361 28362 0.111
28362 29156 0.089
28363 28364 0.212
28365 28366 0.076
28367 28368 0.531
28368 28369 0.142
28369 28370 0.265
28369 28371 0.237
28371 28372 0.035
28372 28373 0.59
28374 28375 0.225
28374 28376 0.188
28380 28381 0.17
28382 31671 0.126
28383 28384 0.706
28385 28386 0.025
28386 28388 0.196
28387 28388 0.284
28388 28389 0.631
28391 28392 0.207
28392 28393 0.148
28394 31845 0.048
28395 28398 0.027
28395 31845 0.061
28396 28399 0.054
28396 28400 0.024
28397 28400 0.096
28398 28399 0.126
28405 28406 0.073
28406 28407 0.169
28406 28408 0.13
28412 28413 0.076
28412 28416 0.477
28413 28414 0.213
28414 28415 0.022
28418 28419 0.055
28419 28420 0.28
28421 28422 0.099
28422 28423 0.347
28424 28425 0.09
28424 28923 0.223
28424 32129 0.178
28425 28426 1.145
28426 32129 0.833
28427 28429 0.57
28428 28429 0.168
28428 29492 0.534
28430 28431 0.323
28430 28432 0.388
28431 28432 0.116
28433 28435 1.291
28433 28439 1.724
28433 31008 1.818
28434 28438 1.481
28434 32184 0.46
28436 32184 1.275
28438 31006 1.543
28441 28442 0.384
28442 28443 0.055
28442 28445 0.315
28443 28444 0.053
28447 32177 1.685
28448 31054 0.705
28450 29496 2.894
28451 28452 0.099
28452 28454 0.426
28453 28454 0.101
28453 28456 0.132
28454 28457 0.033
28455 28457 0.136
28455 28458 0.099
28455 28460 0.131
28456 28458 0.04
28458 28459 0.049
28459 28460 0.275
28462 28463 0.112
28462 32824 0.385
28462 32922 0.131
28463 28464 0.021
28464 28466 0.042
28465 32865 0.108
28467 30973 0.044
28468 28470 0.179
28469 28470 0.085
28469 28471 0.091
28472 28480 0.033
28473 30500 0.083
28474 28475 0.08
28475 30484 0.173
28475 30508 0.133
28476 28485 0.135
28476 30508 0.099
28476 30509 0.103
28477 28485 0.065
28478 30973 0.077
28478 32552 0.225
28479 28481 0.353
28479 30483 0.222
28480 28482 0.126
28481 28482 0.071
28482 28483 0.157
28483 28484 0.141
28484 31960 0.226
28485 30510 0.23
28486 28489 0.067
28488 28489 0.521
28488 30549 0.163
28488 30974 0.35
28490 28491 0.262
28490 28495 0.074
28490 30547 0.163
28491 28493 0.069
28492 28493 0.162
28492 28495 0.062
28492 30580 0.011
28493 28494 0.025
28494 30969 0.493
28499 28501 0.153
28501 30914 0.136
28503 28505 0.067
28503 28506 0.035
28504 28506 0.077
28504 30517 0.197
28504 30820 0.056
28507 28508 0.087
28509 30269 0.043
28510 28512 0.018
28510 29319 0.048
28511 29049 0.036
28511 30272 0.021
28512 29330 0.044
28513 28514 0.124
28514 30868 0.19
28515 28538 0.023
28515 28539 0.012
28517 28518 0.04
28518 28519 0.259
28522 29331 0.182
28523 29472 0.037
28523 30272 0.024
28524 28525 0.018
28525 28526 0.033
28527 29946 0.035
28528 28529 0.043
28528 28810 0.024
28529 28530 0.119
28530 28531 0.037
28530 28552 0.088
28531 28532 0.032
28532 28552 0.162
28532 28810 0.117
28533 28552 0.12
28534 28545 0.026
28535 28536 0.02
28535 28549 0.056
28536 28537 0.02
28537 28538 0.034
28539 28540 0.036
28539 29969 0.014
28541 28542 0.023
28543 28544 0.022
28546 28547 0.026
28547 28549 0.037
28547 30268 0.024
28548 30275 0.084
28549 28550 0.04
28550 29681 0.044
28551 30236 0.024
28552 29621 0.029
28554 30142 0.06
28555 30187 0.023
28556 29981 0.018
28557 28558 0.032
28558 28559 0.019
28559 28560 0.046
28565 31395 0.107
28566 28567 0.128
28573 31397 0.112
28575 28576 0.038
28580 28581 0.284
28581 28582 0.211
28582 28586 0.067
28583 29013 0.035
28584 29013 0.034
28587 28589 0.269
28587 28592 0.228
28587 30511 0.115
28588 28590 0.136
28588 30512 0.224
28589 28590 0.102
28590 30513 0.265
28591 30514 0.204
28593 30515 0.102
28594 29010 0.042
28594 30515 0.14
28599 28600 0.297
28601 28864 0.175
28602 28603 0.433
28608 28609 0.095
28608 31270 0.16
28615 28616 0.127
28618 31719 0.407
28619 32062 0.183
28625 28772 0.026
28625 32356 0.056
28626 32765 0.063
28627 31581 0.493
28628 31581 0.326
28630 28631 0.038
28633 28634 0.381
28633 28841 0.021
28634 28635 0.241
28637 28840 0.134
28638 28639 0.25
28640 28643 0.431
28646 28647 0.238
28647 28652 0.112
28647 28848 0.048
28648 28651 0.082
28649 28653 0.033
28655 28943 0.198
28656 28946 0.126
28658 28945 0.066
28659 28661 0.363
28660 28666 0.055
28661 28662 0.082
28662 28663 0.184
28663 28664 0.086
28663 28666 0.384
28665 28666 0.08
28670 28671 0.127
28675 28852 0.517
28675 29155 0.257
28698 28699 0.298
28698 32539 0.213
28705 31195 0.289
28711 28712 0.15
28721 32608 0.115
28722 28860 0.587
28726 28727 0.138
28734 30479 0.22
28735 30528 0.061
28736 30617 0.217
28736 30975 0.108
28739 31496 0.063
28739 31497 0.091
28740 29424 0.821
28752 28753 0.093
28761 28916 0.256
28766 28988 0.273
28770 32642 0.066
28778 29602 0.633
28781 29423 0.047
28789 29488 0.286
28790 32616 0.418
28793 30503 0.518
28795 28796 0.383
28808 30974 0.035
28809 30932 0.182
28812 31580 0.116
28813 32644 0.073
28821 32467 0.192
28822 29427 0.333
28823 29433 0.591
28824 31577 0.288
28833 29135 0.638
28836 31330 0.521
28839 31885 0.143
28849 29047 0.428
28852 29607 0.026
28854 28940 0.108
28854 30700 0.288
28861 32604 0.378
28862 32696 0.043
28862 32697 0.216
28863 30721 0.446
28878 29037 0.15
28878 30940 0.15
28879 29389 0.206
28897 28899 0.393
28898 29195 0.093
28908 29304 0.039
28917 28998 0.122
28917 32020 0.405
28920 28921 0.342
28927 32907 0.457
28928 32117 0.109
28935 29361 0.271
28940 28941 0.091
28942 28943 0.307
28943 28944 0.399
28945 28946 0.778
28953 28956 0.156
28953 28963 0.615
28955 28956 0.296
28957 28958 0.093
28957 28962 0.382
28960 28961 0.085
28960 29515 2.629
28961 28962 0.191
28961 28966 0.181
28962 28964 0.11
28963 32922 0.291
28964 32865 0.313
28965 29510 2.454
28970 31420 0.172
28971 28972 0.137
28971 28974 0.463
28972 28973 0.349
28973 28974 0.075
28976 28977 0.374
28976 28978 0.734
28977 28978 0.473
28979 28981 0.328
28979 32923 0.182
28980 32921 0.073
28980 32923 0.369
28983 29044 0.24
28986 29453 0.157
28991 29031 0.137
28992 32038 0.21
28996 30493 0.126
29007 32337 0.203
29015 32047 0.147
29016 29017 0.054
29017 29018 0.077
29019 29020 0.385
29019 29485 0.048
29020 29021 0.24
29023 32305 0.191
29027 29028 0.107
29029 29030 0.133
29032 30738 0.044
29033 30727 0.085
29034 32028 0.103
29039 30735 0.207
29047 30398 0.351
29049 30271 0.051
29052 29966 0.08
29052 30148 0.028
29052 30152 0.036
29053 29652 0.036
29053 29655 0.03
29054 29652 0.028
29054 30283 0.035
29055 29291 0.046
29055 30282 0.034
29056 30036 0.041
29056 30195 0.032
29059 30125 0.018
29060 30158 0.024
29060 30427 0.029
29064 30838 0.014
29065 29066 0.246
29065 29393 0.588
29066 31237 0.407
29067 29068 0.047
29067 29070 0.132
29067 29071 0.122
29068 29069 0.215
29071 29138 0.046
29073 30698 0.257
29074 32646 0.194
29075 29417 0.471
29076 29133 0.257
29076 29468 0.134
29079 29080 0.328
29079 29091 0.084
29080 29148 0.398
29080 29444 0.245
29082 29128 0.264
29082 29436 0.265
29084 29164 0.013
29084 32855 0.177
29086 29125 0.477
29086 29126 0.382
29089 29170 0.345
29097 31574 0.242
29103 31414 0.048
29103 31415 0.341
29104 32451 0.441
29106 32446 0.488
29109 29114 0.524
29111 29112 0.978
29113 31431 0.292
29114 31432 0.353
29117 31512 0.071
29119 32504 0.24
29120 30364 0.519
29125 29126 0.858
29129 31447 0.361
29129 32436 0.342
29130 31438 0.377
29130 31439 0.314
29135 29423 0.645
29137 29138 0.098
29141 31321 0.5
29142 31331 0.963
29148 31675 0.427
29154 31691 0.205
29156 30573 0.036
29157 30702 0.126
29157 31922 0.09
29158 30704 0.066
29159 30883 0.25
29163 30724 0.869
29164 32855 0.176
29167 30078 0.033
29169 31664 0.14
29171 29172 0.326
29172 31928 0.224
29172 31929 0.168
29173 32741 0.134
29173 32742 0.04
29173 32745 0.22
29181 31667 0.626
29183 29184 0.225
29185 31955 0.192
29190 29441 0.25
29191 31843 0.129
29191 32538 0.078
29192 31842 0.519
29196 30945 0.285
29198 29381 0.217
29199 32563 0.263
29202 32350 0.114
29202 32351 0.185
29203 30354 0.105
29204 32542 0.173
29205 32352 0.151
29207 32344 0.188
29207 32916 0.146
29208 30828 0.111
29209 32331 0.161
29212 29717 0.06
29212 30085 0.043
29213 30082 0.022
29214 29215 0.035
29214 30083 0.035
29218 29219 0.034
29218 30086 0.047
29219 29789 0.019
29219 29790 0.015
29219 30098 0.067
29220 30087 0.023
29222 30095 0.07
29223 29824 0.064
29223 30099 0.042
29224 30104 0.021
29225 30089 0.028
29225 30106 0.027
29226 29723 0.024
29226 29726 0.035
29226 30094 0.021
29226 30110 0.053
29228 30096 0.026
29229 30097 0.038
29231 30102 0.042
29231 30105 0.054
29232 29792 0.035
29232 30113 0.037
29234 29235 0.019
29235 29884 0.016
29235 29888 0.029
29235 30115 0.029
29236 29881 0.049
29236 30108 0.041
29237 29878 0.014
29238 29908 0.038
29238 30109 0.018
29239 30136 0.02
29241 30323 0.045
29244 30141 0.028
29245 30117 0.032
29247 29671 0.014
29247 29673 0.018
29247 29675 0.06
29247 29677 0.016
29250 30137 0.019
29252 29806 0.042
29252 30127 0.018
29257 29732 0.016
29257 29733 0.021
29257 29736 0.017
29257 29738 0.014
29257 29740 0.015
29257 29742 0.02
29257 29745 0.031
29257 30140 0.026
29262 29892 0.023
29264 30428 0.01
29265 30160 0.028
29267 29750 0.022
29267 29753 0.015
29267 30163 0.029
29267 30313 0.016
29267 30314 0.019
29268 30146 0.052
29268 30149 0.024
29269 30839 0.011
29271 29994 0.018
29271 30304 0.022
29272 30304 0.04
29274 29895 0.034
29274 30156 0.025
29275 30157 0.023
29276 29850 0.016
29276 29854 0.02
29276 29855 0.035
29276 29864 0.022
29276 30057 0.023
29276 30159 0.058
29276 30305 0.016
29277 30161 0.032
29277 30305 0.036
29281 29282 0.071
29281 29867 0.014
29281 29870 0.044
29282 29814 0.023
29282 29856 0.018
29282 29859 0.029
29282 29862 0.023
29282 29866 0.016
29282 29974 0.034
29283 29898 0.034
29284 29747 0.021
29284 30165 0.015
29284 30167 0.034
29285 29755 0.017
29285 29757 0.022
29285 29977 0.016
29285 30051 0.017
29285 30290 0.018
29288 30166 0.034
29290 29691 0.034
29290 30171 0.062
29291 29695 0.016
29292 29924 0.044
29294 30025 0.016
29294 30181 0.022
29294 30307 0.015
29295 29944 0.016
29295 29949 0.022
29295 29951 0.014
29295 29952 0.015
29295 30307 0.045
29297 29659 0.041
29297 30308 0.026
29298 30203 0.028
29298 30308 0.018
29299 29700 0.022
29299 29701 0.023
29299 30183 0.02
29299 30239 0.034
29302 30186 0.043
29303 30191 0.038
29304 30283 0.02
29308 29948 0.042
29308 30330 0.017
29309 29946 0.03
29309 29948 0.028
29310 30194 0.018
29313 30196 0.028
29313 30237 0.044
29315 29636 0.028
29315 30031 0.015
29318 29319 0.031
29318 30028 0.014
29318 30200 0.034
29321 30204 0.017
29322 29970 0.019
29322 30205 0.025
29323 30042 0.031
29323 30206 0.055
29325 30207 0.071
29327 30209 0.043
29328 30211 0.033
29329 29639 0.028
29329 30210 0.029
29329 30264 0.072
29330 30029 0.015
29333 30599 0.174
29333 30859 0.117
29336 30873 0.027
29340 32541 0.262
29347 31201 0.285
29348 31975 0.401
29358 31714 0.601
29360 32646 0.441
29366 32506 0.245
29370 30395 0.408
29378 31561 0.578
29390 31232 0.119
29399 29440 0.76
29415 32695 0.079
29415 32697 0.193
29419 31901 0.236
29425 31448 0.402
29425 31487 0.077
29425 31513 0.087
29426 31596 0.085
29426 31597 0.239
29428 32638 0.063
29429 31601 0.118
29438 30572 0.679
29438 30958 0.121
29456 32477 0.048
29461 32415 0.28
29461 32416 0.061
29462 29769 0.051
29464 30243 0.02
29471 30267 0.02
29475 32130 0.108
29475 32131 0.146
29476 31029 0.774
29476 31041 1.784
29477 32266 0.209
29484 32121 0.299
29484 32122 0.077
29487 32109 0.011
29488 32104 0.338
29489 32130 0.194
29493 32161 0.174
29495 32172 0.064
29495 32173 0.083
29496 31030 0.795
29503 32249 0.056
29503 32256 0.118
29504 29505 0.02
29504 32869 0.095
29505 29506 0.02
29506 29613 0.073
29507 29508 0.024
29507 29612 0.027
29508 29509 0.021
29509 29614 0.063
29510 29511 0.033
29511 29512 0.023
29512 30418 0.901
29513 29514 0.023
29513 30432 0.985
29514 29515 0.031
29516 29517 0.032
29517 29518 0.038
29518 31367 0.34
29519 29520 0.033
29519 31368 0.44
29520 29521 0.039
29522 29523 0.049
29522 31367 1.615
29523 29524 0.036
29524 31356 1.208
29525 29526 0.036
29525 31357 1.011
29526 29527 0.044
29527 31368 1.539
29528 29529 0.057
29529 29530 0.059
29530 31357 0.457
29531 29532 0.044
29531 31356 0.28
29532 29533 0.05
29534 29535 0.048
29535 29536 0.058
29537 29538 0.062
29538 29539 0.056
29540 29541 0.046
29541 29542 0.056
29543 29544 0.049
29544 29545 0.054
29546 29547 0.045
29547 29548 0.046
29549 29550 0.048
29550 29551 0.045
29552 29553 0.066
29553 29554 0.068
29555 29556 0.064
29556 29557 0.062
29558 29559 0.035
29559 29560 0.034
29561 29562 0.052
29562 29563 0.045
29564 29565 0.05
29565 29566 0.051
29567 29568 0.05
29568 29569 0.053
29570 29571 0.055
29571 29572 0.069
29573 29574 0.063
29574 29575 0.054
29576 29577 0.038
29577 29578 0.034
29579 29580 0.039
29580 29581 0.04
29582 29583 0.061
29583 29584 0.067
29585 29586 0.086
29586 29587 0.072
29588 29589 0.061
29589 29590 0.051
29591 29592 0.059
29592 29593 0.055
29594 29595 0.052
29595 29596 0.05
29597 29598 0.04
29598 29599 0.044
29600 29601 0.042
29601 29602 0.039
29603 29604 0.049
29604 29605 0.045
29606 29609 0.216
29607 29608 0.274
29608 29609 2.912
29610 30418 0.12
29611 30432 0.111
29617 29618 0.138
29619 32782 0.265
29629 30270 0.017
29636 29637 0.017
29647 30283 0.015
29651 30283 0.025
29652 29653 0.016
29652 29654 0.031
29655 30282 0.039
29659 29660 0.017
29659 29662 0.016
29663 29664 0.016
29664 29665 0.021
29664 30038 0.021
29666 30100 0.02
29668 30090 0.022
29678 29681 0.022
29679 29681 0.031
29681 29682 0.014
29681 29685 0.015
29681 30275 0.094
29683 30275 0.015
29687 29691 0.018
29689 29691 0.023
29691 29692 0.027
29691 29693 0.036
29696 30239 0.022
29698 30239 0.03
29710 29711 0.019
29711 29778 0.049
29712 29970 0.017
29714 29970 0.014
29716 29717 0.016
29720 30084 0.014
29739 30041 0.013
29759 29763 0.015
29762 29763 0.018
29766 29769 0.016
29768 29769 0.016
29769 29770 0.038
29769 30443 0.042
29772 30042 0.016
29773 30042 0.022
29776 29777 0.022
29776 29780 0.025
29776 29781 0.212
29776 30208 0.11
29781 29782 0.025
29781 29783 0.045
29783 29784 0.022
29783 29787 0.075
29786 29787 0.03
29787 30240 0.032
29792 29799 0.017
29792 30103 0.05
29795 30098 0.017
29796 29806 0.021
29801 29803 0.015
29803 29804 0.016
29803 29810 0.029
29803 30126 0.034
29806 29809 0.015
29806 30048 0.014
29813 30139 0.039
29820 30102 0.016
29821 30099 0.017
29824 29826 0.021
29824 30052 0.025
29824 32946 0.041
29829 29836 0.015
29830 30101 0.014
29831 30128 0.015
29834 29836 0.023
29835 29836 0.016
29836 29837 0.017
29836 29844 0.028
29836 29845 0.036
29836 30128 0.033
29838 30102 0.018
29870 30162 0.064
29874 30089 0.014
29879 29881 0.038
29881 29882 0.015
29883 30117 0.017
29892 29893 0.015
29892 30425 0.007
29898 29899 0.015
29898 29902 0.024
29904 30097 0.017
29907 29913 0.019
29908 29909 0.015
29908 29912 0.015
29913 29914 0.014
29913 30109 0.016
29917 30134 0.017
29917 30135 0.025
29924 30176 0.035
29926 30166 0.016
29927 30166 0.015
29929 29937 0.043
29929 29942 0.018
29929 30201 0.053
29930 29931 0.015
29930 29934 0.039
29930 29937 0.037
29931 29932 0.014
29933 29934 0.019
29934 29938 0.014
29936 29937 0.015
29940 29941 0.049
29940 30197 0.066
29941 29942 0.052
29943 30030 0.014
29943 30177 0.043
29955 29956 0.016
29955 29957 0.015
29955 30154 0.058
29959 30257 0.014
29970 29973 0.016
29972 30205 0.015
29978 29979 0.055
29978 29987 0.016
29978 29989 0.071
29979 30339 0.04
29986 30018 0.138
29986 30339 0.037
29988 30255 0.157
29989 30020 0.054
29989 30021 0.016
29992 29993 0.015
29993 30269 0.052
29994 30065 0.037
29998 30080 0.079
29998 30381 0.213
29999 30230 0.311
29999 30234 0.238
30000 30001 0.273
30000 30071 0.292
30000 30235 0.173
30002 30005 0.189
30002 30007 0.113
30003 30004 0.201
30003 30007 0.066
30003 30081 0.169
30004 30005 0.15
30004 30006 0.153
30005 30221 0.112
30006 30340 0.066
30008 30009 0.211
30008 30072 0.222
30008 30231 0.141
30009 30212 0.106
30010 30223 0.087
30010 30224 0.096
30011 30079 0.153
30011 30219 0.154
30017 30090 0.019
30018 30243 0.115
30019 30153 0.027
30020 30129 0.055
30026 30270 0.028
30039 30205 0.016
30041 30268 0.032
30042 30043 0.017
30046 30111 0.014
30065 30150 0.018
30070 30074 0.64
30071 30229 0.771
30072 31982 0.19
30076 31687 0.346
30078 30343 0.46
30078 32595 0.16
30084 30085 0.031
30090 30091 0.04
30092 30093 0.02
30093 30094 0.024
30101 30102 0.026
30107 30108 0.048
30111 30112 0.024
30112 30113 0.046
30114 30115 0.015
30116 30117 0.059
30117 30320 0.016
30118 30119 0.039
30119 30120 0.024
30121 30122 0.041
30122 30123 0.015
30123 30124 0.015
30126 30127 0.031
30132 30133 0.023
30141 30426 0.024
30143 30144 0.066
30144 30262 0.017
30147 30148 0.02
30155 30156 0.025
30164 30165 0.033
30170 30171 0.018
30173 30174 0.028
30178 30179 0.019
30179 30180 0.019
30180 30181 0.018
30189 31392 0.121
30193 30194 0.042
30197 30847 0.073
30201 30202 0.053
30213 32144 0.179
30215 32427 0.129
30222 30340 0.274
30232 31982 0.093
30239 30312 0.017
30243 30989 0.116
30244 30245 0.02
30246 30247 0.03
30247 30248 0.028
30248 30249 0.042
30249 30250 0.026
30251 30252 0.038
30252 30253 0.021
30253 30254 0.026
30254 30255 0.03
30256 30257 0.028
30259 30260 0.097
30270 30271 0.021
30309 30325 0.025
30310 30325 0.022
30327 30540 0.096
30328 30844 0.075
30331 31250 0.165
30342 32600 0.507
30343 31400 0.03
30347 30402 0.366
30348 30356 0.146
30348 32598 0.638
30350 30388 0.268
30351 30404 0.281
30351 30405 0.108
30354 30386 0.188
30355 30365 0.382
30356 30357 0.557
30357 32595 0.252
30358 32735 0.765
30360 30361 0.109
30369 30717 0.282
30372 31938 0.275
30374 30976 0.056
30374 32373 0.254
30384 32564 0.032
30406 32695 0.118
30418 30422 0.098
30420 30431 0.067
30421 30432 0.056
30424 32820 0.016
30430 30431 0.036
30440 30441 0.377
30444 30445 0.066
30444 30446 0.296
30445 30447 0.429
30446 30480 0.06
30448 30449 0.055
30448 30480 0.023
30450 30451 0.128
30450 30453 0.233
30450 30454 0.313
30451 30452 0.212
30452 30453 0.108
30452 30456 0.09
30453 30455 0.095
30453 30491 0.247
30455 30492 0.317
30457 30490 0.22
30458 30460 0.443
30458 30504 0.279
30459 30501 0.164
30460 30461 0.354
30460 30479 0.158
30463 30464 0.375
30464 30466 0.195
30464 30495 0.127
30465 30496 0.228
30466 30487 0.136
30467 30469 0.21
30468 30493 0.491
30468 30494 0.25
30469 30477 0.108
30470 30477 0.144
30471 30472 0.328
30471 30473 0.156
30471 30476 0.121
30472 30474 0.011
30473 30474 0.16
30475 30476 0.324
30478 30485 0.051
30489 30490 0.187
30495 30496 0.101
30497 30498 0.062
30498 30499 0.192
30501 30502 0.036
30502 30924 0.273
30506 30507 0.123
30509 32552 0.126
30510 31959 0.159
30511 30512 0.194
30513 30514 0.064
30516 32598 0.146
30516 32600 0.015
30518 30821 0.053
30519 30877 0.599
30520 30799 0.081
30521 30523 0.148
30521 30678 0.19
30521 31967 0.134
30522 30523 0.188
30523 30972 0.089
30524 30970 0.085
30525 30813 0.086
30525 30818 0.227
30526 30924 0.242
30527 30664 0.144
30527 30815 0.177
30528 30664 0.089
30528 30666 0.266
30529 30681 0.153
30530 30633 0.347
30530 30681 0.183
30531 30532 0.264
30531 30976 0.525
30532 30617 0.308
30532 30734 0.148
30533 30534 0.212
30533 30536 0.207
30533 30792 0.226
30534 30535 0.4
30535 30536 0.213
30535 30634 0.173
30537 30538 0.186
30537 30650 0.131
30537 30903 0.242
30538 30652 0.148
30539 30773 0.236
30540 30542 0.044
30541 30542 0.078
30541 30841 0.101
30542 30844 0.053
30543 30548 0.278
30543 30551 0.3
30543 30668 0.427
30544 30545 0.099
30544 30549 0.201
30544 30974 0.31
30545 30667 0.191
30546 30548 0.202
30546 30581 0.193
30546 30667 0.131
30546 30683 0.11
30547 30668 0.261
30548 30550 0.195
30548 30669 0.193
30549 30550 0.226
30550 30551 0.146
30552 30577 0.138
30552 30755 0.122
30552 30937 0.192
30553 30936 0.192
30554 30555 0.061
30554 30556 0.12
30555 30556 0.174
30555 30781 0.042
30557 30628 0.207
30557 30629 0.297
30558 30559 0.209
30558 30684 0.06
30560 30561 0.31
30560 30576 0.242
30562 30961 0.436
30563 30711 0.408
30563 30960 0.291
30564 30565 0.074
30565 30566 0.432
30566 30712 0.35
30567 30568 0.079
30568 30962 0.235
30569 30951 0.359
30570 30571 0.277
30570 30722 0.295
30571 30952 0.082
30572 30718 0.223
30572 30955 0.289
30573 30574 0.085
30573 30575 0.164
30577 32588 0.019
30578 30587 0.093
30578 32554 0.39
30579 30764 0.218
30579 30791 0.024
30579 32554 0.225
30580 31965 0.163
30581 30582 0.071
30581 30669 0.202
30583 30584 0.146
30583 30585 0.163
30583 30943 0.319
30586 30686 0.161
30587 30588 0.148
30588 30795 0.172
30589 30590 0.336
30591 30835 0.226
30592 30593 0.1
30592 30887 0.051
30593 30594 0.086
30594 30680 0.187
30595 30596 0.046
30595 30888 0.125
30595 30895 0.16
30596 30597 0.045
30597 30885 0.088
30598 30857 0.133
30598 30858 0.1
30598 30870 0.224
30599 30600 0.076
30599 30602 0.141
30600 30842 0.169
30601 30602 0.212
30601 30603 0.192
30603 30859 0.168
30604 30606 0.128
30604 30608 0.109
30604 30860 0.193
30605 30606 0.119
30605 30845 0.197
30607 30675 0.068
30607 30963 0.046
30609 30610 0.033
30609 30964 0.149
30610 30852 0.078
30611 30612 0.045
30611 30674 0.019
30611 30965 0.049
30613 30728 0.214
30614 30615 0.83
30615 32374 0.276
30616 30740 0.474
30616 30938 0.277
30619 30620 0.085
30619 30947 0.448
30620 30942 0.325
30621 30752 0.326
30622 30893 0.151
30623 30624 0.58
30623 30743 0.518
30625 30682 0.545
30625 30910 0.415
30626 30642 0.255
30626 30748 0.463
30626 30753 0.694
30627 30926 0.191
30628 30803 0.144
30629 30630 0.04
30630 30631 0.008
30631 30632 0.167
30631 30787 0.141
30632 30787 0.221
30633 30804 0.25
30635 30679 0.128
30636 30679 0.262
30636 30899 0.02
30637 30640 0.365
30637 30897 0.124
30638 30794 0.406
30639 30641 0.114
30640 30641 0.125
30640 30898 0.076
30643 30645 0.104
30644 30645 0.172
30644 30646 0.052
30644 30777 0.086
30645 30647 0.292
30647 30900 0.207
30648 32553 0.269
30649 30651 0.139
30649 30652 0.148
30653 30819 0.198
30654 30655 0.258
30655 30825 0.089
30656 30657 0.431
30656 30967 0.035
30657 30658 0.033
30658 30935 0.165
30659 30660 0.163
30659 30671 0.339
30660 30662 0.112
30660 30674 1.2
30661 30662 0.14
30661 30672 0.048
30661 30673 0.155
30663 30672 0.061
30664 30665 0.275
30665 30666 0.094
30665 30929 0.063
30666 30927 0.098
30668 30669 0.074
30670 30673 0.107
30675 30868 0.036
30676 30850 0.133
30676 30855 0.144
30677 30971 0.041
30677 31967 0.17
30682 30912 0.409
30684 30685 0.788
30687 30944 0.218
30688 30699 0.577
30688 30701 0.147
30691 30944 0.476
30699 31919 0.134
30699 31923 0.148
30702 31925 0.116
30703 32690 0.218
30706 30707 0.567
30710 30711 0.093
30716 30717 0.198
30718 30986 0.757
30727 32858 0.152
30728 32375 0.142
30731 30732 0.154
30740 32380 0.046
30740 32381 0.068
30746 32933 0.157
30752 30901 0.73
30756 30757 0.135
30757 30758 0.167
30762 30763 0.19
30763 30764 0.134
30764 30765 0.193
30776 30777 0.1
30777 30778 0.1
30779 30780 0.029
30790 30791 0.387
30808 30809 0.136
30810 30968 0.466
30811 30812 0.138
30816 30817 0.044
30824 30825 0.063
30846 30847 0.031
30848 30849 0.068
30851 30852 0.029
30852 30853 0.04
30854 30855 0.058
30855 30856 0.034
30862 30863 0.145
30863 30864 0.058
30864 30865 0.158
30865 30876 0.195
30867 30868 0.175
30869 30870 0.18
30871 32548 0.111
30875 30876 0.302
30877 31832 0.236
30880 30881 0.082
30880 30906 0.257
30887 30888 0.052
30890 30891 0.094
30906 30907 0.124
30908 30909 0.089
30923 30924 0.139
30925 30926 0.045
30928 30929 0.039
30929 30930 0.09
30931 30932 0.043
30936 30937 0.051
30941 32593 0.038
30947 30948 0.126
30948 32594 0.1
30950 30952 0.304
30954 30956 0.255
30965 30966 0.02
30970 32551 0.034
30971 31966 0.156
30973 31965 0.562
30975 30976 0.157
30977 30979 0.219
30977 30980 0.124
30984 30985 0.13
30988 32398 0.344
30988 32401 0.269
30995 30996 1.596
30996 30998 1.525
30997 31002 1.494
30999 31001 1.616
31000 31001 1.397
31000 31005 2.007
31002 31003 1.463
31003 32183 1.025
31004 31005 0.88
31005 31007 1.408
31006 32183 0.619
31007 31008 1.343
31009 31070 0.526
31009 31072 0.789
31010 31015 0.286
31010 32174 0.105
31011 31012 0.198
31011 32174 0.238
31012 31016 0.212
31013 31014 0.266
31013 31016 0.261
31014 31071 0.037
31015 31071 0.126
31017 31018 0.203
31017 31019 0.37
31018 31072 0.18
31019 31072 0.024
31020 31070 0.626
31021 31022 0.224
31021 31075 0.88
31022 31075 0.874
31023 31073 0.365
31023 31074 0.452
31024 31025 0.289
31024 31074 0.104
31025 31026 0.133
31026 31027 0.596
31027 31074 0.161
31028 31039 0.779
31028 31076 0.316
31029 31030 0.93
31031 31032 0.264
31031 31076 0.203
31032 31035 0.612
31032 31036 0.239
31033 31034 0.24
31033 31036 0.228
31034 31035 0.21
31035 31038 0.447
31037 31038 0.272
31037 31040 0.309
31039 31040 0.352
31041 31076 0.351
31041 31079 1.055
31042 31043 0.262
31042 31046 0.144
31043 31045 0.244
31044 31046 0.383
31044 31077 0.055
31045 31078 0.181
31047 31053 0.274
31047 31079 0.184
31047 31080 0.516
31048 31079 0.088
31048 32789 0.202
31049 31078 0.121
31049 32789 0.357
31050 31051 0.191
31050 31053 0.38
31051 31052 0.132
31052 31080 0.149
31054 31055 0.09
31055 31081 0.049
31056 31059 0.228
31056 31081 0.09
31057 31081 0.139
31057 31082 0.363
31058 31059 0.246
31058 31060 0.236
31060 31068 0.25
31061 31069 0.042
31061 31084 0.251
31062 31063 0.122
31062 31084 0.042
31063 31083 0.039
31064 31065 0.177
31064 31083 0.063
31065 31082 0.038
31066 31067 0.319
31066 31082 0.052
31067 31068 0.347
31069 32796 0.213
31070 31071 0.27
31073 31075 0.877
31073 32172 1.379
31077 31078 0.364
31077 31080 0.127
31084 32796 0.09
31087 31089 0.113
31087 31393 0.072
31088 31090 0.118
31088 31188 0.078
31089 31247 0.206
31090 31246 0.191
31091 31192 0.048
31092 31248 0.369
31092 31249 0.048
31093 31191 0.043
31094 31095 0.26
31094 31191 0.067
31095 31096 0.035
31096 31099 0.12
31097 31098 0.12
31098 31244 0.259
31099 31245 0.258
31100 31245 0.186
31100 31252 0.053
31101 31193 0.05
31101 31244 0.189
31102 31103 0.161
31102 31252 0.183
31103 31194 0.043
31104 31195 0.048
31104 31243 0.171
31105 31194 0.084
31105 31197 0.131
31106 31195 0.07
31106 31198 0.124
31107 31199 0.093
31107 32546 0.122
31108 31197 0.254
31108 31200 0.092
31109 31199 0.026
31110 31197 0.149
31110 31219 0.174
31111 31208 0.115
31111 31219 0.434
31112 31203 0.081
31112 31222 0.124
31113 31203 0.093
31113 31220 0.124
31114 31115 0.065
31114 31203 0.179
31116 31118 0.217
31116 31203 0.168
31117 31119 0.215
31117 31203 0.168
31118 31253 0.222
31119 31204 0.242
31120 31253 0.262
31120 31261 0.259
31121 31204 0.302
31121 31224 0.174
31122 31207 0.068
31123 31207 0.055
31123 31261 0.166
31124 31206 0.066
31124 31224 0.157
31125 31127 0.104
31125 31211 0.032
31126 31128 0.109
31126 31210 0.042
31127 31129 0.082
31128 31130 0.084
31129 31267 0.035
31130 31240 0.035
31131 31134 0.144
31131 31267 0.117
31132 31133 0.138
31132 31240 0.113
31133 31241 0.085
31134 31268 0.091
31135 31137 0.053
31135 31241 0.035
31136 31138 0.061
31136 31268 0.026
31137 31209 0.088
31138 31254 0.091
31139 31254 0.107
31139 31266 0.133
31140 31209 0.113
31140 31239 0.142
31141 31255 0.131
31141 31266 0.145
31142 31212 0.115
31142 31239 0.154
31143 31146 0.186
31143 31212 0.067
31144 31145 0.193
31144 31255 0.049
31145 31265 0.128
31146 31147 0.12
31147 31214 0.147
31148 31265 0.186
31149 31256 0.066
31150 31153 0.162
31150 31256 0.08
31151 31154 0.17
31151 31213 0.081
31153 31258 0.143
31154 31237 0.152
31155 31157 0.329
31155 31237 0.14
31156 31158 0.374
31156 31258 0.149
31157 31159 0.245
31158 31160 0.226
31159 31238 0.048
31160 31264 0.048
31161 31218 0.104
31161 31238 0.034
31162 31259 0.097
31162 31264 0.046
31163 31218 0.14
31163 31234 0.026
31164 31235 0.044
31164 31236 0.26
31165 31260 0.052
31165 31263 0.259
31166 31168 0.169
31166 31236 0.049
31167 31169 0.165
31167 31263 0.045
31168 31216 0.114
31169 31217 0.109
31170 31217 0.087
31170 31262 0.265
31171 31216 0.095
31171 31233 0.277
31172 31175 0.237
31172 31233 0.042
31173 31174 0.237
31173 31262 0.042
31174 31176 0.28
31175 31177 0.277
31176 31215 0.121
31177 31215 0.129
31178 31227 0.023
31179 31215 0.09
31179 31231 0.026
31180 31183 0.091
31180 31231 0.081
31181 31182 0.075
31181 31231 0.079
31182 31226 0.086
31183 31230 0.101
31184 31226 0.253
31184 31232 0.421
31185 31230 0.262
31185 31232 0.397
31186 31232 0.027
31186 31271 0.216
31187 31228 0.074
31187 31229 0.02
31189 31246 0.214
31189 31251 0.014
31190 31191 0.062
31191 31192 0.193
31191 31249 0.192
31193 31243 0.19
31193 31252 0.02
31194 31195 0.015
31196 31203 0.094
31197 31198 0.014
31198 32546 0.131
31199 31200 0.014
31199 31202 0.174
31200 31201 0.173
31201 31202 0.012
31201 31223 0.21
31202 31221 0.214
31204 31253 0.045
31205 31253 0.154
31206 31207 0.043
31206 31210 0.167
31207 31211 0.183
31209 31254 0.043
31210 31211 0.044
31212 31255 0.041
31213 31214 0.258
31213 31256 0.04
31214 31257 0.042
31215 31227 0.086
31215 31231 0.11
31216 31217 0.044
31218 31235 0.181
31218 31259 0.05
31220 31221 0.17
31220 31222 0.012
31221 31223 0.012
31221 31242 0.334
31222 31223 0.169
31224 31261 0.043
31225 31228 0.16
31225 31232 0.03
31226 31230 0.037
31233 31262 0.046
31235 31260 0.046
31236 31263 0.045
31236 32539 0.152
31237 31258 0.043
31238 31264 0.033
31239 31266 0.04
31240 31267 0.041
31241 31250 0.149
31241 31268 0.041
31244 31245 0.019
31247 31251 0.214
31248 31251 0.105
31256 31257 0.256
31257 31265 0.142
31259 31260 0.191
31270 31271 0.198
31272 31274 0.343
31272 31275 0.335
31273 31274 0.046
31273 31275 0.048
31273 31276 0.038
31273 31308 0.67
31273 31309 0.702
31277 31278 0.15
31278 31309 0.952
31278 31310 0.482
31278 31311 0.466
31278 31680 0.072
31279 31310 0.401
31279 31311 0.426
31279 31312 0.378
31279 31313 0.396
31280 31312 0.395
31280 31313 0.37
31280 31314 0.465
31280 31315 0.479
31281 31282 0.911
31281 31283 0.905
31281 31314 0.031
31281 31315 0.024
31282 31284 0.053
31282 31316 0.026
31283 31317 0.028
31285 31286 0.129
31285 31288 0.463
31285 31289 0.465
31285 31316 0.239
31285 31674 0.053
31286 31523 0.063
31287 31288 0.023
31287 31289 0.021
31287 31291 0.378
31287 31292 0.381
31287 31470 0.158
31290 31291 0.026
31290 31292 0.023
31290 31293 0.101
31290 31306 0.235
31290 31307 0.251
31293 31294 0.199
31293 31301 0.192
31294 31295 0.175
31294 31303 0.189
31295 31296 0.254
31295 31297 0.183
31296 31469 0.2
31296 31470 0.276
31297 31298 0.135
31297 31303 0.201
31298 31299 0.288
31298 31320 0.814
31299 31300 0.147
31299 31302 0.239
31300 31301 0.253
31300 31305 0.063
31301 31302 0.194
31302 31303 0.026
31304 31305 0.031
31304 31306 0.184
31304 31307 0.168
31304 31318 0.214
31304 31319 0.215
31308 31680 0.908
31317 31674 0.187
31318 31322 0.214
31319 31322 0.214
31320 31321 0.705
31320 31322 0.399
31322 31323 0.249
31323 31324 0.132
31324 31325 0.418
31324 31326 0.419
31325 31327 0.074
31326 31327 0.074
31327 31328 0.849
31327 31329 0.846
31330 31331 0.13
31330 31332 0.075
31330 31333 0.074
31330 31334 0.513
31330 31335 0.527
31334 31336 0.072
31335 31336 0.057
31336 31339 0.829
31336 31340 0.829
31337 31338 0.025
31338 31339 0.049
31338 31340 0.046
31338 31341 0.171
31338 31353 0.696
31338 31354 0.696
31341 31345 0.578
31341 31652 0.045
31342 31347 0.633
31342 31380 0.01
31343 31344 0.572
31343 31345 0.248
31344 31346 0.545
31346 31347 0.518
31346 31374 0.069
31347 31358 0.651
31347 31373 0.259
31348 31349 0.102
31348 31350 0.094
31348 31351 0.107
31348 31352 0.112
31348 31355 0.354
31348 31373 0.142
31349 31352 0.184
31349 31378 0.687
31350 31351 0.174
31350 31378 0.686
31351 31353 0.172
31352 31354 0.162
31355 31356 1.139
31355 31357 0.884
31355 31491 0.17
31358 31359 0.288
31359 31378 0.33
31360 31376 0.174
31361 31376 0.199
31362 31365 0.273
31363 31364 0.327
31364 31366 0.071
31365 31366 0.068
31366 31370 0.093
31366 31371 0.091
31367 31369 0.577
31368 31372 0.817
31369 31370 0.283
31369 31371 0.284
31369 31381 0.293
31369 31382 0.299
31372 31378 0.583
31372 31382 0.085
31378 31381 0.676
31379 31490 0.148
31379 31492 0.049
31380 31651 0.075
31385 31386 0.089
31390 31391 0.016
31390 31399 0.477
31391 31398 0.152
31396 31397 0.168
31406 31407 0.076
31409 32804 0.278
31410 32806 1.505
31414 31416 0.309
31416 31417 0.239
31417 31418 0.356
31418 31419 0.222
31421 31422 0.513
31425 31626 0.072
31427 31428 0.241
31427 32891 0.221
31428 31429 0.105
31429 32849 0.257
31437 31442 0.322
31439 31440 0.347
31440 31441 0.093
31442 31443 0.256
31444 31445 0.102
31445 32459 0.02
31446 31447 0.121
31449 31450 0.407
31453 31454 0.04
31454 32826 0.315
31455 31456 0.204
31455 32896 0.078
31456 31457 0.273
31457 32825 0.059
31458 32825 0.179
31459 32847 0.265
31460 31461 0.307
31460 32894 0.078
31461 31462 0.394
31462 31463 0.085
31463 32847 0.564
31465 31466 0.306
31468 31469 0.405
31472 31473 0.074
31478 31480 0.346
31479 31484 0.716
31480 31481 0.27
31481 31482 0.453
31482 31483 0.495
31483 32880 0.398
31491 31492 0.06
31493 31494 0.269
31494 31495 0.321
31495 31496 0.266
31498 31499 0.178
31501 31502 0.176
31504 31505 0.071
31508 32848 0.372
31509 31519 0.45
31511 31517 0.238
31513 31514 0.09
31514 31515 0.098
31515 32892 0.266
31516 32892 0.088
31518 32890 0.345
31522 31523 0.073
31524 32893 0.056
31524 32895 0.234
31529 31530 0.427
31532 32882 0.314
31535 31536 0.285
31536 32881 0.199
31537 32881 0.06
31537 32882 0.414
31539 31540 0.289
31540 32845 0.042
31541 32845 0.263
31544 31545 0.403
31546 31547 0.273
31546 32900 0.254
31547 32899 0.243
31551 31552 0.456
31555 31556 0.21
31555 31558 0.221
31563 31564 0.302
31564 31565 0.141
31565 31566 0.304
31566 31567 0.2
31568 31569 0.241
31568 31570 0.21
31570 31571 0.232
31576 32844 0.703
31579 32902 0.069
31580 32455 1.886
31583 31584 0.184
31584 31585 0.284
31585 31586 0.312
31587 32827 0.047
31588 32829 0.042
31598 31612 0.285
31599 31600 0.193
31604 31605 0.058
31605 31606 0.143
31610 31611 0.119
31611 31612 0.205
31613 31615 0.343
31616 31617 0.365
31618 31619 0.209
31620 31621 0.408
31623 31663 0.957
31626 31628 0.285
31627 31628 0.04
31629 31630 0.031
31634 31635 0.073
31635 31636 0.329
31638 32830 0.219
31639 32830 0.118
31642 32831 0.341
31643 31644 0.036
31644 32831 0.052
31651 31652 0.11
31662 31663 0.212
31668 31669 0.334
31677 31678 0.239
31681 32861 0.357
31683 31684 0.337
31683 31685 0.141
31686 31688 0.131
31687 31688 0.071
31691 31692 0.061
31693 31695 0.017
31694 31695 0.287
31697 31698 0.175
31699 31700 1.057
31701 31703 0.281
31702 31703 0.806
31704 31705 0.357
31706 32832 0.655
31707 31708 0.682
31708 32832 0.271
31710 32833 0.142
31712 31713 0.126
31714 31715 0.13
31715 31717 0.753
31716 31717 0.096
31721 31722 0.599
31723 31724 0.21
31724 31725 0.169
31728 31731 0.13
31728 31737 0.736
31729 31730 0.535
31730 31736 0.234
31731 31732 0.212
31732 31733 0.27
31733 31734 0.258
31734 31735 0.263
31735 31736 0.445
31737 31739 0.572
31738 31744 1.371
31739 31740 0.245
31740 31741 0.273
31741 31742 0.244
31742 31743 0.403
31743 31744 0.235
31747 31748 0.353
31748 31756 0.08
31750 31751 0.466
31751 31752 0.326
31752 31753 0.36
31754 31755 0.309
31756 31757 0.665
31757 31758 0.375
31760 31761 0.397
31762 31763 0.293
31764 31765 0.317
31765 31766 0.305
31772 31774 2.169
31773 31774 0.171
31775 31776 0.071
31776 31777 0.13
31777 31778 0.16
31778 31779 0.268
31779 31784 0.199
31780 31782 0.267
31780 31784 0.079
31781 31782 0.488
31781 31783 0.783
31786 31787 0.183
31789 31790 0.301
31789 31791 0.239
31789 31792 0.137
31790 31792 0.17
31790 31793 0.168
31790 31794 0.262
31793 31794 0.092
31794 31808 0.063
31794 31809 0.036
31795 31796 0.061
31795 31797 0.112
31795 31798 0.015
31795 31808 0.168
31796 31808 0.112
31797 31798 0.098
31797 31799 0.122
31797 31800 0.182
31799 31800 0.057
31800 31802 0.133
31800 32798 0.015
31801 31802 0.078
31801 31804 0.26
31801 31806 0.131
31801 31807 0.036
31802 31807 0.042
31802 32798 0.12
31803 31804 0.133
31803 31805 0.046
31804 31805 0.084
31804 31806 0.132
31808 31809 0.027
31810 31811 0.903
31814 31816 0.242
31815 31816 0.147
31817 31818 0.447
31824 31827 0.195
31825 31826 0.203
31832 31833 0.264
31833 31834 0.179
31835 31837 0.082
31836 31837 0.207
31838 31839 0.227
31840 31841 0.216
31841 32885 0.088
31846 31847 0.208
31847 31848 0.036
31847 31849 0.115
31848 31850 0.182
31851 31852 0.085
31855 31856 0.139
31856 31857 0.159
31860 31861 0.123
31860 31862 0.12
31863 31864 0.098
31866 31869 0.101
31866 31870 0.13
31867 31870 0.122
31868 31869 0.167
31873 32834 0.063
31874 31875 0.079
31876 31877 0.104
31877 31878 0.036
31878 31879 0.085
31879 31880 0.108
31880 31881 0.052
31881 31883 0.049
31882 31883 0.051
31887 31888 0.196
31891 31892 0.175
31892 31893 0.302
31893 31894 0.133
31896 32773 0.232
31897 31898 0.288
31903 31904 0.103
31904 31905 0.281
31905 31906 0.096
31907 31908 0.083
31909 31910 0.719
31910 31911 0.284
31911 31912 0.093
31913 31914 0.217
31917 31918 0.054
31917 31921 0.145
31919 31920 0.131
31920 31921 0.095
31922 31923 0.076
31926 32909 0.335
31928 31931 0.066
31928 31938 0.273
31929 31930 0.128
31930 31932 0.245
31931 31932 0.063
31932 31933 0.566
31934 31935 0.216
31935 31936 0.109
31936 31937 0.211
31936 31939 0.219
31937 31938 0.053
31940 31941 0.299
31941 31942 0.238
31942 31943 0.185
31945 31946 0.207
31945 31950 0.248
31946 31947 0.278
31947 31948 0.231
31948 31949 0.39
31949 31951 0.119
31952 31953 0.125
31954 31955 0.261
31956 31957 0.213
31959 31960 0.224
31961 31962 0.286
31962 31963 0.2
31963 31964 0.214
31964 31965 0.06
31972 31974 0.083
31973 31974 0.051
31975 31976 0.07
31977 32872 0.107
31977 32887 0.071
31978 31979 0.904
31979 31980 0.511
31983 31985 0.027
31984 31985 0.444
31987 31989 0.107
31988 31990 0.148
31989 31990 0.327
31991 31992 0.242
31993 31994 0.118
31993 31995 0.328
31996 32002 0.1
31997 31999 0.115
31997 32002 0.356
31998 31999 0.042
31998 32000 0.5
32000 32001 0.208
32003 32005 0.197
32004 32005 0.353
32005 32006 0.68
32008 32009 0.145
32009 32010 0.122
32010 32011 0.364
32010 32012 0.295
32013 32014 0.466
32014 32015 0.227
32015 32016 0.414
32015 32018 0.427
32017 32018 0.193
32019 32020 0.062
32019 32021 0.323
32021 32022 0.228
32022 32023 0.212
32025 32026 0.241
32026 32027 0.04
32028 32032 0.05
32029 32032 0.096
32030 32031 0.264
32032 32033 0.581
32033 32035 0.289
32034 32035 0.093
32034 32036 0.321
32038 32039 0.308
32041 32042 0.051
32041 32045 0.375
32042 32043 0.382
32048 32049 0.102
32049 32052 0.26
32050 32051 0.132
32050 32052 0.04
32051 32875 0.09
32053 32054 0.076
32054 32056 0.23
32055 32875 0.019
32056 32875 0.058
32058 32059 0.209
32058 32060 0.111
32067 32068 0.3
32069 32876 0.173
32069 32903 0.249
32071 32073 0.277
32072 32073 0.193
32074 32075 0.035
32074 32076 0.259
32075 32078 0.208
32075 32079 0.406
32076 32077 0.233
32085 32612 0.079
32087 32088 0.042
32096 32097 0.014
32096 32098 0.17
32097 32100 0.419
32098 32099 0.215
32099 32100 0.389
32106 32107 0.17
32107 32108 0.202
32108 32109 0.268
32110 32111 0.103
32111 32112 0.095
32112 32113 0.135
32118 32119 0.233
32119 32120 0.425
32120 32121 0.206
32135 32136 0.128
32140 32141 0.095
32141 32142 0.124
32142 32143 0.176
32150 32151 0.085
32151 32152 0.18
32154 32155 0.291
32155 32156 0.13
32157 32158 0.165
32158 32159 0.102
32159 32160 0.07
32166 32167 0.195
32167 32168 0.272
32169 32170 0.271
32170 32171 0.125
32180 32181 0.314
32185 32186 0.439
32185 32187 0.417
32187 32188 0.281
32188 32189 0.408
32189 32190 0.234
32196 32205 0.311
32199 32200 0.239
32200 32201 0.074
32201 32204 0.398
32202 32203 0.069
32202 32204 0.141
32212 32213 0.049
32213 32216 0.276
32214 32215 0.332
32214 32216 0.508
32215 32883 0.163
32217 32218 0.445
32219 32220 0.099
32220 32221 0.192
32222 32223 0.44
32226 32227 0.347
32227 32230 0.215
32228 32229 0.27
32228 32232 0.107
32229 32230 0.226
32231 32908 0.088
32232 32908 0.027
32233 32237 0.095
32234 32235 0.624
32235 32236 0.399
32236 32237 0.388
32240 32241 0.22
32241 32242 0.158
32242 32244 0.354
32243 32244 0.247
32243 32907 0.121
32249 32250 0.083
32250 32251 0.183
32251 32252 0.137
32252 32253 0.212
32253 32254 0.168
32254 32920 0.029
32255 32256 0.241
32255 32920 0.308
32258 32261 0.18
32259 32912 0.139
32260 32265 0.282
32260 32912 0.059
32261 32913 0.037
32262 32263 0.243
32262 32913 0.027
32263 32264 0.171
32264 32265 0.207
32266 32267 0.118
32268 32269 0.127
32269 32270 0.165
32271 32272 0.025
32272 32274 0.2
32272 32280 0.086
32273 32275 0.243
32273 32280 0.237
32274 32281 0.49
32275 32276 0.236
32276 32277 0.245
32277 32278 0.263
32278 32279 0.088
32279 32282 0.094
32281 32282 0.157
32283 32284 0.158
32283 32835 0.161
32284 32835 0.302
32285 32290 0.219
32285 32835 0.044
32286 32289 0.212
32286 32290 0.199
32287 32288 0.218
32287 32873 0.352
32288 32289 0.201
32292 32293 0.152
32293 32294 0.215
32294 32295 0.17
32295 32301 0.232
32296 32297 0.052
32297 32298 0.31
32298 32299 0.236
32299 32300 0.343
32300 32301 0.172
32302 32304 0.489
32303 32304 0.049
32303 32305 0.033
32306 32307 1.382
32312 32313 0.087
32312 32314 0.157
32314 32315 0.19
32315 32316 0.227
32316 32317 0.223
32317 32321 0.192
32318 32319 0.112
32318 32321 0.031
32320 32322 0.337
32321 32322 0.037
32323 32324 0.066
32326 32327 0.414
32327 32328 0.034
32330 32331 0.057
32330 32332 0.246
32333 32334 0.047
32334 32335 0.13
32335 32336 0.142
32336 32337 0.131
32336 32338 0.254
32339 32916 0.03
32340 32836 0.174
32341 32342 0.316
32341 32836 0.112
32342 32343 0.202
32343 32344 0.11
32345 32346 0.162
32345 32836 0.291
32346 32916 0.571
32348 32910 0.429
32348 32911 0.052
32352 32353 0.113
32353 32354 0.184
32358 32359 0.24
32359 32360 0.147
32360 32361 0.105
32361 32837 0.518
32362 32837 0.382
32364 32365 0.305
32367 32368 0.217
32368 32369 0.199
32371 32372 0.083
32375 32376 0.182
32382 32858 0.314
32382 32859 0.098
32383 32384 0.18
32384 32838 0.036
32385 32838 0.306
32386 32838 0.289
32389 32390 0.113
32390 32391 0.093
32391 32392 0.083
32392 32393 0.102
32395 32396 0.358
32397 32398 0.305
32399 32405 0.451
32401 32402 0.274
32408 32409 0.121
32408 32419 0.088
32409 32416 0.2
32410 32419 0.039
32411 32412 0.128
32411 32417 0.227
32412 32413 0.351
32414 32415 0.147
32414 32418 0.025
32420 32878 0.338
32420 32879 0.202
32421 32422 0.199
32430 32431 0.147
32431 32432 0.164
32432 32433 0.117
32433 32434 0.13
32437 32438 0.564
32437 32441 0.731
32438 32439 0.355
32439 32440 0.46
32440 32441 0.794
32441 32442 0.137
32442 32443 0.129
32444 32445 0.198
32446 32447 0.787
32451 32452 0.478
32453 32454 0.627
32456 32457 0.399
32459 32460 0.383
32460 32461 0.315
32462 32464 0.773
32463 32464 0.184
32465 32466 0.635
32467 32469 0.201
32468 32469 0.186
32469 32471 0.07
32470 32471 0.07
32470 32472 0.063
32473 32474 0.103
32474 32475 0.853
32477 32478 0.336
32478 32480 0.252
32479 32480 0.041
32479 32481 0.236
32481 32482 0.134
32482 32483 0.266
32483 32484 0.098
32485 32486 0.21
32487 32489 0.098
32487 32490 0.195
32495 32497 0.353
32496 32497 0.035
32498 32921 0.158
32498 32923 0.291
32499 32500 0.358
32502 32503 0.399
32508 32510 0.103
32508 32839 0.217
32509 32512 0.175
32509 32513 0.148
32510 32512 0.196
32511 32514 0.199
32511 32839 0.02
32513 32839 0.041
32516 32784 0.121
32517 32518 0.037
32517 32785 0.226
32517 32786 0.28
32518 32519 0.233
32519 32784 0.199
32520 32521 0.378
32522 32523 0.216
32524 32525 0.194
32525 32526 0.095
32527 32528 0.159
32528 32529 0.408
32530 32531 0.12
32530 32533 0.388
32531 32532 0.215
32532 32533 0.169
32535 32536 0.134
32536 32537 0.253
32540 32541 0.258
32544 32874 0.143
32544 32884 0.259
32555 32556 0.105
32556 32557 0.29
32557 32558 0.189
32558 32863 0.049
32559 32560 0.109
32561 32562 0.07
32563 32565 0.485
32564 32565 0.034
32567 32568 0.03
32568 32569 0.274
32569 32570 0.112
32571 32886 0.226
32575 32576 0.203
32576 32577 0.169
32579 32580 0.297
32580 32581 0.111
32582 32583 0.224
32585 32586 0.217
32586 32587 0.046
32591 32592 0.215
32592 32593 0.203
32596 32597 0.11
32596 32599 0.11
32597 32600 0.215
32602 32603 0.104
32603 32604 0.122
32605 32606 0.768
32610 32611 0.189
32610 32612 0.162
32620 32918 0.165
32620 32919 0.357
32623 32624 0.18
32624 32625 0.204
32628 32631 0.201
32629 32630 0.147
32630 32631 0.028
32632 32633 0.052
32632 32915 0.389
32633 32634 0.695
32634 32635 0.041
32635 32915 0.619
32642 32643 0.271
32645 32761 1.653
32648 32649 0.039
32648 32651 0.177
32650 32651 0.058
32655 32656 0.305
32656 32657 0.513
32660 32871 0.222
32670 32671 0.125
32672 32676 0.513
32673 32674 0.046
32674 32675 0.159
32675 32676 0.092
32677 32678 0.218
32678 32681 0.183
32679 32680 0.279
32680 32684 0.124
32681 32684 0.029
32682 32683 0.221
32682 32684 0.046
32687 32688 0.137
32689 32690 0.206
32692 32693 0.112
32692 32694 0.17
32693 32694 0.165
32699 32700 0.042
32700 32701 0.288
32701 32702 0.181
32702 32703 0.274
32703 32704 0.033
32705 32706 0.117
32706 32707 0.323
32707 32708 0.123
32708 32709 0.102
32709 32711 0.156
32710 32711 0.045
32710 32712 0.278
32712 32713 0.256
32713 32714 0.175
32719 32720 0.113
32723 32724 0.211
32723 32726 0.482
32724 32725 0.259
32725 32726 0.236
32731 32732 0.317
32732 32733 0.362
32734 32735 0.28
32736 32738 0.065
32736 32741 0.214
32737 32739 0.298
32737 32740 0.356
32738 32739 0.178
32742 32746 0.08
32743 32744 0.101
32743 32746 0.124
32744 32840 0.081
32745 32840 0.038
32747 32748 0.057
32747 32750 0.573
32748 32749 0.055
32748 32751 0.438
32749 32841 0.537
32750 32841 0.053
32751 32752 0.215
32752 32753 1.311
32753 32754 0.226
32754 32755 1.704
32755 32756 0.127
32756 32757 1.34
32758 32759 0.045
32758 32761 0.533
32759 32762 1.014
32760 32761 0.103
32760 32762 0.437
32763 32764 3.141
32764 32771 0.236
32765 32766 0.294
32767 32768 0.109
32768 32769 0.253
32769 32770 0.412
32774 32778 0.315
32775 32778 0.298
32776 32777 0.349
32777 32779 0.319
32781 32782 0.267
32784 32785 0.247
32787 32788 0.078
32790 32791 0.096
32791 32914 0.02
32792 32793 0.511
32793 32794 0.027
32796 32797 0.186
32799 32800 0.253
32799 32804 0.39
32800 32801 0.285
32800 32805 0.421
32801 32802 0.143
32803 32804 0.23
32803 32806 0.183
32807 32811 0.132
32807 32814 0.525
32808 32810 0.218
32808 32842 0.23
32809 32810 0.037
32809 32812 0.211
32810 32811 0.339
32811 32815 0.206
32812 32813 0.203
32812 32816 0.222
32814 32815 0.201
32815 32817 0.191
32816 32817 0.151
32816 32818 0.033
32817 32819 0.047
32820 32822 0.041
32820 32864 0.019
32821 32822 0.031
32822 32865 0.154
32823 32824 0.311
32823 32888 0.269
32823 32917 0.129
32825 32826 0.064
32827 32904 0.123
32828 32906 0.291
32829 32901 0.196
32842 32854 0.163
32843 32856 0.085
32845 32898 0.413
32912 32913 0.224
32928 32953 2.902
32930 32944 0.045
32931 32942 0.363
32931 32944 0.033
32932 32934 9.104
32934 32936 0.94
32936 32937 0.145
32940 32941 0.286
32950 32951 1.377
32951 32953 2.442
