0 1 10.0
0 2 14.0
1 2 5344.0
1 4 918.0
1 10 17.0
1 24 117.0
1 30 310.0
1 31 131624.0
1 33 149.0
1 281 1.0
1 282 2130.0
1 283 160.0
1 284 44.0
1 285 2.0
1 286 3.0
1 287 60.0
1 288 148.0
1 289 2.0
1 290 1.0
1 291 122.0
1 292 1165.0
1 293 2.0
1 294 15.0
1 295 121.0
1 296 5000.0
1 297 44.0
1 298 60.0
1 299 16.0
1 300 24.0
1 301 55.0
1 302 774.0
1 303 6152.0
1 304 4253.0
1 305 4.0
1 306 44.0
1 307 7.0
1 308 88.0
1 309 5.0
1 310 7.0
1 311 6.0
1 1392 3.0
2 31 1.0
2 282 2.0
2 288 24.0
2 296 19.0
2 302 9.0
2 303 29.0
2 304 110.0
3 4 7.0
4 11 855.0
4 17 895.0
4 18 10641.0
4 21 54.0
4 28 49.0
4 31 50938.0
4 37 20.0
4 38 74.0
4 39 2.0
4 40 70.0
4 282 8.0
4 289 5.0
4 292 10.0
4 296 11.0
4 303 1.0
4 368 16.0
4 424 26.0
4 425 43.0
4 449 1.0
4 530 3.0
4 531 10.0
4 920 2.0
4 1263 5616.0
4 1264 4432.0
4 1265 4.0
5 6 7.0
5 7 28265.0
6 7 9145.0
6 746 566.0
6 809 33.0
6 832 226.0
6 1067 1612.0
7 113 2.0
7 135 51.0
7 188 368.0
7 199 5.0
7 224 6.0
7 746 132.0
7 832 79529.0
7 1067 2113.0
7 1501 11.0
7 1529 20.0
8 9 8.0
9 45 389476.0
9 47 3.0
9 48 76.0
9 50 400.0
9 51 144.0
9 52 10.0
9 54 73566.0
9 58 298.0
9 59 112790.0
9 60 2.0
9 61 183545.0
9 62 46.0
9 65 34.0
9 66 22.0
9 67 35.0
9 68 43793.0
9 69 39.0
9 70 25.0
9 74 6.0
9 75 16.0
9 77 6.0
9 79 324588.0
9 80 31.0
9 81 111.0
9 82 135.0
9 83 48.0
9 84 79.0
9 86 5.0
9 87 230125.0
9 89 69126.0
9 91 44.0
9 96 122574.0
9 100 14.0
9 101 28.0
9 104 19.0
9 105 3403.0
9 107 4.0
9 123 39.0
9 124 48.0
9 127 57.0
9 128 45.0
9 132 90.0
9 134 96.0
9 135 75.0
9 139 2.0
9 142 6819.0
9 144 5.0
9 145 76966.0
9 146 81.0
9 147 12.0
9 149 111.0
9 156 247.0
9 158 67.0
9 160 2.0
9 163 25.0
9 170 15.0
9 173 89.0
9 174 1.0
9 176 1.0
9 180 283084.0
9 182 2.0
9 185 41.0
9 187 836.0
9 191 2.0
9 193 3.0
9 202 63874.0
9 211 83.0
9 215 4663.0
9 220 28.0
9 222 21.0
9 224 39.0
9 225 2.0
9 226 2418.0
9 227 5.0
9 228 23.0
9 229 2.0
9 230 52.0
9 231 5.0
9 235 7.0
9 239 188.0
9 245 17.0
9 248 63.0
9 249 1.0
9 251 28.0
9 258 40.0
9 262 6.0
9 268 10.0
9 270 21.0
9 272 132.0
9 273 28.0
9 274 4.0
9 275 1.0
9 276 8.0
9 277 16.0
9 313 4.0
9 337 8.0
9 351 133.0
9 353 5.0
9 358 14.0
9 359 28.0
9 363 11.0
9 378 3.0
9 461 1.0
9 462 5.0
9 463 3.0
9 464 43.0
9 471 97.0
9 472 19.0
9 496 2.0
9 545 230.0
9 580 2.0
9 587 2.0
9 590 193.0
9 610 5.0
9 632 1.0
9 658 1.0
9 662 44.0
9 672 128.0
9 686 2.0
9 694 7.0
9 696 26.0
9 708 6.0
9 714 2.0
9 718 10.0
9 720 31.0
9 721 5.0
9 747 16.0
9 748 3.0
9 751 14.0
9 753 4.0
9 790 10.0
9 791 4.0
9 794 14.0
9 829 31.0
9 837 11.0
9 838 9.0
9 841 186.0
9 842 25.0
9 850 1.0
9 853 6.0
9 854 3296.0
9 859 1.0
9 860 21.0
9 863 12.0
9 864 11.0
9 868 17.0
9 870 2.0
9 879 2.0
9 896 3.0
9 897 13.0
9 900 2.0
9 903 4.0
9 922 1.0
9 923 12.0
9 935 8.0
9 936 17.0
9 961 6.0
9 962 14.0
9 1048 5.0
9 1065 2.0
9 1110 1.0
9 1127 12.0
9 1148 3.0
9 1151 2.0
9 1154 57.0
9 1176 9.0
9 1177 58.0
9 1178 26.0
9 1184 4.0
9 1186 8.0
9 1196 9.0
9 1235 2.0
9 1239 1.0
9 1240 3.0
9 1268 1.0
9 1269 5.0
9 1270 1.0
9 1271 1.0
9 1272 4.0
9 1273 8.0
9 1274 1.0
9 1275 12.0
9 1276 2.0
9 1277 4.0
9 1278 12.0
9 1279 6.0
9 1280 5.0
9 1281 5.0
9 1282 5.0
9 1283 10.0
9 1284 8.0
9 1285 2.0
9 1286 1.0
9 1287 12.0
9 1288 3.0
9 1289 10.0
9 1290 10.0
9 1291 2.0
9 1292 6.0
9 1325 3.0
9 1327 2.0
9 1455 1.0
9 1462 2.0
9 1485 1.0
10 283 4.0
12 13 8.0
12 14 2.0
13 14 8112.0
13 20 300.0
13 21 3873.0
13 31 50776.0
13 42 332.0
13 114 3059.0
13 115 5961.0
13 117 5558.0
13 118 1929.0
13 119 7220.0
13 120 3249.0
13 121 2954.0
13 122 6631.0
13 204 14.0
13 289 75.0
13 325 29.0
13 328 267.0
13 331 2.0
13 335 15.0
13 387 13.0
13 390 34.0
13 391 7436.0
13 392 126.0
13 396 91.0
13 506 351.0
13 507 1.0
13 513 5110.0
13 522 1.0
13 525 26.0
13 529 19.0
13 534 40.0
13 550 54.0
13 702 8.0
13 703 12.0
13 825 2004.0
13 826 51.0
13 827 66.0
13 885 4.0
13 943 7.0
13 1068 5351.0
13 1098 2.0
13 1190 18.0
13 1430 3.0
14 21 15.0
14 114 143.0
14 115 179.0
14 116 12.0
14 117 64.0
14 118 43.0
14 119 397.0
14 120 480.0
14 121 232.0
14 122 12.0
14 391 9.0
14 513 16.0
14 524 2.0
14 825 11.0
14 1068 22.0
15 16 2.0
16 21 2.0
16 26 169.0
16 31 16400.0
16 328 49.0
16 333 1.0
16 335 16.0
16 395 88.0
16 396 4285.0
16 397 1.0
16 398 9.0
16 400 30.0
16 401 2845.0
16 404 12.0
16 405 27.0
16 410 884.0
16 412 76.0
16 421 863.0
16 430 1.0
16 487 913.0
16 500 1370.0
16 507 59.0
16 510 17.0
16 522 148.0
16 524 987.0
16 526 553.0
16 534 57.0
16 546 2.0
16 547 838.0
16 548 28.0
16 549 1603.0
16 550 4.0
16 551 8.0
16 552 10.0
16 553 252.0
16 554 38.0
16 699 3.0
16 754 1.0
16 758 3.0
17 18 7.0
17 31 9.0
18 422 4.0
18 425 2.0
18 1263 278.0
18 1264 283.0
19 20 17.0
19 21 15.0
19 22 3.0
19 326 2.0
20 21 18883.0
20 27 13.0
20 31 37577.0
20 42 3605.0
20 325 259.0
20 326 4.0
20 328 1.0
20 387 7365.0
20 388 4297.0
20 389 507.0
20 390 3055.0
20 391 607.0
20 392 2905.0
20 454 7.0
20 506 2.0
20 513 114.0
20 515 4.0
20 534 1.0
20 878 14.0
21 22 36.0
21 23 194.0
21 26 105.0
21 31 415807.0
21 41 6.0
21 42 7719.0
21 45 1171.0
21 73 5.0
21 79 148.0
21 112 6934.0
21 114 31.0
21 116 4.0
21 118 35.0
21 119 8.0
21 121 46.0
21 122 5.0
21 146 15080.0
21 164 2115.0
21 173 49817.0
21 181 107.0
21 189 20.0
21 194 252420.0
21 292 142.0
21 293 505.0
21 314 200.0
21 324 4360.0
21 325 6383.0
21 326 2329.0
21 327 439.0
21 328 15762.0
21 329 4944.0
21 330 1907.0
21 331 1677.0
21 332 303.0
21 333 2594.0
21 334 3062.0
21 335 1565.0
21 336 5889.0
21 365 2813.0
21 367 658.0
21 373 3425.0
21 387 159.0
21 388 8.0
21 389 2780.0
21 390 155.0
21 391 71.0
21 392 51.0
21 396 72.0
21 398 35.0
21 401 16.0
21 413 16.0
21 436 6.0
21 438 7.0
21 449 45.0
21 453 404.0
21 454 170.0
21 455 1669.0
21 456 82.0
21 487 21.0
21 489 8.0
21 494 1436.0
21 496 3118.0
21 497 336.0
21 498 669.0
21 499 7.0
21 500 68.0
21 501 1873.0
21 503 852.0
21 507 205.0
21 509 1094.0
21 510 55.0
21 513 117.0
21 515 152.0
21 518 529.0
21 523 2.0
21 524 44.0
21 528 4.0
21 529 30.0
21 531 2.0
21 534 81.0
21 540 25.0
21 541 236.0
21 542 9.0
21 543 281.0
21 549 10.0
21 565 3155.0
21 566 31.0
21 567 982.0
21 568 13283.0
21 569 3731.0
21 700 10.0
21 702 2.0
21 758 2.0
21 826 3.0
21 827 2.0
21 878 3.0
21 920 11.0
21 963 29.0
21 970 14.0
21 971 296.0
21 974 16.0
21 1018 4.0
21 1027 78.0
21 1068 5.0
21 1090 2.0
21 1104 28.0
21 1105 1791.0
21 1129 4.0
21 1130 2.0
21 1131 45.0
21 1132 1.0
21 1133 569.0
21 1134 64.0
21 1135 16.0
21 1136 104.0
21 1137 145.0
21 1138 42.0
21 1139 20.0
21 1140 2.0
21 1141 334.0
21 1142 389.0
21 1143 26.0
21 1187 24.0
21 1197 1.0
21 1364 8.0
22 26 5.0
22 31 1.0
22 119 9.0
22 122 20.0
22 188 239.0
22 314 240.0
22 324 17.0
22 326 23.0
22 328 169.0
22 329 38.0
22 330 35.0
22 332 1.0
22 333 1.0
22 335 218.0
22 336 14.0
22 438 9.0
22 454 9.0
22 455 16.0
22 507 22.0
22 515 34.0
22 534 32.0
22 550 11.0
22 565 14.0
22 568 132.0
22 569 43.0
22 732 101.0
22 963 16.0
22 974 34.0
22 1027 10.0
22 1145 4.0
22 1540 8.0
25 26 1.0
25 502 1.0
26 31 7951.0
26 122 3.0
26 289 19.0
26 309 124.0
26 328 47.0
26 331 2.0
26 333 22.0
26 396 4444.0
26 398 1620.0
26 400 105.0
26 401 5.0
26 402 9.0
26 403 3.0
26 405 287.0
26 407 19.0
26 409 1034.0
26 410 241.0
26 411 213.0
26 412 15.0
26 413 67.0
26 415 5.0
26 421 2.0
26 424 1.0
26 430 18.0
26 487 2.0
26 500 6.0
26 502 689.0
26 507 40.0
26 513 36.0
26 515 16.0
26 524 3.0
26 534 99.0
26 549 9.0
26 550 187.0
26 689 2.0
26 699 899.0
26 700 1229.0
26 701 153.0
26 702 23.0
26 703 78.0
26 754 10.0
26 757 17.0
26 759 7.0
26 826 1.0
29 30 1031.0
29 31 8.0
29 32 12.0
29 33 2.0
29 34 13.0
29 35 1.0
29 36 2.0
30 31 53478.0
30 32 2334.0
30 33 9.0
30 34 1317.0
30 35 334.0
30 36 459.0
30 194 868.0
30 282 24.0
30 289 4104.0
30 291 152.0
30 294 1298.0
30 296 12.0
30 305 1362.0
30 309 16.0
30 396 29.0
30 397 4.0
30 402 20.0
30 418 184.0
30 419 132.0
30 420 388.0
30 421 18.0
30 422 7.0
30 423 5.0
30 424 367.0
30 425 526.0
30 426 919.0
30 427 993.0
30 428 5.0
30 429 19.0
30 430 4.0
30 431 447.0
30 432 22.0
30 433 152.0
30 434 64.0
30 435 721.0
30 436 3.0
30 437 56.0
30 438 53.0
30 439 67.0
30 440 60.0
30 441 98.0
30 442 2.0
30 443 31.0
30 444 17.0
30 445 703.0
30 446 5.0
30 447 6126.0
30 448 67.0
30 449 34.0
30 450 42.0
30 451 293.0
30 452 3.0
30 507 2.0
30 527 18.0
30 535 7.0
30 689 1.0
30 801 1.0
30 1367 3.0
31 32 7.0
31 42 58834.0
31 45 40003.0
31 56 44911.0
31 59 25595.0
31 68 2.0
31 73 1047.0
31 78 665.0
31 79 801.0
31 82 31.0
31 87 184223.0
31 89 28625.0
31 96 52.0
31 105 26.0
31 112 137467.0
31 116 15.0
31 120 14073.0
31 123 29.0
31 132 4.0
31 136 78.0
31 137 87.0
31 145 1035.0
31 146 81390.0
31 149 20787.0
31 158 102731.0
31 163 1409.0
31 164 43353.0
31 171 1.0
31 173 258246.0
31 181 168360.0
31 182 80913.0
31 187 17.0
31 194 1309597.0
31 195 38328.0
31 197 8.0
31 202 3.0
31 204 21764.0
31 276 2.0
31 280 4075.0
31 287 29215.0
31 289 48575.0
31 291 48660.0
31 292 162463.0
31 296 61.0
31 305 10.0
31 309 29.0
31 314 564.0
31 316 405.0
31 325 33.0
31 328 536.0
31 331 7.0
31 333 9.0
31 334 9.0
31 336 2.0
31 365 141901.0
31 367 25479.0
31 373 2685.0
31 387 91.0
31 389 81.0
31 390 34.0
31 391 24.0
31 392 46.0
31 393 36.0
31 394 126.0
31 396 111945.0
31 398 824.0
31 402 6.0
31 405 5.0
31 407 15.0
31 408 9.0
31 410 46.0
31 413 64.0
31 417 74475.0
31 419 10404.0
31 424 84.0
31 425 7511.0
31 426 10.0
31 428 141.0
31 433 516.0
31 434 18.0
31 436 31.0
31 438 218.0
31 444 102.0
31 446 40.0
31 448 7486.0
31 449 30900.0
31 475 1.0
31 487 384.0
31 488 16.0
31 489 24.0
31 490 178.0
31 491 7.0
31 492 387.0
31 493 81.0
31 494 36.0
31 495 20.0
31 496 19797.0
31 497 784.0
31 498 997.0
31 499 113.0
31 500 2.0
31 501 1049.0
31 502 2.0
31 503 25579.0
31 504 6.0
31 505 372.0
31 506 13.0
31 507 8030.0
31 508 10.0
31 509 1468.0
31 510 15.0
31 511 65.0
31 512 18156.0
31 513 59159.0
31 514 45.0
31 515 8.0
31 516 8.0
31 517 85.0
31 518 713.0
31 519 4773.0
31 520 29.0
31 521 2.0
31 522 82.0
31 523 2.0
31 524 35.0
31 525 12.0
31 526 16.0
31 527 6047.0
31 528 1018.0
31 529 41.0
31 530 6.0
31 531 5.0
31 532 3.0
31 533 69595.0
31 534 12441.0
31 535 120.0
31 536 2.0
31 537 4228.0
31 538 6643.0
31 539 203.0
31 540 7.0
31 541 473.0
31 542 19.0
31 543 336.0
31 549 10.0
31 627 9.0
31 702 31.0
31 703 8.0
31 812 1.0
31 826 15.0
31 827 20.0
31 861 2.0
31 920 4.0
31 940 313.0
31 1090 4.0
31 1097 2.0
31 1102 525.0
31 1134 65.0
31 1190 15.0
31 1493 1.0
32 33 12.0
32 34 43.0
32 36 2.0
32 289 4.0
32 294 4.0
32 305 17.0
32 396 3.0
32 418 2.0
32 420 9.0
32 425 43.0
32 426 6.0
32 427 4.0
32 431 15.0
32 433 24.0
32 435 2.0
32 519 30.0
33 289 17.0
33 402 20.0
33 420 4.0
33 425 31.0
33 430 2.0
33 433 8.0
33 505 1.0
33 756 8.0
33 979 2.0
34 35 21.0
34 36 1.0
34 289 1.0
34 294 17.0
34 305 175.0
34 425 3.0
34 426 21.0
34 427 36.0
34 431 8.0
34 433 2.0
34 435 12.0
34 535 4.0
35 36 1.0
35 289 2.0
35 294 3.0
35 305 10.0
35 427 2.0
36 289 28.0
36 397 3.0
36 420 3.0
36 424 2.0
41 42 7.0
42 325 3.0
42 387 17.0
42 388 6.0
42 389 1876.0
42 390 2120.0
42 454 13.0
42 513 20.0
42 878 9.0
42 1518 140.0
43 44 191.0
43 45 74401.0
43 46 47.0
43 47 36.0
43 48 40.0
43 49 108.0
43 50 33.0
43 51 118.0
43 52 22.0
43 53 3005.0
43 54 121501.0
43 55 52.0
43 56 178.0
43 57 15.0
43 58 259.0
43 59 90691.0
43 60 115.0
43 61 15699.0
43 62 10.0
43 63 10.0
43 64 2.0
43 65 47.0
43 66 153.0
43 67 39.0
43 68 58764.0
43 69 426.0
43 70 2.0
43 71 403.0
43 72 358.0
43 73 142.0
43 74 75.0
43 75 50.0
43 76 1214.0
43 77 48.0
43 78 76.0
43 79 144907.0
43 80 96.0
43 81 82.0
43 82 210.0
43 83 41.0
43 84 47.0
43 85 17559.0
43 86 439.0
43 87 143514.0
43 88 2334.0
43 89 90419.0
43 90 39885.0
43 91 137.0
43 92 13.0
43 93 2.0
43 94 144.0
43 95 39.0
43 96 151.0
43 97 6852.0
43 98 1.0
43 99 1.0
43 100 2.0
43 101 2.0
43 102 37.0
43 103 1012.0
43 104 8.0
43 105 4413.0
43 137 354.0
43 145 25.0
43 146 466.0
43 149 28.0
43 158 69.0
43 164 5.0
43 176 60.0
43 180 92.0
43 181 7.0
43 182 3.0
43 187 66.0
43 193 35.0
43 239 9.0
43 244 2.0
43 248 21.0
43 257 59.0
43 258 77.0
43 268 165.0
43 271 19.0
43 313 41.0
43 349 54.0
43 375 6.0
43 462 65.0
43 466 9.0
43 470 7.0
43 571 81.0
43 584 1.0
43 610 16.0
43 618 2.0
43 656 9.0
43 670 5.0
43 791 980.0
43 839 141.0
43 841 33.0
43 936 10.0
44 50 8.0
44 55 3.0
44 65 1.0
44 69 67.0
44 173 44451.0
44 176 151.0
44 278 240.0
44 374 247.0
44 475 105.0
44 476 224.0
44 477 326.0
44 584 41.0
45 46 36496.0
45 48 506473.0
45 49 79.0
45 50 553657.0
45 51 653695.0
45 53 353665.0
45 54 1487934.0
45 55 608915.0
45 56 2066603.0
45 57 25.0
45 58 101467.0
45 59 1296838.0
45 61 2273214.0
45 62 445178.0
45 63 70408.0
45 64 313464.0
45 65 284.0
45 66 320198.0
45 67 339931.0
45 68 881220.0
45 69 324504.0
45 70 190985.0
45 71 824562.0
45 72 1376658.0
45 73 612767.0
45 75 258281.0
45 76 2219415.0
45 77 307337.0
45 78 807647.0
45 79 2606062.0
45 80 902346.0
45 81 873265.0
45 82 773834.0
45 83 317676.0
45 84 4978.0
45 85 241636.0
45 86 302314.0
45 87 1288907.0
45 89 1539075.0
45 90 197.0
45 91 869591.0
45 92 46047.0
45 93 320.0
45 94 830311.0
45 95 129927.0
45 96 1028600.0
45 98 190842.0
45 99 8866.0
45 100 671778.0
45 101 833572.0
45 102 162660.0
45 103 23158.0
45 104 314770.0
45 105 332637.0
45 107 166997.0
45 112 1019243.0
45 123 270073.0
45 124 134347.0
45 127 441666.0
45 128 478496.0
45 131 3.0
45 132 1464712.0
45 134 633676.0
45 136 1339531.0
45 137 694906.0
45 139 104619.0
45 142 487364.0
45 144 186.0
45 145 1640440.0
45 146 1480033.0
45 147 170215.0
45 148 28.0
45 149 961503.0
45 151 1683.0
45 152 99.0
45 153 65227.0
45 156 640812.0
45 157 2284.0
45 158 763317.0
45 163 1453131.0
45 164 1846042.0
45 166 65.0
45 168 269148.0
45 169 868.0
45 170 73207.0
45 173 1398269.0
45 174 1089184.0
45 175 31291.0
45 176 225089.0
45 177 187688.0
45 178 156303.0
45 179 522546.0
45 180 1090639.0
45 181 337461.0
45 182 1124763.0
45 184 205.0
45 185 203472.0
45 186 40503.0
45 187 1195504.0
45 188 2116.0
45 189 710257.0
45 190 916131.0
45 193 393705.0
45 194 962284.0
45 195 1091182.0
45 196 93434.0
45 197 50467.0
45 198 203341.0
45 199 381573.0
45 201 307027.0
45 202 1852081.0
45 203 209959.0
45 204 11068.0
45 208 6229.0
45 209 69583.0
45 211 155923.0
45 212 1695.0
45 214 25427.0
45 219 354.0
45 229 2.0
45 230 117661.0
45 238 9791.0
45 239 309049.0
45 244 114134.0
45 245 271341.0
45 247 165.0
45 248 332340.0
45 249 488237.0
45 251 127465.0
45 252 519151.0
45 254 345029.0
45 255 237116.0
45 256 62746.0
45 257 170977.0
45 258 353353.0
45 264 371866.0
45 265 235227.0
45 268 168646.0
45 270 437968.0
45 271 628476.0
45 272 659763.0
45 273 169361.0
45 275 175156.0
45 313 255925.0
45 316 1479284.0
45 321 20701.0
45 322 132224.0
45 337 88998.0
45 339 97807.0
45 340 89428.0
45 341 64.0
45 345 105402.0
45 346 29717.0
45 347 41269.0
45 349 177103.0
45 351 81903.0
45 352 57047.0
45 353 67287.0
45 354 67649.0
45 355 94703.0
45 356 36972.0
45 361 246.0
45 362 573.0
45 370 59206.0
45 371 196357.0
45 372 196532.0
45 373 198321.0
45 374 113439.0
45 375 140231.0
45 377 6413.0
45 378 231631.0
45 380 38309.0
45 381 2386.0
45 382 875.0
45 417 199008.0
45 423 159.0
45 463 82563.0
45 464 296435.0
45 466 261141.0
45 468 108421.0
45 470 771360.0
45 482 1486.0
45 484 331544.0
45 496 287376.0
45 512 2272.0
45 516 3767.0
45 539 5.0
45 545 360.0
45 556 10222.0
45 571 206.0
45 574 7777.0
45 575 18921.0
45 577 61735.0
45 578 142806.0
45 579 114394.0
45 580 70797.0
45 581 9907.0
45 582 111610.0
45 583 47.0
45 584 328798.0
45 585 6094.0
45 586 16927.0
45 587 110440.0
45 588 49949.0
45 589 35959.0
45 590 16012.0
45 591 7206.0
45 592 97756.0
45 593 516177.0
45 594 130.0
45 595 23.0
45 596 238809.0
45 597 35.0
45 598 81866.0
45 599 5938.0
45 600 515.0
45 601 36836.0
45 602 439.0
45 603 80610.0
45 604 124063.0
45 605 116048.0
45 606 172722.0
45 607 25921.0
45 608 81954.0
45 609 74405.0
45 610 175811.0
45 611 132834.0
45 612 2719.0
45 613 164584.0
45 614 332.0
45 615 57106.0
45 616 15269.0
45 617 19975.0
45 618 5500.0
45 619 98629.0
45 620 3480.0
45 621 128255.0
45 622 146884.0
45 623 2502.0
45 624 20399.0
45 625 37282.0
45 626 463.0
45 627 231929.0
45 628 2082.0
45 629 187115.0
45 630 83484.0
45 631 148186.0
45 632 281650.0
45 633 139265.0
45 634 104544.0
45 635 121110.0
45 636 150.0
45 637 12251.0
45 638 75014.0
45 639 112131.0
45 640 120943.0
45 641 21699.0
45 642 33188.0
45 643 47650.0
45 644 2.0
45 645 69649.0
45 646 8851.0
45 647 16768.0
45 648 5662.0
45 649 56136.0
45 650 138647.0
45 651 76217.0
45 652 207.0
45 653 211.0
45 654 327.0
45 655 1545.0
45 656 88385.0
45 657 548548.0
45 658 133.0
45 659 249.0
45 660 2664.0
45 661 25608.0
45 662 92.0
45 663 91823.0
45 664 102213.0
45 665 3264.0
45 666 15231.0
45 667 110818.0
45 668 2.0
45 669 10198.0
45 670 485.0
45 671 118399.0
45 672 195310.0
45 673 23298.0
45 674 163.0
45 675 45291.0
45 676 40786.0
45 677 56462.0
45 678 16327.0
45 679 2286.0
45 680 72216.0
45 681 81767.0
45 682 33789.0
45 683 83519.0
45 684 143.0
45 685 1191.0
45 686 111.0
45 687 350.0
45 708 57.0
45 752 5.0
45 853 6.0
45 1056 56.0
45 1075 147.0
45 1308 1235.0
45 1394 52.0
46 48 19.0
46 50 89.0
46 51 98.0
46 52 52.0
46 53 181.0
46 54 18.0
46 58 39.0
46 59 121602.0
46 60 15.0
46 62 77.0
46 66 17.0
46 68 1429.0
46 71 195.0
46 75 20.0
46 78 45.0
46 81 38.0
46 82 44064.0
46 83 2.0
46 87 134758.0
46 91 42.0
46 94 65.0
46 95 23.0
46 97 22986.0
46 102 15.0
46 103 446.0
46 104 43.0
46 105 64.0
46 110 639.0
46 124 25.0
46 127 14.0
46 132 44.0
46 134 131.0
46 137 27.0
46 142 154.0
46 145 22.0
46 146 23920.0
46 149 270.0
46 158 2.0
46 163 39589.0
46 170 27.0
46 173 111311.0
46 176 10.0
46 177 31.0
46 179 15.0
46 181 33.0
46 183 3.0
46 187 71.0
46 196 189.0
46 211 34.0
46 235 1.0
46 239 32.0
46 244 240.0
46 245 70.0
46 248 33.0
46 249 53.0
46 258 61.0
46 262 36.0
46 265 1.0
46 270 7.0
46 271 24.0
46 275 138.0
46 461 25.0
46 464 2.0
46 466 5.0
46 471 4.0
46 472 1.0
46 475 5.0
46 571 24.0
46 618 43.0
46 690 18.0
46 691 4.0
46 692 11.0
46 693 2.0
46 694 14.0
46 799 3.0
46 839 1.0
46 871 3.0
46 973 5.0
47 50 20.0
47 51 44.0
47 52 5.0
47 53 1.0
47 55 14.0
47 57 2.0
47 59 138927.0
47 60 11.0
47 66 40.0
47 67 5.0
47 69 14.0
47 75 6.0
47 82 27.0
47 87 75567.0
47 88 1574.0
47 89 31.0
47 91 36.0
47 94 15.0
47 95 6.0
47 97 3364.0
47 105 33.0
47 124 2.0
47 134 12.0
47 135 4.0
47 136 3.0
47 142 40.0
47 173 19182.0
47 177 38.0
47 180 948.0
47 185 17.0
47 211 26.0
47 239 158.0
47 248 8.0
47 257 28.0
47 258 10.0
47 262 58.0
47 268 3.0
47 270 6.0
47 349 38.0
47 462 6.0
47 463 2.0
47 464 22.0
47 471 8.0
47 475 20.0
47 608 16.0
47 676 17.0
47 691 6.0
47 719 40.0
47 790 3.0
48 50 59944.0
48 51 35.0
48 53 1174.0
48 54 247143.0
48 55 209.0
48 56 189734.0
48 58 82.0
48 59 92349.0
48 60 20.0
48 61 10693.0
48 62 38.0
48 64 1022.0
48 66 50.0
48 67 906.0
48 68 1646.0
48 69 193.0
48 70 59.0
48 71 769.0
48 72 47914.0
48 75 177.0
48 76 46503.0
48 77 159.0
48 78 2078.0
48 79 117506.0
48 80 125418.0
48 81 84795.0
48 82 366.0
48 85 43.0
48 86 87.0
48 87 78725.0
48 89 25361.0
48 91 848.0
48 94 210.0
48 95 33.0
48 96 351.0
48 98 1.0
48 100 18.0
48 101 56025.0
48 102 342.0
48 103 313.0
48 105 222.0
48 107 1408.0
48 110 166.0
48 112 1308.0
48 123 2387.0
48 124 2024.0
48 126 310.0
48 127 2614.0
48 128 1170.0
48 131 31.0
48 132 589.0
48 134 593.0
48 135 247.0
48 136 166619.0
48 137 201.0
48 139 4.0
48 140 44.0
48 142 3.0
48 144 145462.0
48 145 273.0
48 146 64300.0
48 149 385.0
48 151 11.0
48 156 96628.0
48 157 132.0
48 158 177789.0
48 160 1263.0
48 163 81267.0
48 164 11298.0
48 165 348.0
48 166 488.0
48 167 368.0
48 168 20.0
48 169 13.0
48 170 1924.0
48 173 30937.0
48 174 79324.0
48 175 3368.0
48 176 1012.0
48 177 937.0
48 178 365.0
48 179 636.0
48 180 2493.0
48 181 515.0
48 182 70677.0
48 184 104.0
48 185 749.0
48 187 3188.0
48 188 691.0
48 189 4642.0
48 190 2907.0
48 193 64163.0
48 194 1021.0
48 195 580.0
48 196 1541.0
48 198 1219.0
48 199 629.0
48 201 13.0
48 202 111830.0
48 203 379.0
48 211 91.0
48 235 41.0
48 239 38.0
48 244 362.0
48 245 7.0
48 248 451.0
48 249 20.0
48 251 35.0
48 254 2.0
48 255 20.0
48 256 24.0
48 257 310.0
48 258 365.0
48 260 262.0
48 265 3.0
48 268 27.0
48 270 9.0
48 271 24.0
48 273 74.0
48 275 13.0
48 313 21.0
48 316 33491.0
48 349 463.0
48 353 43.0
48 355 35.0
48 371 290.0
48 372 94.0
48 375 581.0
48 378 249.0
48 379 86.0
48 461 129.0
48 462 8.0
48 464 7.0
48 465 16.0
48 466 58.0
48 468 83.0
48 470 10.0
48 472 56.0
48 475 12.0
48 571 27.0
48 584 26.0
48 609 42.0
48 617 12.0
48 630 7.0
48 634 5.0
48 645 2.0
48 649 1.0
48 671 4.0
48 676 24.0
48 685 9.0
48 686 30.0
48 687 1.0
48 690 14.0
48 691 123.0
48 694 2.0
48 719 15.0
48 720 24.0
48 731 27.0
48 797 275.0
48 798 271.0
48 799 24.0
48 1122 4.0
49 59 246.0
49 66 196.0
49 136 31.0
49 139 168.0
49 182 176.0
49 189 76.0
49 202 155.0
49 320 88.0
49 476 64.0
49 480 124.0
49 636 106.0
49 738 142.0
49 805 458.0
49 806 363.0
49 807 79.0
49 808 77.0
50 51 1048.0
50 52 62.0
50 53 124356.0
50 54 415189.0
50 55 54.0
50 56 535907.0
50 57 39.0
50 58 70.0
50 59 376782.0
50 61 157575.0
50 62 132.0
50 63 30.0
50 64 1034.0
50 65 87.0
50 66 187.0
50 67 43.0
50 68 83838.0
50 69 69.0
50 70 613.0
50 71 825.0
50 72 194399.0
50 73 44740.0
50 75 120.0
50 76 185861.0
50 77 59.0
50 78 207058.0
50 79 290688.0
50 80 439874.0
50 81 89536.0
50 82 50854.0
50 83 23.0
50 84 381.0
50 85 227.0
50 86 314.0
50 87 353920.0
50 89 263646.0
50 91 2145.0
50 94 2602.0
50 96 10076.0
50 100 309.0
50 101 79446.0
50 102 1179.0
50 103 614.0
50 104 5.0
50 105 35629.0
50 107 8494.0
50 110 1099.0
50 112 72275.0
50 123 5511.0
50 124 3299.0
50 126 141.0
50 127 116429.0
50 128 67532.0
50 129 4.0
50 130 13.0
50 131 61.0
50 132 27860.0
50 134 4898.0
50 135 2634.0
50 136 393422.0
50 137 124006.0
50 139 804.0
50 140 32.0
50 142 76193.0
50 144 68793.0
50 145 143223.0
50 146 491741.0
50 147 66138.0
50 149 121658.0
50 151 401.0
50 156 229259.0
50 157 352.0
50 158 190378.0
50 160 1608.0
50 163 206173.0
50 164 226978.0
50 165 1292.0
50 166 2.0
50 167 92.0
50 168 55.0
50 169 133.0
50 170 12634.0
50 171 15.0
50 173 157252.0
50 174 172204.0
50 175 46619.0
50 176 6125.0
50 177 8674.0
50 178 23457.0
50 179 71491.0
50 180 7884.0
50 181 4840.0
50 182 169639.0
50 184 168.0
50 185 55902.0
50 186 78.0
50 187 234576.0
50 188 2904.0
50 189 91500.0
50 190 119126.0
50 193 62.0
50 194 50524.0
50 195 6553.0
50 196 7604.0
50 198 15628.0
50 199 1832.0
50 201 221.0
50 202 253920.0
50 203 2728.0
50 204 43.0
50 205 111.0
50 211 167.0
50 219 88.0
50 233 66.0
50 235 39.0
50 238 56.0
50 239 143.0
50 244 463.0
50 245 22.0
50 248 869.0
50 249 18.0
50 252 4922.0
50 253 20.0
50 254 22.0
50 255 75.0
50 256 50.0
50 257 85.0
50 258 680.0
50 262 33.0
50 265 42.0
50 268 145.0
50 270 166.0
50 271 360.0
50 273 123.0
50 316 101642.0
50 344 1.0
50 345 64.0
50 347 18.0
50 349 128.0
50 353 80.0
50 371 428.0
50 372 11.0
50 374 3.0
50 375 1293.0
50 377 405.0
50 378 676.0
50 379 142.0
50 380 204.0
50 381 38.0
50 382 3545.0
50 383 163.0
50 461 11.0
50 462 59.0
50 463 39.0
50 464 124.0
50 465 66.0
50 466 34.0
50 468 2.0
50 470 83.0
50 471 3.0
50 472 9.0
50 475 48.0
50 539 36.0
50 575 22.0
50 582 1597.0
50 584 6.0
50 590 5.0
50 601 32.0
50 612 19.0
50 615 9.0
50 617 1.0
50 618 260.0
50 620 46.0
50 624 23.0
50 630 9.0
50 634 16.0
50 645 104.0
50 649 42.0
50 654 811.0
50 658 27.0
50 674 363.0
50 676 50.0
50 686 93.0
50 690 86.0
50 692 16.0
50 694 64.0
50 719 1.0
50 720 103.0
50 725 195.0
50 728 282.0
50 729 94.0
50 798 26.0
50 841 1.0
50 842 3.0
50 843 27.0
50 1033 4.0
50 1357 35.0
51 52 52.0
51 53 263.0
51 54 409426.0
51 55 389.0
51 56 88278.0
51 57 63.0
51 58 2.0
51 59 73908.0
51 61 14.0
51 62 22.0
51 64 2084.0
51 65 59.0
51 66 124.0
51 67 84.0
51 68 109438.0
51 69 26.0
51 71 1869.0
51 72 470.0
51 73 52.0
51 75 212.0
51 76 123744.0
51 77 175.0
51 78 250.0
51 80 51.0
51 81 3837.0
51 82 504.0
51 85 1.0
51 86 37.0
51 87 115827.0
51 89 110030.0
51 91 890.0
51 94 263.0
51 101 610.0
51 102 20.0
51 103 94.0
51 104 77.0
51 105 49.0
51 107 33.0
51 109 31.0
51 124 34.0
51 127 106.0
51 128 244.0
51 132 540.0
51 134 170.0
51 136 1288.0
51 137 239.0
51 139 37.0
51 142 966.0
51 145 119762.0
51 146 1167.0
51 149 74381.0
51 156 85.0
51 158 74027.0
51 160 281.0
51 173 1023.0
51 174 698.0
51 179 134.0
51 180 29.0
51 182 52.0
51 185 42.0
51 187 198.0
51 190 88.0
51 193 647.0
51 195 45.0
51 199 34.0
51 202 163.0
51 203 294.0
51 211 18.0
51 220 16.0
51 235 33.0
51 244 1174.0
51 248 930.0
51 249 77.0
51 251 48.0
51 254 23.0
51 255 5.0
51 257 3.0
51 258 14.0
51 268 63.0
51 270 19.0
51 271 291.0
51 273 136.0
51 278 131.0
51 316 34500.0
51 320 35.0
51 349 158.0
51 353 16.0
51 354 6.0
51 465 3.0
51 466 53.0
51 468 1.0
51 470 115.0
51 471 6.0
51 472 15.0
51 571 1.0
51 578 1.0
51 580 92.0
51 584 19.0
51 601 11.0
51 610 24.0
51 657 24.0
51 658 17.0
51 664 60.0
51 673 2.0
51 676 38.0
51 685 2.0
51 686 282.0
51 841 11.0
51 1075 4.0
52 53 123.0
52 55 20.0
52 56 129991.0
52 58 143.0
52 59 98435.0
52 60 4.0
52 61 1836.0
52 62 46.0
52 65 5.0
52 66 6.0
52 68 735.0
52 69 294.0
52 71 170.0
52 80 6.0
52 82 106.0
52 83 63.0
52 87 296518.0
52 90 25369.0
52 91 26.0
52 94 12.0
52 97 34455.0
52 101 190.0
52 102 43.0
52 105 47.0
52 110 1314.0
52 124 2.0
52 127 1.0
52 131 9.0
52 135 68.0
52 137 267.0
52 139 340.0
52 142 156.0
52 146 106928.0
52 158 66.0
52 160 129.0
52 163 59165.0
52 173 100722.0
52 174 58.0
52 179 32.0
52 182 1047.0
52 187 99.0
52 189 141.0
52 193 294.0
52 196 315.0
52 203 335.0
52 211 17.0
52 235 518.0
52 239 11.0
52 253 2.0
52 257 3.0
52 258 5.0
52 268 12.0
52 273 11.0
52 277 437.0
52 312 62.0
52 313 4.0
52 316 1202.0
52 338 56295.0
52 341 43.0
52 344 15.0
52 349 46.0
52 361 38.0
52 461 60.0
52 462 3.0
52 465 1.0
52 472 14.0
52 475 29.0
52 571 36.0
52 618 20.0
52 658 66.0
52 676 15.0
52 690 19.0
52 691 361.0
52 694 8.0
52 719 2.0
52 725 40.0
52 731 6.0
52 790 5.0
52 838 418.0
52 839 17.0
52 871 4.0
52 883 306.0
52 936 124.0
52 939 10.0
52 965 56.0
52 966 276.0
52 967 6.0
53 54 396528.0
53 55 73597.0
53 56 233950.0
53 57 56.0
53 58 192.0
53 59 124287.0
53 60 68238.0
53 61 141168.0
53 62 52116.0
53 63 75.0
53 64 1975.0
53 65 23119.0
53 66 16805.0
53 67 193.0
53 68 118969.0
53 69 176.0
53 70 185.0
53 71 96187.0
53 72 10096.0
53 73 78896.0
53 76 271316.0
53 77 829.0
53 78 101945.0
53 79 251842.0
53 80 417837.0
53 81 74474.0
53 82 122529.0
53 83 28.0
53 84 40718.0
53 85 17.0
53 86 2170.0
53 87 624526.0
53 89 285914.0
53 90 319.0
53 91 56818.0
53 94 61179.0
53 95 68.0
53 96 182284.0
53 100 308.0
53 101 125340.0
53 102 1676.0
53 103 1665.0
53 104 98.0
53 105 98741.0
53 107 57.0
53 110 1585.0
53 112 1601.0
53 123 840.0
53 124 91822.0
53 127 1476.0
53 128 98645.0
53 131 2.0
53 132 153893.0
53 134 90826.0
53 135 593.0
53 136 347674.0
53 137 70696.0
53 139 39.0
53 142 53083.0
53 144 1627.0
53 145 99604.0
53 146 183494.0
53 147 34.0
53 149 295747.0
53 150 58.0
53 151 25.0
53 152 1.0
53 156 7252.0
53 157 3.0
53 158 527646.0
53 159 1.0
53 160 1064.0
53 163 436861.0
53 164 288047.0
53 165 61.0
53 166 108.0
53 167 22.0
53 169 36.0
53 170 90295.0
53 173 217529.0
53 174 23648.0
53 175 1357.0
53 176 1494.0
53 177 452.0
53 178 888.0
53 179 29745.0
53 180 45893.0
53 181 110.0
53 182 176951.0
53 183 19.0
53 185 91927.0
53 187 89275.0
53 188 2144.0
53 189 7303.0
53 190 1312.0
53 193 74138.0
53 194 47840.0
53 195 129097.0
53 196 95.0
53 198 1544.0
53 199 458.0
53 201 61.0
53 202 140511.0
53 203 41.0
53 211 67012.0
53 235 26.0
53 239 11615.0
53 244 9151.0
53 245 3.0
53 249 48.0
53 252 62279.0
53 253 33.0
53 254 24.0
53 255 125.0
53 256 1.0
53 257 82651.0
53 258 119.0
53 262 118.0
53 265 33.0
53 268 17142.0
53 270 68661.0
53 271 733.0
53 272 11085.0
53 273 64069.0
53 274 23.0
53 275 9.0
53 312 59.0
53 313 77.0
53 314 56.0
53 316 37830.0
53 344 44.0
53 349 46688.0
53 353 33214.0
53 355 18.0
53 371 1.0
53 372 110.0
53 374 26.0
53 375 307.0
53 378 30.0
53 380 14.0
53 417 1705.0
53 461 47.0
53 462 28573.0
53 463 33.0
53 464 462.0
53 465 79.0
53 466 40.0
53 468 34.0
53 470 165.0
53 471 25.0
53 472 28.0
53 475 9.0
53 496 5735.0
53 570 168.0
53 571 18.0
53 574 10.0
53 575 1.0
53 584 57.0
53 587 5.0
53 593 22.0
53 603 1.0
53 608 151.0
53 610 37.0
53 618 97.0
53 624 1.0
53 626 215.0
53 632 4261.0
53 637 5227.0
53 656 9.0
53 657 10.0
53 658 55.0
53 662 87.0
53 664 19360.0
53 674 18.0
53 690 96.0
53 694 41.0
53 706 9.0
53 708 103.0
53 718 2.0
53 719 857.0
53 720 46.0
53 725 86.0
53 763 5597.0
53 764 10792.0
53 765 2885.0
53 766 7195.0
53 791 2.0
53 842 111.0
53 861 4644.0
53 884 3329.0
53 936 4.0
53 961 14.0
53 973 41.0
53 1302 11.0
53 1305 8.0
54 55 200587.0
54 56 1026525.0
54 58 794.0
54 59 661203.0
54 61 724035.0
54 62 152.0
54 63 101058.0
54 64 92865.0
54 65 433.0
54 66 187538.0
54 67 142762.0
54 68 401420.0
54 69 301.0
54 70 398637.0
54 71 394290.0
54 72 500410.0
54 73 456568.0
54 75 150667.0
54 76 974983.0
54 77 125504.0
54 78 285059.0
54 79 920066.0
54 80 267.0
54 81 396955.0
54 82 114180.0
54 84 1167.0
54 85 357437.0
54 86 167351.0
54 87 1062274.0
54 89 785694.0
54 91 626555.0
54 92 91611.0
54 94 409218.0
54 95 177669.0
54 96 436897.0
54 98 74979.0
54 99 8751.0
54 100 167401.0
54 101 321645.0
54 102 134.0
54 103 3273.0
54 104 93785.0
54 105 207756.0
54 107 1020.0
54 110 124.0
54 112 2300.0
54 123 805.0
54 124 205373.0
54 127 144752.0
54 128 425654.0
54 130 23.0
54 131 64.0
54 132 961212.0
54 134 323685.0
54 135 2.0
54 136 883450.0
54 137 337395.0
54 139 543.0
54 142 290960.0
54 144 76.0
54 145 601212.0
54 146 482173.0
54 147 50.0
54 149 954665.0
54 150 404.0
54 154 35.0
54 156 102.0
54 158 769084.0
54 163 540509.0
54 164 428947.0
54 165 2.0
54 168 85552.0
54 169 15.0
54 170 90316.0
54 171 103.0
54 173 410078.0
54 174 376639.0
54 176 254.0
54 178 1423.0
54 179 388934.0
54 180 394948.0
54 181 43480.0
54 182 780010.0
54 183 1.0
54 184 296.0
54 185 385057.0
54 186 16800.0
54 187 651100.0
54 189 183284.0
54 190 159499.0
54 193 252555.0
54 194 202866.0
54 195 449413.0
54 196 161.0
54 197 17354.0
54 198 23036.0
54 199 402.0
54 201 119768.0
54 202 712359.0
54 203 152.0
54 204 1215.0
54 211 54749.0
54 239 199183.0
54 244 5962.0
54 245 170950.0
54 248 174080.0
54 249 147884.0
54 251 122193.0
54 252 287392.0
54 254 133144.0
54 255 241258.0
54 256 2.0
54 257 1950.0
54 258 346936.0
54 264 265873.0
54 265 62075.0
54 267 121761.0
54 268 91373.0
54 270 87426.0
54 271 323770.0
54 272 264193.0
54 273 163188.0
54 275 109672.0
54 312 66.0
54 313 232883.0
54 314 236.0
54 316 597682.0
54 321 2.0
54 322 189.0
54 349 223996.0
54 371 103629.0
54 372 58755.0
54 375 61965.0
54 378 39055.0
54 417 59607.0
54 461 46842.0
54 462 102.0
54 463 151457.0
54 464 82978.0
54 466 81433.0
54 468 205917.0
54 470 144849.0
54 471 51.0
54 475 24.0
54 496 169993.0
54 545 128.0
54 556 8259.0
54 578 132704.0
54 579 179.0
54 580 18429.0
54 581 10211.0
54 583 245.0
54 589 15138.0
54 590 67.0
54 593 86150.0
54 596 127022.0
54 601 24711.0
54 608 36.0
54 609 178571.0
54 610 64464.0
54 612 17.0
54 613 83386.0
54 615 106060.0
54 617 31841.0
54 618 5.0
54 621 98237.0
54 625 111473.0
54 631 145995.0
54 632 357.0
54 634 8324.0
54 638 110494.0
54 640 1645.0
54 648 13.0
54 650 143499.0
54 657 145241.0
54 662 66.0
54 664 137684.0
54 671 5.0
54 672 122958.0
54 673 3831.0
54 677 110100.0
54 681 12068.0
54 686 16288.0
54 751 6.0
54 798 57602.0
54 852 562.0
54 980 56285.0
54 1110 3.0
55 56 172566.0
55 57 7.0
55 58 478.0
55 59 132245.0
55 60 1.0
55 61 474.0
55 62 7.0
55 64 616.0
55 65 50.0
55 66 32.0
55 67 3.0
55 68 97474.0
55 69 236.0
55 70 36.0
55 72 818.0
55 73 3.0
55 75 30.0
55 76 53865.0
55 77 120.0
55 78 300.0
55 79 80823.0
55 80 7.0
55 81 155.0
55 82 24805.0
55 85 17.0
55 87 236259.0
55 89 96002.0
55 91 45.0
55 94 161.0
55 96 1075.0
55 100 1641.0
55 102 127.0
55 103 1386.0
55 104 375.0
55 105 5062.0
55 110 959.0
55 112 46.0
55 123 255.0
55 127 31.0
55 128 297.0
55 132 1744.0
55 134 275.0
55 135 18.0
55 136 174705.0
55 137 192.0
55 139 646.0
55 142 133.0
55 145 82436.0
55 146 195565.0
55 149 57224.0
55 153 64.0
55 156 24.0
55 158 61444.0
55 163 513.0
55 164 1195.0
55 169 10.0
55 170 47.0
55 173 78387.0
55 174 212.0
55 176 29.0
55 177 57.0
55 179 266.0
55 180 181.0
55 181 866.0
55 185 3.0
55 187 85.0
55 189 1237.0
55 190 1101.0
55 195 321.0
55 201 339.0
55 202 39401.0
55 205 3.0
55 229 259.0
55 233 291.0
55 238 105.0
55 239 65.0
55 244 2057.0
55 245 3.0
55 248 163.0
55 249 40.0
55 253 10.0
55 254 57.0
55 255 51.0
55 256 72.0
55 257 15.0
55 258 66.0
55 262 29.0
55 268 1.0
55 270 1.0
55 271 307.0
55 273 10.0
55 275 46.0
55 313 28.0
55 316 483.0
55 344 11.0
55 349 38.0
55 371 299.0
55 375 1.0
55 380 172.0
55 461 3.0
55 464 17.0
55 465 2.0
55 468 64.0
55 470 202.0
55 472 3.0
55 475 6.0
55 545 80.0
55 571 28.0
55 574 1.0
55 584 8.0
55 596 5.0
55 609 1.0
55 610 7.0
55 649 23.0
55 676 14.0
55 691 59.0
55 719 4.0
55 720 10.0
55 725 1.0
55 727 265.0
55 739 64.0
55 798 31.0
56 58 173365.0
56 59 636644.0
56 61 496990.0
56 63 7.0
56 64 99583.0
56 65 871.0
56 66 98995.0
56 67 147947.0
56 68 495795.0
56 69 233736.0
56 70 24.0
56 71 410781.0
56 72 320072.0
56 73 134562.0
56 75 70610.0
56 76 1135894.0
56 77 328328.0
56 78 590573.0
56 79 1043777.0
56 80 367.0
56 81 308535.0
56 82 403282.0
56 83 56194.0
56 84 64800.0
56 85 12183.0
56 86 27362.0
56 87 1780420.0
56 89 856784.0
56 90 395.0
56 91 258861.0
56 92 7377.0
56 94 226523.0
56 96 207864.0
56 98 125674.0
56 99 240.0
56 100 67.0
56 101 712591.0
56 102 562304.0
56 103 1673.0
56 104 136054.0
56 105 254961.0
56 106 142258.0
56 107 566078.0
56 109 40222.0
56 110 5510.0
56 111 105632.0
56 112 611955.0
56 123 590612.0
56 124 1276.0
56 126 184199.0
56 127 1150316.0
56 128 258267.0
56 130 329.0
56 131 1568.0
56 132 755905.0
56 134 4387.0
56 135 308339.0
56 136 542100.0
56 137 300376.0
56 139 377200.0
56 140 190044.0
56 141 30380.0
56 142 262082.0
56 144 34.0
56 145 1015700.0
56 146 1469659.0
56 148 386.0
56 149 684657.0
56 150 162848.0
56 151 5372.0
56 152 61077.0
56 153 262730.0
56 154 37.0
56 156 212634.0
56 157 133.0
56 158 787760.0
56 163 1211865.0
56 164 1761451.0
56 165 227987.0
56 167 142614.0
56 168 384510.0
56 169 217354.0
56 170 337.0
56 173 769376.0
56 174 472819.0
56 175 4016.0
56 176 570253.0
56 177 351397.0
56 178 415262.0
56 179 182175.0
56 180 196050.0
56 181 416423.0
56 182 1149284.0
56 183 83.0
56 184 217264.0
56 185 634.0
56 186 185393.0
56 187 419071.0
56 188 248657.0
56 189 814028.0
56 190 1167204.0
56 191 7.0
56 193 222054.0
56 194 978357.0
56 195 1005254.0
56 196 508524.0
56 197 216046.0
56 198 368230.0
56 199 894674.0
56 201 34568.0
56 202 619341.0
56 203 578958.0
56 204 204648.0
56 205 135895.0
56 211 85815.0
56 212 19489.0
56 230 240.0
56 232 90233.0
56 233 4.0
56 236 74145.0
56 239 109371.0
56 244 416.0
56 245 30091.0
56 248 78999.0
56 249 404.0
56 252 521632.0
56 255 28545.0
56 256 58607.0
56 257 60254.0
56 258 84810.0
56 262 1205.0
56 264 64842.0
56 265 71522.0
56 268 228.0
56 270 882.0
56 271 78381.0
56 272 258314.0
56 273 483.0
56 313 14632.0
56 314 47.0
56 316 1095896.0
56 337 63972.0
56 340 16784.0
56 341 14820.0
56 345 84711.0
56 347 117.0
56 348 98195.0
56 349 21.0
56 351 53025.0
56 354 648.0
56 355 177845.0
56 372 66842.0
56 373 314434.0
56 374 170698.0
56 375 269923.0
56 376 27184.0
56 378 187489.0
56 417 297805.0
56 461 75.0
56 464 200005.0
56 466 44.0
56 470 152476.0
56 475 199.0
56 480 121332.0
56 484 87349.0
56 496 291002.0
56 501 213.0
56 512 157721.0
56 533 335.0
56 539 761.0
56 556 140.0
56 575 64736.0
56 578 619.0
56 580 1.0
56 581 2629.0
56 584 29763.0
56 589 61214.0
56 590 19.0
56 592 13532.0
56 593 118268.0
56 596 24993.0
56 597 64749.0
56 599 79.0
56 601 93960.0
56 607 109415.0
56 608 31404.0
56 611 146623.0
56 612 114.0
56 618 21942.0
56 619 124725.0
56 620 84.0
56 621 2487.0
56 622 174837.0
56 623 20839.0
56 624 31570.0
56 627 76864.0
56 630 84144.0
56 632 478753.0
56 633 693.0
56 634 21914.0
56 637 280.0
56 639 126397.0
56 645 47915.0
56 648 25342.0
56 649 207889.0
56 651 408.0
56 655 323.0
56 656 19.0
56 657 480.0
56 658 59506.0
56 663 16722.0
56 664 603.0
56 667 113367.0
56 672 2143.0
56 682 554.0
56 690 22067.0
56 694 6.0
56 707 19.0
56 708 100.0
56 709 66333.0
56 716 6592.0
56 720 38.0
56 725 11.0
56 730 57.0
56 731 47.0
56 735 45.0
56 824 75252.0
56 832 566.0
56 876 39741.0
56 882 94819.0
56 936 25788.0
56 939 52763.0
56 961 101953.0
56 996 43868.0
56 1016 72.0
56 1024 46.0
56 1026 77099.0
56 1033 1.0
56 1049 159.0
56 1050 67591.0
56 1051 34899.0
56 1052 184.0
56 1053 19592.0
56 1411 2.0
57 58 20.0
57 59 46064.0
57 62 3.0
57 65 6.0
57 66 2.0
57 68 1.0
57 71 27.0
57 72 2.0
57 78 129.0
57 80 127.0
57 83 14.0
57 87 42548.0
57 89 25.0
57 91 132.0
57 94 2.0
57 97 22349.0
57 105 18.0
57 108 2194.0
57 110 2192.0
57 112 145.0
57 124 7.0
57 134 1.0
57 136 1.0
57 137 4.0
57 142 21.0
57 145 28.0
57 158 1.0
57 163 29008.0
57 164 141.0
57 170 3.0
57 173 153962.0
57 176 73.0
57 179 36.0
57 182 4.0
57 185 35.0
57 193 2.0
57 205 100.0
57 211 21.0
57 220 15.0
57 230 1.0
57 235 9.0
57 256 5.0
57 262 1.0
57 268 18.0
57 273 14.0
57 462 23.0
57 463 7.0
57 465 29.0
57 472 4.0
57 475 2.0
57 584 1.0
57 590 2.0
57 618 10.0
57 647 187.0
57 670 3.0
57 690 7.0
57 694 1.0
57 720 3.0
57 725 17.0
57 751 6.0
57 806 57.0
57 839 1.0
57 841 24.0
57 842 2.0
57 868 6.0
57 918 4.0
57 973 1.0
57 985 107.0
57 1058 106.0
58 59 106634.0
58 60 3.0
58 61 272.0
58 62 21.0
58 65 284.0
58 66 34.0
58 67 72.0
58 68 1822.0
58 69 73.0
58 71 1166.0
58 73 638.0
58 76 15640.0
58 78 236.0
58 79 51166.0
58 80 43.0
58 81 85263.0
58 82 92434.0
58 83 116.0
58 84 62.0
58 87 392264.0
58 89 501.0
58 90 28576.0
58 91 917.0
58 94 53.0
58 96 120.0
58 97 7761.0
58 101 12011.0
58 102 215.0
58 103 286.0
58 104 1.0
58 105 200.0
58 107 1.0
58 110 1490.0
58 112 432.0
58 124 13.0
58 127 501.0
58 128 170.0
58 129 20.0
58 130 104.0
58 131 35.0
58 132 610.0
58 134 23.0
58 135 300.0
58 136 193.0
58 137 492.0
58 139 173.0
58 142 8046.0
58 145 20953.0
58 146 252501.0
58 150 275.0
58 152 58.0
58 158 56292.0
58 163 64291.0
58 164 24827.0
58 165 257.0
58 166 4.0
58 172 49.0
58 173 189354.0
58 174 54.0
58 176 468.0
58 177 156.0
58 178 1.0
58 179 65.0
58 181 698.0
58 182 84589.0
58 183 29.0
58 184 50.0
58 187 83.0
58 188 169.0
58 189 295.0
58 190 98.0
58 191 30.0
58 192 9.0
58 193 53.0
58 194 190.0
58 195 375.0
58 196 484.0
58 197 5.0
58 198 204.0
58 201 150.0
58 203 109.0
58 204 4.0
58 211 1.0
58 235 16.0
58 239 13.0
58 249 937.0
58 257 80.0
58 258 12.0
58 262 84.0
58 265 4.0
58 268 98.0
58 270 36.0
58 277 46.0
58 312 111.0
58 314 97.0
58 316 394.0
58 338 817.0
58 341 63.0
58 344 4.0
58 349 139.0
58 355 62.0
58 362 429.0
58 375 41.0
58 378 7.0
58 459 34.0
58 461 1.0
58 463 159.0
58 464 3.0
58 465 126.0
58 466 30.0
58 475 91.0
58 477 140.0
58 582 4955.0
58 584 38.0
58 590 195.0
58 597 68.0
58 608 26.0
58 612 3.0
58 618 33.0
58 657 3.0
58 686 37.0
58 690 10.0
58 691 42.0
58 692 377.0
58 694 13.0
58 707 14.0
58 719 3.0
58 725 43.0
58 799 15.0
58 871 25.0
58 936 15.0
58 973 8.0
58 1071 45.0
58 1469 108.0
59 60 114189.0
59 61 723502.0
59 62 141679.0
59 63 4459.0
59 64 3679.0
59 65 188091.0
59 66 82102.0
59 67 54289.0
59 68 225177.0
59 69 24008.0
59 70 291.0
59 71 321833.0
59 72 117534.0
59 73 198170.0
59 75 109174.0
59 76 827523.0
59 77 48684.0
59 78 235610.0
59 79 1071583.0
59 80 520785.0
59 81 278791.0
59 82 320582.0
59 83 89950.0
59 84 316813.0
59 85 106068.0
59 86 5884.0
59 87 875891.0
59 89 650959.0
59 90 106.0
59 91 227342.0
59 92 262.0
59 94 120495.0
59 95 56493.0
59 96 531606.0
59 98 94.0
59 99 37.0
59 100 26490.0
59 101 415931.0
59 102 71731.0
59 103 2316.0
59 104 153.0
59 105 197290.0
59 107 1907.0
59 110 1689.0
59 112 395132.0
59 123 3090.0
59 124 151911.0
59 127 123837.0
59 128 291789.0
59 131 306.0
59 132 486070.0
59 134 233923.0
59 135 836.0
59 136 667907.0
59 137 193433.0
59 139 193.0
59 142 175967.0
59 144 1829.0
59 145 520587.0
59 146 769165.0
59 147 271.0
59 149 412330.0
59 150 108.0
59 151 1272.0
59 152 1.0
59 156 10031.0
59 157 188.0
59 158 479015.0
59 160 141.0
59 163 823864.0
59 164 694158.0
59 167 7.0
59 168 66578.0
59 170 190754.0
59 173 828944.0
59 174 118327.0
59 175 2552.0
59 176 83638.0
59 177 129235.0
59 178 5989.0
59 179 148960.0
59 180 175208.0
59 181 65835.0
59 182 807622.0
59 184 6.0
59 185 192500.0
59 186 19827.0
59 187 256259.0
59 188 1787.0
59 189 220689.0
59 190 147482.0
59 193 141432.0
59 194 388319.0
59 195 374846.0
59 196 5032.0
59 197 7188.0
59 198 29300.0
59 199 51252.0
59 201 6.0
59 202 566029.0
59 203 1002.0
59 204 13780.0
59 205 171.0
59 211 124307.0
59 212 675.0
59 219 80.0
59 220 227.0
59 235 153755.0
59 239 68519.0
59 244 38470.0
59 248 43714.0
59 249 93528.0
59 251 39518.0
59 252 172805.0
59 253 70323.0
59 254 195.0
59 255 37.0
59 256 126903.0
59 257 349157.0
59 258 78305.0
59 262 3.0
59 264 40049.0
59 268 106679.0
59 270 134504.0
59 271 50719.0
59 272 26730.0
59 273 160858.0
59 274 38064.0
59 275 21819.0
59 276 3.0
59 312 279.0
59 313 45580.0
59 316 300873.0
59 322 2.0
59 341 158.0
59 344 67.0
59 345 119.0
59 349 124481.0
59 353 142069.0
59 355 4481.0
59 371 50.0
59 373 245978.0
59 375 32931.0
59 417 35581.0
59 461 87043.0
59 462 99433.0
59 463 16738.0
59 464 37571.0
59 465 173245.0
59 466 53.0
59 470 412.0
59 471 27706.0
59 472 144153.0
59 475 290.0
59 482 3284.0
59 484 606750.0
59 496 253195.0
59 509 76938.0
59 533 16741.0
59 539 13.0
59 545 102.0
59 556 99.0
59 562 17023.0
59 563 28396.0
59 570 155.0
59 571 82991.0
59 574 14.0
59 578 71.0
59 579 192.0
59 580 61.0
59 583 144.0
59 584 53006.0
59 585 7329.0
59 587 141.0
59 589 146.0
59 590 3613.0
59 593 142916.0
59 596 7239.0
59 598 148.0
59 601 5050.0
59 607 1795.0
59 608 68231.0
59 609 9.0
59 613 47540.0
59 618 25675.0
59 620 88.0
59 622 10236.0
59 626 65561.0
59 627 70090.0
59 632 150874.0
59 634 146.0
59 639 695.0
59 640 159.0
59 644 2524.0
59 646 121110.0
59 649 32707.0
59 650 164.0
59 651 278.0
59 658 43646.0
59 664 17280.0
59 670 1.0
59 671 2.0
59 672 263.0
59 674 243.0
59 676 81131.0
59 685 25611.0
59 686 75974.0
59 690 79.0
59 691 85065.0
59 692 42.0
59 694 3.0
59 697 4.0
59 706 1.0
59 708 154.0
59 718 45761.0
59 719 47663.0
59 720 27074.0
59 725 135.0
59 790 70157.0
59 799 45964.0
59 828 6965.0
59 838 274.0
59 839 114118.0
59 841 75724.0
59 842 53763.0
59 847 3.0
59 861 153060.0
59 869 9.0
59 936 21712.0
59 965 137.0
59 1033 5.0
59 1072 13345.0
59 1073 6982.0
59 1074 37.0
59 1075 180.0
60 62 3.0
60 65 14.0
60 67 8.0
60 71 134.0
60 80 88.0
60 83 34.0
60 84 13.0
60 89 65939.0
60 91 158.0
60 110 136.0
60 134 34.0
60 137 10.0
60 173 71.0
60 176 17.0
60 177 21.0
60 187 23.0
60 235 3.0
60 244 1857.0
60 256 4.0
60 273 17.0
60 349 46.0
60 353 7.0
60 375 16.0
60 459 12.0
60 465 1.0
60 472 3.0
60 545 35.0
60 584 14.0
60 608 6.0
60 658 34.0
60 1072 2.0
61 62 7592.0
61 63 101.0
61 64 4895.0
61 65 280.0
61 66 42739.0
61 68 201391.0
61 69 152.0
61 71 68405.0
61 72 210296.0
61 73 946140.0
61 75 18792.0
61 76 1539294.0
61 77 683.0
61 78 73764.0
61 79 455394.0
61 80 344578.0
61 81 103785.0
61 82 71261.0
61 85 64597.0
61 86 412172.0
61 87 467628.0
61 89 647202.0
61 90 275.0
61 91 145984.0
61 94 54953.0
61 95 499.0
61 96 74.0
61 97 405.0
61 98 119202.0
61 99 43.0
61 101 91312.0
61 102 133.0
61 103 1351.0
61 105 380955.0
61 107 1010.0
61 112 30126.0
61 123 2850.0
61 124 82906.0
61 126 14.0
61 127 120462.0
61 128 101991.0
61 131 1392.0
61 132 590824.0
61 134 145539.0
61 135 390.0
61 136 592870.0
61 137 71140.0
61 139 255.0
61 140 26.0
61 142 172714.0
61 144 31606.0
61 145 533320.0
61 146 272215.0
61 147 7901.0
61 149 969502.0
61 151 30.0
61 153 190.0
61 156 144256.0
61 157 88.0
61 158 523913.0
61 160 211745.0
61 163 297981.0
61 164 364877.0
61 165 354.0
61 166 92278.0
61 167 64.0
61 169 52.0
61 170 14378.0
61 173 135620.0
61 174 111641.0
61 175 1945.0
61 176 321.0
61 177 4239.0
61 178 1180.0
61 179 17186.0
61 180 27.0
61 181 1268.0
61 182 190382.0
61 185 146534.0
61 187 126053.0
61 188 1056.0
61 189 7290.0
61 190 3055.0
61 193 1847.0
61 194 3575.0
61 195 210679.0
61 196 848.0
61 198 4409.0
61 199 2951.0
61 201 30693.0
61 202 492387.0
61 203 203.0
61 204 44.0
61 205 116.0
61 211 341979.0
61 212 1.0
61 219 192.0
61 223 5.0
61 236 117.0
61 239 36360.0
61 244 291077.0
61 245 1.0
61 246 75784.0
61 247 691.0
61 249 8645.0
61 252 157652.0
61 254 10.0
61 257 26521.0
61 264 132524.0
61 268 309.0
61 270 1643.0
61 271 2350.0
61 272 498828.0
61 316 52.0
61 317 1672.0
61 339 235127.0
61 345 53047.0
61 347 254897.0
61 349 13488.0
61 352 39359.0
61 354 207362.0
61 372 259.0
61 462 1125.0
61 464 114.0
61 473 84.0
61 484 269.0
61 496 22967.0
61 545 156.0
61 559 5.0
61 572 1319.0
61 578 10396.0
61 579 160.0
61 597 144.0
61 601 27.0
61 603 295.0
61 607 668.0
61 610 27047.0
61 612 15.0
61 617 77334.0
61 620 13547.0
61 628 50.0
61 630 499.0
61 632 3.0
61 633 29593.0
61 640 68.0
61 643 27347.0
61 645 518.0
61 650 6.0
61 655 182734.0
61 660 90928.0
61 661 462.0
61 663 34013.0
61 664 26143.0
61 672 76944.0
61 676 89710.0
61 677 11922.0
61 681 4.0
61 685 3386.0
61 686 24327.0
61 690 29.0
61 719 21436.0
61 721 28.0
61 722 26750.0
61 741 42857.0
61 748 2.0
61 789 2248.0
61 798 27692.0
61 818 6693.0
61 839 2400.0
61 857 52488.0
61 924 416.0
61 927 30.0
61 978 30709.0
61 1004 69074.0
61 1007 106.0
61 1075 42658.0
61 1092 1.0
61 1096 12820.0
61 1110 12.0
61 1117 46.0
61 1125 79.0
61 1155 5690.0
61 1156 125.0
61 1157 78800.0
61 1158 15004.0
61 1159 288.0
61 1160 3.0
61 1161 128.0
61 1162 1284.0
61 1163 5.0
61 1164 1.0
61 1165 883.0
61 1166 7876.0
61 1167 8469.0
61 1203 48.0
61 1318 18.0
61 1339 4.0
61 1344 18.0
62 65 12.0
62 66 45.0
62 67 95.0
62 68 162.0
62 69 25.0
62 71 59.0
62 77 5.0
62 78 31.0
62 79 76315.0
62 80 33.0
62 82 60391.0
62 83 10.0
62 84 30.0
62 87 80754.0
62 89 54.0
62 91 65.0
62 94 2.0
62 95 50.0
62 96 38333.0
62 100 53.0
62 102 10.0
62 104 56.0
62 105 23.0
62 110 1243.0
62 124 15.0
62 128 19.0
62 134 11.0
62 135 5.0
62 137 1.0
62 142 109.0
62 173 38568.0
62 174 15.0
62 176 7.0
62 177 5.0
62 179 17.0
62 185 19.0
62 187 39.0
62 193 2.0
62 202 43495.0
62 229 5.0
62 248 3.0
62 254 35.0
62 257 67.0
62 265 4.0
62 268 9.0
62 271 9.0
62 273 8.0
62 313 8.0
62 349 40.0
62 378 3.0
62 461 10.0
62 462 22.0
62 464 31.0
62 470 26.0
62 471 10.0
62 562 7.0
62 563 13.0
62 571 48.0
62 610 35.0
62 658 2.0
62 676 5.0
62 694 8.0
62 720 9.0
62 790 2.0
62 839 5.0
62 842 7.0
62 936 1.0
63 68 1207.0
63 71 133.0
63 73 25992.0
63 76 1972.0
63 78 147.0
63 85 2.0
63 87 5411.0
63 89 14623.0
63 91 15.0
63 94 5.0
63 124 16.0
63 132 3728.0
63 134 190.0
63 136 324.0
63 142 9.0
63 149 30310.0
63 158 49035.0
63 173 4058.0
63 185 8.0
63 190 68.0
63 202 35582.0
63 273 1.0
63 316 314013.0
63 348 68.0
63 349 1.0
63 876 12.0
64 66 1770.0
64 67 592.0
64 68 215.0
64 69 1017.0
64 70 380.0
64 71 1304.0
64 72 6135.0
64 75 48.0
64 77 38.0
64 78 1219.0
64 79 309.0
64 80 3689.0
64 81 88542.0
64 82 762.0
64 83 6.0
64 85 1.0
64 87 139.0
64 89 48.0
64 90 37156.0
64 91 64.0
64 94 406.0
64 95 472.0
64 96 4022.0
64 97 3987.0
64 100 1032.0
64 101 1493.0
64 127 1710.0
64 128 120.0
64 136 264.0
64 137 1521.0
64 140 511.0
64 142 860.0
64 145 169.0
64 153 72.0
64 156 3052.0
64 157 994.0
64 158 120776.0
64 159 205.0
64 170 11.0
64 173 689.0
64 174 185.0
64 176 1029.0
64 177 454.0
64 179 455.0
64 180 3774.0
64 185 39.0
64 187 1453.0
64 190 1786.0
64 193 33.0
64 202 26731.0
64 235 1674.0
64 239 1015.0
64 245 2165.0
64 248 2386.0
64 249 2035.0
64 251 8.0
64 254 2084.0
64 256 973.0
64 258 2080.0
64 259 523.0
64 260 944.0
64 268 1.0
64 271 2018.0
64 272 105.0
64 274 1897.0
64 275 987.0
64 278 488.0
64 313 32.0
64 340 2449.0
64 345 15.0
64 348 1004.0
64 349 150.0
64 353 1041.0
64 355 715.0
64 372 131.0
64 375 1038.0
64 461 4.0
64 466 8.0
64 468 16.0
64 582 2676.0
64 596 1428.0
64 597 144.0
64 609 1.0
64 615 6.0
64 657 3.0
64 735 96.0
64 798 268.0
64 1202 124.0
64 1528 87.0
65 66 78.0
65 67 5.0
65 68 214.0
65 69 9.0
65 71 184.0
65 72 158.0
65 73 147.0
65 76 77.0
65 78 398.0
65 79 1.0
65 81 79.0
65 82 55438.0
65 83 5.0
65 84 46.0
65 85 33.0
65 87 220105.0
65 89 372.0
65 91 249.0
65 96 105.0
65 101 86.0
65 102 35.0
65 103 1149.0
65 108 1903.0
65 110 2846.0
65 112 122.0
65 124 116.0
65 128 29.0
65 132 113.0
65 134 150.0
65 135 2.0
65 136 139.0
65 137 35.0
65 139 255.0
65 142 53.0
65 145 342.0
65 146 13017.0
65 149 461.0
65 158 220.0
65 163 148.0
65 170 177.0
65 173 180923.0
65 174 75.0
65 176 33.0
65 177 28.0
65 182 593.0
65 185 276.0
65 187 7.0
65 188 128.0
65 194 322.0
65 196 192.0
65 199 74.0
65 202 90.0
65 211 42.0
65 235 14.0
65 244 235.0
65 248 10.0
65 249 72.0
65 253 60.0
65 257 38.0
65 262 15.0
65 270 3.0
65 313 2.0
65 349 28.0
65 362 277.0
65 462 14.0
65 464 13.0
65 471 2.0
65 472 1.0
65 475 3.0
65 539 4.0
65 618 17.0
65 692 1.0
65 694 88.0
65 707 19.0
65 725 16.0
65 731 7.0
65 799 5.0
65 829 76.0
65 841 4.0
65 842 594.0
66 67 14.0
66 68 66765.0
66 71 197.0
66 75 11.0
66 76 12725.0
66 77 144.0
66 78 193.0
66 79 68382.0
66 80 3.0
66 81 156.0
66 82 84.0
66 83 21.0
66 86 224.0
66 87 61459.0
66 88 27440.0
66 89 52192.0
66 90 54784.0
66 91 134.0
66 94 46.0
66 95 28.0
66 97 5243.0
66 101 36.0
66 103 2628.0
66 104 46.0
66 105 248.0
66 124 169.0
66 128 10.0
66 132 341.0
66 134 213.0
66 136 453.0
66 137 128.0
66 142 23136.0
66 144 272.0
66 145 40471.0
66 149 41172.0
66 156 3.0
66 158 59192.0
66 160 209.0
66 173 257.0
66 174 57.0
66 176 51.0
66 177 52.0
66 179 91.0
66 180 134.0
66 185 13.0
66 187 449.0
66 190 98.0
66 193 27.0
66 201 336.0
66 202 100.0
66 211 73.0
66 228 10.0
66 239 37.0
66 248 193.0
66 249 3.0
66 256 41.0
66 257 32.0
66 258 807.0
66 265 13.0
66 270 113.0
66 273 225.0
66 275 2.0
66 277 57.0
66 316 467.0
66 337 7.0
66 349 36.0
66 353 96.0
66 371 7.0
66 372 1.0
66 374 38.0
66 375 86.0
66 378 9.0
66 464 92.0
66 465 71.0
66 472 20.0
66 571 1.0
66 584 16.0
66 596 28.0
66 610 68.0
66 637 2.0
66 657 42.0
66 671 1.0
66 677 111.0
66 697 2.0
66 720 2.0
66 799 12.0
66 841 1.0
66 882 46.0
66 1206 3.0
66 1482 1.0
67 68 38093.0
67 69 10.0
67 70 27.0
67 71 246.0
67 75 15.0
67 78 2.0
67 79 35316.0
67 80 5.0
67 81 71212.0
67 82 113.0
67 83 8.0
67 85 2.0
67 86 149.0
67 87 67645.0
67 95 7.0
67 101 146.0
67 102 9.0
67 104 5.0
67 105 13.0
67 107 567.0
67 110 363.0
67 112 453.0
67 123 189.0
67 124 5.0
67 127 464.0
67 128 48.0
67 132 217.0
67 134 9.0
67 136 52788.0
67 137 267.0
67 139 382.0
67 142 245.0
67 145 115577.0
67 146 63113.0
67 149 226.0
67 150 42.0
67 153 16.0
67 156 90.0
67 158 69223.0
67 163 179.0
67 165 20.0
67 168 8.0
67 173 54.0
67 174 1.0
67 176 176.0
67 177 25.0
67 179 8.0
67 181 48.0
67 184 85.0
67 187 206.0
67 188 13.0
67 189 126.0
67 190 298.0
67 193 2.0
67 194 469.0
67 195 377.0
67 196 373.0
67 201 4.0
67 203 512.0
67 211 31.0
67 239 2.0
67 245 3.0
67 248 31.0
67 249 66.0
67 251 28.0
67 255 121.0
67 256 70.0
67 257 65.0
67 258 79.0
67 265 3.0
67 268 105.0
67 270 24.0
67 313 2.0
67 349 9.0
67 353 1.0
67 355 3.0
67 371 3.0
67 378 23.0
67 462 5.0
67 464 1.0
67 465 19.0
67 466 122.0
67 472 13.0
67 571 14.0
67 584 3.0
67 608 1.0
67 656 45.0
67 657 88.0
67 686 130.0
67 718 1.0
67 720 109.0
67 731 2.0
67 841 5.0
68 69 426.0
68 70 19.0
68 71 130980.0
68 72 132715.0
68 73 324542.0
68 75 30.0
68 76 190142.0
68 77 521.0
68 78 111193.0
68 79 758994.0
68 80 399656.0
68 81 2902.0
68 82 2802.0
68 83 2654.0
68 84 364.0
68 85 20.0
68 86 70.0
68 87 613081.0
68 89 113725.0
68 91 169355.0
68 92 9.0
68 94 112081.0
68 95 58386.0
68 96 6125.0
68 97 45.0
68 100 277.0
68 101 139974.0
68 102 286.0
68 103 515.0
68 104 7.0
68 105 163375.0
68 107 588.0
68 112 87904.0
68 123 74046.0
68 124 131255.0
68 126 3.0
68 127 98578.0
68 128 249366.0
68 131 299.0
68 132 832132.0
68 134 120792.0
68 135 168.0
68 136 307.0
68 137 110978.0
68 139 21570.0
68 142 87977.0
68 144 1573.0
68 145 492.0
68 146 991989.0
68 149 197484.0
68 151 704.0
68 154 136.0
68 156 3158.0
68 158 210034.0
68 163 339086.0
68 164 1370770.0
68 166 151208.0
68 168 67153.0
68 170 84014.0
68 171 33.0
68 172 7.0
68 173 165114.0
68 174 147625.0
68 175 81932.0
68 176 35242.0
68 177 890.0
68 178 2574.0
68 179 189039.0
68 180 94.0
68 181 111675.0
68 182 94433.0
68 185 154053.0
68 186 29.0
68 187 249138.0
68 188 1475.0
68 189 346995.0
68 190 82417.0
68 191 6.0
68 193 1012.0
68 194 310549.0
68 195 1185217.0
68 196 466.0
68 197 20.0
68 198 89759.0
68 199 8373.0
68 201 712.0
68 202 311990.0
68 203 668.0
68 204 220.0
68 205 106.0
68 208 1.0
68 210 107.0
68 211 121086.0
68 214 36908.0
68 219 267.0
68 220 90135.0
68 223 1.0
68 228 1.0
68 229 37.0
68 230 97673.0
68 235 70.0
68 239 56185.0
68 244 1398.0
68 245 3.0
68 248 87686.0
68 249 54.0
68 251 50926.0
68 252 123908.0
68 253 652.0
68 254 7.0
68 255 2.0
68 256 429.0
68 257 209.0
68 258 70016.0
68 261 15948.0
68 264 3489.0
68 268 103176.0
68 270 124690.0
68 271 100830.0
68 272 204400.0
68 273 136046.0
68 274 584.0
68 276 5.0
68 279 120532.0
68 313 24.0
68 316 228791.0
68 339 28578.0
68 341 324.0
68 345 132.0
68 349 105681.0
68 351 194699.0
68 353 148.0
68 354 333.0
68 355 1999.0
68 372 114.0
68 373 267578.0
68 374 6.0
68 375 189.0
68 417 4404.0
68 457 114.0
68 461 44.0
68 462 97395.0
68 463 61229.0
68 464 351.0
68 465 29.0
68 466 388.0
68 468 12.0
68 470 45735.0
68 473 174.0
68 484 275894.0
68 496 649552.0
68 512 5173.0
68 516 98253.0
68 545 487.0
68 557 8851.0
68 559 10.0
68 571 109.0
68 575 868.0
68 578 28826.0
68 579 2299.0
68 581 32.0
68 583 39.0
68 587 121588.0
68 589 239.0
68 590 260.0
68 593 458061.0
68 598 135545.0
68 602 4976.0
68 606 137624.0
68 607 109.0
68 608 128.0
68 609 320.0
68 610 112.0
68 611 97673.0
68 613 129892.0
68 618 2267.0
68 619 32.0
68 621 30528.0
68 622 112957.0
68 625 8.0
68 626 4211.0
68 627 143272.0
68 628 9525.0
68 629 127005.0
68 631 4.0
68 632 889708.0
68 633 3875.0
68 635 716.0
68 639 124881.0
68 648 27.0
68 650 243950.0
68 655 240.0
68 658 14.0
68 662 211.0
68 663 61146.0
68 664 4376.0
68 665 7.0
68 669 11284.0
68 670 4.0
68 671 7.0
68 672 15473.0
68 674 54.0
68 675 15976.0
68 677 12457.0
68 681 6.0
68 685 20897.0
68 686 93769.0
68 690 336.0
68 691 67377.0
68 697 7.0
68 705 12178.0
68 708 55.0
68 711 964.0
68 717 4448.0
68 719 6746.0
68 720 968.0
68 722 34.0
68 725 624.0
68 731 646.0
68 740 22245.0
68 741 733.0
68 747 11.0
68 748 38.0
68 751 5.0
68 783 4.0
68 789 642.0
68 790 59413.0
68 798 1.0
68 799 1.0
68 819 324.0
68 838 111.0
68 841 21.0
68 853 1.0
68 867 370.0
68 876 12.0
68 884 6880.0
68 899 13.0
68 906 15.0
68 922 2.0
68 941 1557.0
68 945 20706.0
68 967 972.0
68 969 20323.0
68 978 2011.0
68 1004 945.0
68 1024 648.0
68 1026 64.0
68 1056 32742.0
68 1060 80387.0
68 1063 213773.0
68 1065 2.0
68 1075 347.0
68 1088 3.0
68 1109 2.0
68 1110 5.0
68 1116 9808.0
68 1117 812.0
68 1125 112.0
68 1157 1200.0
68 1161 36.0
68 1162 657.0
68 1174 972.0
68 1201 251.0
68 1254 115492.0
68 1301 247.0
68 1302 23250.0
68 1303 56.0
68 1304 1.0
68 1305 22844.0
68 1306 117298.0
68 1307 277.0
68 1318 3.0
68 1339 3.0
68 1357 17.0
68 1386 1.0
68 1565 1.0
69 71 163.0
69 72 26.0
69 75 3.0
69 76 155.0
69 78 189.0
69 79 2617.0
69 80 258.0
69 81 69590.0
69 82 120.0
69 83 47.0
69 84 28.0
69 86 35.0
69 87 219310.0
69 89 462.0
69 90 127.0
69 91 90.0
69 93 52.0
69 96 23.0
69 97 164.0
69 101 8512.0
69 102 261.0
69 103 261.0
69 105 658.0
69 106 1.0
69 107 79.0
69 108 1389.0
69 110 2813.0
69 112 6.0
69 123 58.0
69 124 13.0
69 126 37.0
69 127 8.0
69 128 86.0
69 129 10.0
69 131 33.0
69 132 131.0
69 134 127.0
69 135 170.0
69 136 476.0
69 137 131.0
69 139 224.0
69 142 105.0
69 145 312.0
69 146 298981.0
69 149 607.0
69 150 152.0
69 156 5.0
69 158 114512.0
69 160 125.0
69 162 58.0
69 163 69699.0
69 164 27553.0
69 168 77.0
69 170 107.0
69 173 61180.0
69 176 204.0
69 177 73.0
69 178 106.0
69 180 52.0
69 184 102.0
69 185 40.0
69 187 81.0
69 188 493.0
69 189 832.0
69 190 1236.0
69 193 396.0
69 194 1929.0
69 195 1468.0
69 196 148.0
69 198 88.0
69 199 10.0
69 202 182.0
69 203 184.0
69 204 13.0
69 235 7.0
69 239 169.0
69 244 238.0
69 248 120.0
69 249 122.0
69 256 127.0
69 258 66.0
69 265 15.0
69 268 7.0
69 270 9.0
69 271 82.0
69 274 260.0
69 275 124.0
69 338 30754.0
69 350 164.0
69 353 50.0
69 355 1268.0
69 373 21.0
69 375 4.0
69 462 12.0
69 464 7.0
69 465 127.0
69 466 33.0
69 470 101.0
69 471 7.0
69 472 27.0
69 476 54.0
69 477 129.0
69 582 40.0
69 624 4.0
69 649 23.0
69 657 104.0
69 658 28.0
69 669 1.0
69 694 7.0
69 720 24.0
69 839 34.0
69 1241 164.0
70 71 55.0
70 72 20.0
70 73 4.0
70 76 70026.0
70 77 263.0
70 78 24.0
70 81 54.0
70 86 10.0
70 89 110979.0
70 91 253.0
70 94 1.0
70 97 27683.0
70 100 70.0
70 101 525.0
70 103 1023.0
70 104 11.0
70 105 75.0
70 124 13.0
70 127 469.0
70 128 127.0
70 134 70.0
70 136 190.0
70 142 384.0
70 145 890.0
70 147 4.0
70 149 211.0
70 158 26.0
70 174 27.0
70 177 67.0
70 179 20.0
70 185 17.0
70 187 1060.0
70 190 154.0
70 193 340.0
70 195 21.0
70 201 5.0
70 229 25.0
70 239 2.0
70 244 1349.0
70 249 8.0
70 251 6.0
70 254 17.0
70 255 1603.0
70 264 24.0
70 265 3.0
70 268 23.0
70 270 22.0
70 271 11.0
70 337 19.0
70 349 64.0
70 353 17.0
70 372 2.0
70 375 44.0
70 378 43.0
70 461 1.0
70 464 21.0
70 466 3.0
70 468 44.0
70 470 53.0
70 584 86.0
70 596 4.0
70 609 44.0
70 610 75.0
70 667 5.0
70 673 3.0
70 677 9.0
70 686 2.0
70 712 64.0
70 721 3.0
70 792 44.0
70 922 5.0
70 1091 4.0
70 1166 1.0
71 72 3641.0
71 73 46671.0
71 75 6.0
71 76 292383.0
71 77 145.0
71 78 105572.0
71 79 361113.0
71 80 206754.0
71 81 94183.0
71 82 127590.0
71 84 237.0
71 85 216.0
71 86 1451.0
71 87 544048.0
71 89 229449.0
71 91 1421.0
71 92 2.0
71 93 54.0
71 94 3.0
71 95 28.0
71 96 192013.0
71 97 134.0
71 100 32621.0
71 101 12453.0
71 102 413.0
71 103 3183.0
71 105 25459.0
71 107 210.0
71 110 1218.0
71 112 77870.0
71 123 1188.0
71 124 236.0
71 126 86.0
71 127 1377.0
71 128 1049.0
71 130 2.0
71 131 208.0
71 132 90761.0
71 134 343.0
71 135 1142.0
71 136 283634.0
71 137 243.0
71 139 344.0
71 142 58543.0
71 144 13570.0
71 145 207658.0
71 146 478351.0
71 147 127.0
71 149 146462.0
71 151 198.0
71 156 1435.0
71 157 24.0
71 158 219904.0
71 160 252.0
71 163 248814.0
71 164 76808.0
71 165 3.0
71 170 205.0
71 173 287129.0
71 174 1718.0
71 175 3313.0
71 176 171.0
71 177 7236.0
71 178 2003.0
71 179 420.0
71 180 778.0
71 181 1100.0
71 182 297618.0
71 184 43.0
71 185 413.0
71 186 22.0
71 187 44153.0
71 188 1907.0
71 189 16253.0
71 190 3402.0
71 193 499.0
71 194 2957.0
71 195 4900.0
71 196 3287.0
71 197 16.0
71 198 3427.0
71 199 1267.0
71 201 114.0
71 202 235512.0
71 203 1369.0
71 204 1.0
71 205 155.0
71 211 42.0
71 212 654.0
71 230 6.0
71 235 53.0
71 239 61.0
71 244 445.0
71 248 509.0
71 249 111.0
71 251 22.0
71 252 13207.0
71 253 24.0
71 254 255.0
71 257 322.0
71 258 294.0
71 262 90.0
71 268 148.0
71 270 150.0
71 271 484.0
71 272 87.0
71 273 66.0
71 274 63.0
71 275 39.0
71 277 64.0
71 313 16.0
71 316 36529.0
71 337 50.0
71 341 170.0
71 344 79.0
71 349 281.0
71 353 93.0
71 361 92.0
71 362 698.0
71 371 2.0
71 375 124.0
71 385 119.0
71 461 42.0
71 462 231.0
71 464 162.0
71 465 58.0
71 466 186.0
71 468 8.0
71 470 456.0
71 471 5.0
71 472 46.0
71 475 319.0
71 480 124.0
71 539 336.0
71 545 622.0
71 571 2.0
71 575 103.0
71 578 4.0
71 581 4.0
71 582 523.0
71 584 155.0
71 608 67.0
71 618 254.0
71 649 153.0
71 658 47.0
71 662 304.0
71 664 262.0
71 676 92.0
71 691 166.0
71 694 118.0
71 705 212.0
71 711 12.0
71 790 25.0
71 839 348.0
71 925 255.0
71 936 35.0
71 1148 2.0
71 1324 2.0
71 1325 1.0
71 1326 240.0
72 73 194557.0
72 75 23.0
72 76 123302.0
72 77 192.0
72 78 3771.0
72 79 246.0
72 80 12317.0
72 81 91054.0
72 82 1057.0
72 83 63.0
72 84 591.0
72 85 15.0
72 87 223591.0
72 89 269778.0
72 91 1392.0
72 94 595.0
72 101 14718.0
72 102 103.0
72 103 1074.0
72 105 275.0
72 107 563.0
72 112 1131.0
72 123 42.0
72 124 1053.0
72 126 9.0
72 127 9135.0
72 128 3737.0
72 130 37.0
72 132 64005.0
72 134 2401.0
72 135 18.0
72 136 312075.0
72 137 12877.0
72 139 190.0
72 140 65.0
72 142 60601.0
72 144 2991.0
72 145 205423.0
72 146 4541.0
72 149 133223.0
72 154 119.0
72 156 69094.0
72 157 4.0
72 158 171681.0
72 160 1531.0
72 163 80279.0
72 164 2266.0
72 165 167.0
72 167 23.0
72 170 2652.0
72 171 7.0
72 173 82269.0
72 174 10867.0
72 175 2172.0
72 176 834.0
72 177 391.0
72 178 573.0
72 179 95637.0
72 180 153.0
72 181 284.0
72 182 12983.0
72 185 6423.0
72 187 2290.0
72 188 172.0
72 189 2287.0
72 190 2932.0
72 193 1579.0
72 194 2666.0
72 195 1180.0
72 196 6.0
72 198 1044.0
72 199 251.0
72 202 136033.0
72 203 230.0
72 204 6.0
72 211 32.0
72 230 1.0
72 244 100.0
72 257 164.0
72 258 116.0
72 259 170.0
72 268 229.0
72 270 751.0
72 271 48.0
72 272 76.0
72 273 297.0
72 316 137092.0
72 339 3.0
72 349 193.0
72 372 81.0
72 374 5.0
72 375 46.0
72 380 135.0
72 464 51.0
72 575 32.0
72 580 27.0
72 584 464.0
72 590 2.0
72 610 69.0
72 612 33.0
72 619 16.0
72 658 35.0
72 671 8.0
72 672 1.0
72 673 3.0
72 705 364.0
72 731 23.0
72 798 160.0
72 841 195.0
72 855 38.0
72 973 2.0
72 1121 123.0
72 1267 59.0
73 75 536.0
73 76 398.0
73 78 23166.0
73 79 1214345.0
73 81 29093.0
73 82 1071.0
73 84 221.0
73 85 38.0
73 86 187791.0
73 87 434274.0
73 89 35418.0
73 91 275763.0
73 92 83598.0
73 94 144790.0
73 96 347042.0
73 98 82513.0
73 99 20752.0
73 100 135944.0
73 101 54019.0
73 102 40.0
73 105 186476.0
73 112 514671.0
73 123 29.0
73 124 23349.0
73 127 216264.0
73 128 22785.0
73 131 272.0
73 132 859981.0
73 134 632119.0
73 135 231775.0
73 136 65994.0
73 137 78055.0
73 142 104104.0
73 145 299019.0
73 146 173981.0
73 149 148.0
73 151 191.0
73 156 147722.0
73 158 32870.0
73 163 1032917.0
73 164 2908338.0
73 166 218760.0
73 168 416785.0
73 171 61.0
73 173 271473.0
73 174 218090.0
73 175 162950.0
73 176 212.0
73 178 947.0
73 179 67426.0
73 180 471909.0
73 181 187317.0
73 182 504702.0
73 185 197.0
73 186 3655.0
73 187 357672.0
73 188 628.0
73 189 444555.0
73 190 15574.0
73 193 50.0
73 194 519372.0
73 195 2009114.0
73 196 88502.0
73 197 89.0
73 198 73264.0
73 199 14859.0
73 202 584264.0
73 204 98231.0
73 205 86.0
73 208 12916.0
73 211 112616.0
73 212 4.0
73 214 74388.0
73 215 35771.0
73 220 132955.0
73 230 440936.0
73 234 640.0
73 246 179122.0
73 247 71658.0
73 248 46.0
73 252 328694.0
73 254 112.0
73 256 44.0
73 257 317.0
73 258 86.0
73 264 313352.0
73 268 208100.0
73 270 364405.0
73 271 43.0
73 272 1031796.0
73 273 355650.0
73 313 42.0
73 316 1096339.0
73 321 117278.0
73 322 594473.0
73 323 609.0
73 339 155311.0
73 340 18.0
73 346 251156.0
73 347 308149.0
73 351 171874.0
73 352 20665.0
73 354 653986.0
73 356 214.0
73 357 162.0
73 369 30608.0
73 373 614309.0
73 416 7887.0
73 417 3570.0
73 423 169427.0
73 462 359851.0
73 463 1.0
73 464 294.0
73 465 2.0
73 470 59.0
73 473 41.0
73 482 149529.0
73 484 503420.0
73 496 655373.0
73 501 6814.0
73 512 1234.0
73 516 200542.0
73 533 52177.0
73 556 24948.0
73 570 57786.0
73 571 14091.0
73 577 146629.0
73 578 226069.0
73 579 279643.0
73 580 162086.0
73 581 187450.0
73 583 58.0
73 585 94225.0
73 586 2698.0
73 587 286690.0
73 590 34.0
73 591 307484.0
73 592 30147.0
73 593 1162503.0
73 598 56870.0
73 602 110612.0
73 604 471436.0
73 605 93274.0
73 606 446951.0
73 607 25098.0
73 611 151045.0
73 613 554065.0
73 617 11614.0
73 618 36.0
73 619 8038.0
73 620 184.0
73 621 128923.0
73 622 509682.0
73 626 471634.0
73 627 556886.0
73 628 329814.0
73 629 119938.0
73 631 176.0
73 632 2463125.0
73 633 109892.0
73 637 1739.0
73 639 675822.0
73 640 119851.0
73 646 19897.0
73 649 19448.0
73 650 156385.0
73 651 300992.0
73 652 103107.0
73 655 163187.0
73 660 319871.0
73 661 109688.0
73 663 88898.0
73 664 191728.0
73 667 110151.0
73 669 76880.0
73 670 144471.0
73 672 120243.0
73 675 303443.0
73 676 50.0
73 677 145495.0
73 678 71077.0
73 679 347.0
73 680 5283.0
73 681 71296.0
73 682 117433.0
73 685 46538.0
73 686 2.0
73 694 359.0
73 698 153445.0
73 705 387.0
73 707 34.0
73 719 31.0
73 722 6087.0
73 731 118.0
73 734 1.0
73 741 8634.0
73 748 5.0
73 751 51.0
73 789 2934.0
73 795 469.0
73 843 3525.0
73 844 11366.0
73 845 454.0
73 852 2348.0
73 853 100247.0
73 854 2.0
73 855 160.0
73 861 151484.0
73 871 33.0
73 892 505.0
73 918 4.0
73 927 9347.0
73 941 17645.0
73 978 40473.0
73 983 120282.0
73 998 194.0
73 1004 6502.0
73 1007 1062.0
73 1025 24864.0
73 1045 46850.0
73 1056 36036.0
73 1060 1607.0
73 1063 187063.0
73 1075 656759.0
73 1085 1.0
73 1092 54.0
73 1112 330.0
73 1114 41039.0
73 1118 294.0
73 1119 4866.0
73 1121 41.0
73 1122 110398.0
73 1123 117014.0
73 1157 55298.0
73 1160 580.0
73 1161 3002.0
73 1162 22818.0
73 1164 1237.0
73 1177 4.0
73 1194 301.0
73 1239 146925.0
73 1254 110405.0
73 1271 19077.0
73 1296 19362.0
73 1301 235.0
73 1302 26872.0
73 1305 15739.0
73 1306 155888.0
73 1318 210.0
73 1333 175.0
73 1338 122.0
73 1339 124789.0
73 1340 12557.0
73 1341 59127.0
73 1342 21220.0
73 1343 8946.0
73 1344 212.0
73 1345 8559.0
73 1346 123.0
73 1347 87104.0
73 1348 303.0
73 1349 275.0
73 1350 15.0
73 1351 6276.0
73 1352 16162.0
73 1353 254.0
73 1354 17899.0
73 1355 320.0
73 1356 13.0
73 1357 235.0
73 1456 3.0
73 1543 1.0
74 86 73.0
74 91 1125.0
74 103 419.0
74 244 5085.0
74 480 40.0
74 705 64.0
75 76 18076.0
75 77 117.0
75 78 86.0
75 79 85024.0
75 80 91.0
75 81 57269.0
75 82 41.0
75 84 10.0
75 85 29.0
75 87 115921.0
75 88 3159.0
75 89 6.0
75 90 32968.0
75 91 359.0
75 94 1.0
75 97 2555.0
75 100 144.0
75 103 383.0
75 104 22.0
75 105 60.0
75 110 196.0
75 128 111.0
75 132 109.0
75 134 33.0
75 136 49.0
75 137 12.0
75 142 69305.0
75 145 15273.0
75 147 11.0
75 149 691.0
75 156 13.0
75 158 46357.0
75 170 3.0
75 173 14031.0
75 174 199.0
75 176 23.0
75 177 27.0
75 179 69.0
75 181 203.0
75 185 15.0
75 187 310.0
75 190 3.0
75 201 28.0
75 202 79.0
75 205 3.0
75 209 1.0
75 235 23.0
75 238 478.0
75 239 122.0
75 245 1.0
75 248 633.0
75 253 7.0
75 254 3.0
75 256 6.0
75 257 55.0
75 265 44.0
75 268 28.0
75 270 35.0
75 271 15.0
75 273 476.0
75 276 2.0
75 277 27.0
75 340 387.0
75 344 14.0
75 349 2.0
75 355 8.0
75 371 290.0
75 372 279.0
75 374 96.0
75 375 75.0
75 377 197.0
75 378 235.0
75 379 135.0
75 380 284.0
75 383 121.0
75 462 21.0
75 464 59.0
75 465 1.0
75 466 3.0
75 470 5.0
75 472 25.0
75 512 206.0
75 570 5.0
75 584 1.0
75 596 1.0
75 645 4.0
75 656 7.0
75 670 16.0
75 676 4.0
75 694 2.0
75 720 6.0
75 739 1.0
75 839 136.0
75 842 16.0
75 865 9.0
75 932 132.0
75 937 11.0
75 1110 12.0
75 1416 43.0
76 77 199.0
76 78 212595.0
76 79 716606.0
76 80 498414.0
76 81 206205.0
76 82 495499.0
76 84 25629.0
76 85 264103.0
76 86 38364.0
76 87 2454061.0
76 89 363539.0
76 90 283.0
76 91 252883.0
76 92 5.0
76 94 184984.0
76 95 27473.0
76 96 84248.0
76 98 638.0
76 100 135.0
76 101 315721.0
76 102 221.0
76 103 264.0
76 105 669866.0
76 107 3789.0
76 112 9083.0
76 123 5353.0
76 124 31675.0
76 126 42.0
76 127 3506.0
76 128 2518.0
76 130 567.0
76 131 198.0
76 132 991777.0
76 134 155582.0
76 135 56.0
76 136 283755.0
76 137 299395.0
76 139 110.0
76 142 231842.0
76 144 1798.0
76 145 823389.0
76 146 695620.0
76 147 37.0
76 149 258.0
76 151 411.0
76 156 1830.0
76 157 115.0
76 158 634664.0
76 163 7803.0
76 164 13595.0
76 165 5.0
76 167 1.0
76 168 683.0
76 169 206.0
76 170 41522.0
76 173 545357.0
76 174 162829.0
76 175 1301.0
76 176 69.0
76 177 25708.0
76 178 147.0
76 179 130366.0
76 180 399571.0
76 181 1276.0
76 182 12935.0
76 184 405.0
76 185 28288.0
76 186 71.0
76 187 492952.0
76 188 227.0
76 189 1884.0
76 190 9915.0
76 193 60601.0
76 194 1437.0
76 195 3869.0
76 196 824.0
76 197 116.0
76 198 806.0
76 199 5839.0
76 202 279514.0
76 203 3284.0
76 204 611.0
76 205 1112.0
76 211 259905.0
76 215 6461.0
76 226 9783.0
76 228 2.0
76 239 17507.0
76 244 41.0
76 245 2218.0
76 246 641.0
76 248 21994.0
76 249 146964.0
76 251 15103.0
76 252 3389.0
76 256 114.0
76 257 20412.0
76 258 128111.0
76 262 138.0
76 264 222.0
76 268 154837.0
76 270 95061.0
76 271 71435.0
76 272 3638.0
76 273 75216.0
76 313 22078.0
76 316 1112721.0
76 345 489.0
76 346 1395.0
76 347 321.0
76 349 2413.0
76 352 392.0
76 353 308.0
76 354 1998.0
76 355 13.0
76 372 40.0
76 375 25003.0
76 378 108.0
76 462 71585.0
76 463 31567.0
76 464 12.0
76 465 8.0
76 466 14.0
76 470 338.0
76 472 3778.0
76 475 182.0
76 539 51.0
76 545 62.0
76 571 94574.0
76 575 2239.0
76 578 8504.0
76 583 99.0
76 590 398.0
76 592 457.0
76 607 5154.0
76 609 6.0
76 617 131.0
76 618 2.0
76 619 12.0
76 624 1351.0
76 627 2140.0
76 634 97.0
76 637 4632.0
76 638 61.0
76 648 11.0
76 655 309.0
76 657 94223.0
76 662 51.0
76 672 564.0
76 674 52.0
76 676 100.0
76 680 1184.0
76 685 13423.0
76 686 44909.0
76 705 44.0
76 708 65.0
76 725 37.0
76 742 1.0
76 790 26.0
76 839 68.0
76 841 29216.0
76 861 4097.0
76 961 1.0
76 980 18.0
76 1157 1649.0
77 78 651.0
77 79 2286.0
77 80 53432.0
77 81 129633.0
77 82 7.0
77 83 30.0
77 84 49.0
77 85 22.0
77 87 203452.0
77 89 189.0
77 91 67.0
77 94 22.0
77 96 5.0
77 100 28.0
77 101 100111.0
77 102 6.0
77 104 19.0
77 105 7.0
77 107 2175.0
77 108 258.0
77 109 1.0
77 110 963.0
77 112 76.0
77 123 899.0
77 124 18.0
77 126 484.0
77 127 8477.0
77 128 49.0
77 129 26.0
77 131 36.0
77 132 252.0
77 134 163.0
77 135 60.0
77 136 47467.0
77 137 1285.0
77 139 9.0
77 140 71.0
77 142 15433.0
77 144 274074.0
77 145 514.0
77 146 83814.0
77 147 46.0
77 149 22711.0
77 150 5.0
77 151 54.0
77 156 72461.0
77 157 1131.0
77 158 164170.0
77 160 27.0
77 163 75979.0
77 164 2766.0
77 165 238.0
77 167 716.0
77 170 52.0
77 173 704.0
77 174 2034.0
77 175 3989.0
77 176 4.0
77 177 109.0
77 178 3376.0
77 179 221.0
77 180 2.0
77 181 94.0
77 182 76311.0
77 183 1.0
77 185 96.0
77 187 660.0
77 188 703.0
77 189 875.0
77 190 9908.0
77 193 2285.0
77 194 130.0
77 195 243.0
77 196 213.0
77 198 573.0
77 199 69.0
77 201 13.0
77 202 3015.0
77 203 8.0
77 211 10.0
77 232 54.0
77 239 97.0
77 245 1.0
77 248 148.0
77 249 14.0
77 251 39.0
77 255 59.0
77 256 39.0
77 258 230.0
77 265 39.0
77 268 6.0
77 270 6.0
77 271 158.0
77 275 10.0
77 313 4.0
77 349 80.0
77 361 87.0
77 371 11.0
77 372 31.0
77 375 41.0
77 378 281.0
77 465 9.0
77 468 25.0
77 470 49.0
77 475 5.0
77 539 3.0
77 571 13.0
77 584 1.0
77 596 33.0
77 609 5.0
77 612 5.0
77 617 1.0
77 656 8.0
77 657 16.0
77 683 272.0
77 686 20.0
77 694 1.0
77 718 6.0
77 719 18.0
77 725 23.0
77 790 19.0
77 808 94.0
77 819 1.0
77 839 31.0
77 961 11.0
77 990 1.0
78 79 260957.0
78 80 539490.0
78 81 140501.0
78 82 311049.0
78 83 65.0
78 84 362.0
78 85 28.0
78 87 654125.0
78 89 116242.0
78 90 118.0
78 91 4402.0
78 92 15.0
78 93 136.0
78 94 2119.0
78 96 15820.0
78 100 260.0
78 101 254110.0
78 102 45.0
78 103 220.0
78 105 17025.0
78 106 197.0
78 107 1039.0
78 110 1827.0
78 112 150238.0
78 123 75440.0
78 124 2141.0
78 126 258.0
78 127 23094.0
78 128 3339.0
78 129 1.0
78 130 347.0
78 131 2210.0
78 132 41507.0
78 134 2447.0
78 135 1442.0
78 136 190757.0
78 137 37208.0
78 139 75.0
78 140 967.0
78 142 86432.0
78 144 416287.0
78 145 192037.0
78 146 995034.0
78 147 699.0
78 149 125944.0
78 150 120.0
78 151 2733.0
78 154 43.0
78 156 51473.0
78 157 2934.0
78 158 292403.0
78 160 53.0
78 163 298939.0
78 164 221661.0
78 165 660.0
78 166 107.0
78 167 537.0
78 168 323.0
78 170 1692.0
78 171 12.0
78 173 290844.0
78 174 31471.0
78 175 68639.0
78 176 87648.0
78 177 617.0
78 178 5279.0
78 179 2895.0
78 180 1077.0
78 181 69098.0
78 182 421839.0
78 183 11.0
78 184 120.0
78 185 1807.0
78 186 6430.0
78 187 7491.0
78 188 3668.0
78 189 128996.0
78 190 15850.0
78 193 4661.0
78 194 116749.0
78 195 102310.0
78 196 6875.0
78 197 148.0
78 198 17841.0
78 199 3757.0
78 201 65.0
78 202 141643.0
78 203 4254.0
78 204 80.0
78 205 156.0
78 211 18.0
78 232 185.0
78 234 73.0
78 235 36.0
78 236 1552.0
78 239 356.0
78 244 241.0
78 248 332.0
78 249 50.0
78 252 21104.0
78 254 38.0
78 255 44.0
78 257 1545.0
78 258 705.0
78 262 44.0
78 268 86.0
78 270 20.0
78 271 1497.0
78 272 109.0
78 273 117.0
78 316 879.0
78 349 510.0
78 352 31.0
78 353 156.0
78 362 755.0
78 378 81.0
78 464 87.0
78 465 70.0
78 470 50.0
78 471 24.0
78 475 611.0
78 539 74.0
78 556 2.0
78 574 3.0
78 590 94.0
78 596 1.0
78 597 359.0
78 631 212.0
78 649 98.0
78 657 147.0
78 662 167.0
78 685 9.0
78 691 140.0
78 694 66.0
78 706 3.0
78 707 30.0
78 715 108.0
78 725 143.0
78 730 13.0
78 839 35.0
78 841 14.0
78 874 156.0
78 906 3325.0
78 918 2.0
78 925 354.0
78 964 5.0
78 1016 6.0
78 1028 1508.0
78 1029 187.0
78 1030 2160.0
78 1293 474.0
78 1358 7693.0
78 1359 9247.0
78 1496 131.0
79 80 732422.0
79 81 256736.0
79 82 432330.0
79 83 35801.0
79 84 91.0
79 85 115.0
79 86 134811.0
79 87 888678.0
79 89 1428395.0
79 90 257.0
79 91 428587.0
79 92 131.0
79 94 123175.0
79 95 145.0
79 96 225921.0
79 98 79061.0
79 101 373742.0
79 102 2717.0
79 103 143.0
79 104 36.0
79 105 443434.0
79 107 2492.0
79 112 229842.0
79 123 79666.0
79 124 196344.0
79 126 491.0
79 127 162303.0
79 128 384663.0
79 131 633.0
79 132 765818.0
79 134 415878.0
79 135 2275.0
79 136 948545.0
79 137 291799.0
79 139 1165.0
79 142 260806.0
79 144 73062.0
79 145 595658.0
79 146 812371.0
79 147 49191.0
79 149 1340558.0
79 151 799.0
79 152 96.0
79 153 80.0
79 156 302602.0
79 157 674.0
79 158 687220.0
79 160 353651.0
79 163 200490.0
79 164 493340.0
79 165 1162.0
79 166 11065.0
79 167 284.0
79 168 110914.0
79 169 163.0
79 170 256188.0
79 173 663337.0
79 174 249209.0
79 175 8122.0
79 176 16990.0
79 177 34097.0
79 178 6031.0
79 179 131726.0
79 180 146.0
79 181 10346.0
79 182 311922.0
79 185 376095.0
79 187 231348.0
79 188 1714.0
79 189 21223.0
79 190 144598.0
79 193 82590.0
79 194 194701.0
79 195 126776.0
79 196 3534.0
79 198 3631.0
79 199 2258.0
79 201 7475.0
79 202 145.0
79 203 1101.0
79 204 561.0
79 205 23763.0
79 211 156727.0
79 229 5.0
79 235 1663.0
79 236 206.0
79 239 126994.0
79 244 278416.0
79 246 120584.0
79 249 100026.0
79 251 28504.0
79 252 65637.0
79 256 84.0
79 257 115360.0
79 258 139.0
79 260 265.0
79 264 79175.0
79 268 50267.0
79 270 140451.0
79 272 929953.0
79 273 113278.0
79 275 36072.0
79 278 25630.0
79 313 35179.0
79 316 833043.0
79 339 77099.0
79 344 191.0
79 345 9948.0
79 347 184.0
79 349 75583.0
79 351 21997.0
79 352 136.0
79 353 42.0
79 354 87228.0
79 355 41345.0
79 373 3947.0
79 375 125.0
79 378 543.0
79 417 378.0
79 459 5286.0
79 461 4179.0
79 462 56242.0
79 464 55563.0
79 470 19329.0
79 484 81400.0
79 496 163654.0
79 512 368.0
79 516 97.0
79 539 442.0
79 545 693.0
79 571 91.0
79 575 77.0
79 577 35.0
79 578 10982.0
79 581 374.0
79 582 7269.0
79 584 36454.0
79 590 128.0
79 592 2631.0
79 593 3415.0
79 597 104.0
79 598 31.0
79 604 79568.0
79 605 771.0
79 607 387.0
79 610 38523.0
79 613 1583.0
79 619 1724.0
79 620 149.0
79 621 591.0
79 622 145744.0
79 629 625.0
79 631 668492.0
79 632 1412.0
79 633 1215.0
79 639 2333.0
79 640 360207.0
79 646 14.0
79 648 4.0
79 649 2329.0
79 655 1099.0
79 657 46790.0
79 660 601.0
79 662 115.0
79 663 193541.0
79 664 264.0
79 669 397.0
79 670 21.0
79 671 5.0
79 672 631.0
79 676 96027.0
79 677 6.0
79 685 23646.0
79 686 34964.0
79 690 144.0
79 691 701.0
79 694 14906.0
79 714 344.0
79 719 5557.0
79 798 47252.0
79 799 5093.0
79 824 641.0
79 852 14486.0
79 856 742.0
79 857 144.0
79 872 248.0
79 877 1689.0
79 885 3375.0
79 896 4.0
79 930 1071.0
79 937 282.0
79 1030 154.0
79 1085 6009.0
79 1096 49.0
79 1121 1024.0
79 1122 1492.0
79 1254 6.0
79 1303 123.0
79 1309 825.0
79 1310 355.0
79 1316 457.0
79 1322 121.0
79 1347 93673.0
80 81 52.0
80 82 177.0
80 84 2.0
80 86 21.0
80 89 408528.0
80 90 148.0
80 91 351268.0
80 94 98.0
80 95 32.0
80 96 320138.0
80 100 121453.0
80 101 515762.0
80 102 21019.0
80 103 2092.0
80 105 667.0
80 107 6191.0
80 110 1822.0
80 112 145735.0
80 123 146438.0
80 124 130542.0
80 126 1182.0
80 127 142578.0
80 128 175994.0
80 130 270.0
80 131 8231.0
80 132 327312.0
80 134 271312.0
80 135 16704.0
80 136 451096.0
80 137 407752.0
80 139 119.0
80 140 988.0
80 142 8.0
80 144 137992.0
80 145 105.0
80 146 863186.0
80 147 17451.0
80 149 370.0
80 151 8087.0
80 154 123.0
80 156 418575.0
80 157 7287.0
80 158 80.0
80 160 209940.0
80 163 652532.0
80 164 427853.0
80 165 595.0
80 167 613.0
80 170 216231.0
80 171 129.0
80 173 772895.0
80 174 88347.0
80 175 241971.0
80 176 24188.0
80 177 351025.0
80 178 68537.0
80 179 132866.0
80 180 6814.0
80 181 132031.0
80 182 514162.0
80 184 9.0
80 185 197357.0
80 186 6.0
80 187 238034.0
80 188 83507.0
80 189 312024.0
80 190 136438.0
80 193 271801.0
80 194 215599.0
80 195 210678.0
80 196 101605.0
80 198 103758.0
80 199 38527.0
80 202 368320.0
80 203 128898.0
80 204 364.0
80 205 124.0
80 210 235.0
80 211 124.0
80 219 57.0
80 221 3.0
80 222 3.0
80 224 1.0
80 229 133.0
80 239 134.0
80 249 9.0
80 252 135.0
80 257 1.0
80 263 30.0
80 268 10.0
80 270 62.0
80 271 190.0
80 273 50.0
80 277 110.0
80 313 41.0
80 314 57.0
80 316 37.0
80 353 2.0
80 361 81.0
80 362 716.0
80 375 1576.0
80 459 31.0
80 461 8.0
80 462 10.0
80 464 82747.0
80 465 2.0
80 470 2105.0
80 475 42.0
80 539 132.0
80 545 35.0
80 571 66.0
80 574 5.0
80 582 1740.0
80 583 182.0
80 590 18.0
80 596 5.0
80 608 15.0
80 612 31.0
80 619 3386.0
80 649 45.0
80 658 2.0
80 662 207.0
80 674 410.0
80 676 22.0
80 686 29.0
80 690 41.0
80 691 71.0
80 694 39.0
80 708 109.0
80 719 34.0
80 727 120.0
80 731 41.0
80 734 9.0
80 735 43.0
80 790 28.0
80 799 18.0
80 838 46.0
80 870 92226.0
80 871 1.0
80 898 55.0
80 906 153.0
80 967 6.0
80 1233 33.0
80 1438 40.0
81 82 90262.0
81 83 40944.0
81 84 50561.0
81 85 93.0
81 87 338083.0
81 89 106049.0
81 91 88240.0
81 92 54.0
81 94 1278.0
81 96 18273.0
81 97 630.0
81 98 11.0
81 100 223.0
81 101 94298.0
81 102 85176.0
81 104 80034.0
81 105 37930.0
81 107 12.0
81 110 1124.0
81 112 152448.0
81 123 14.0
81 124 354.0
81 126 30585.0
81 127 101117.0
81 128 445.0
81 129 213.0
81 131 206.0
81 132 143957.0
81 134 561.0
81 135 406.0
81 136 127716.0
81 137 93328.0
81 139 118.0
81 142 90247.0
81 144 65970.0
81 145 187720.0
81 146 153919.0
81 147 47017.0
81 149 131439.0
81 150 403.0
81 151 66.0
81 152 59.0
81 156 451.0
81 158 194182.0
81 159 26.0
81 163 231124.0
81 164 257037.0
81 165 61894.0
81 166 370.0
81 168 153.0
81 169 59663.0
81 170 654.0
81 172 81.0
81 173 317932.0
81 174 174405.0
81 175 68.0
81 176 90826.0
81 177 92359.0
81 178 282.0
81 179 516.0
81 180 15066.0
81 181 1013.0
81 182 252761.0
81 184 287.0
81 185 148.0
81 187 92281.0
81 188 591.0
81 189 25283.0
81 190 110898.0
81 192 14.0
81 193 85677.0
81 194 91433.0
81 195 50493.0
81 196 112.0
81 197 45.0
81 198 114.0
81 199 154.0
81 201 58459.0
81 202 168710.0
81 203 1308.0
81 204 2008.0
81 205 101.0
81 210 12005.0
81 211 79.0
81 229 4.0
81 232 185.0
81 233 70616.0
81 238 13861.0
81 239 79852.0
81 245 277.0
81 247 2.0
81 252 32060.0
81 254 91.0
81 256 74.0
81 257 66714.0
81 258 21774.0
81 260 118.0
81 264 33861.0
81 265 72450.0
81 267 274.0
81 268 235.0
81 270 286.0
81 271 924.0
81 272 7360.0
81 273 108.0
81 275 42.0
81 316 127758.0
81 337 34454.0
81 340 409.0
81 344 117.0
81 349 558.0
81 353 197.0
81 355 56833.0
81 356 20.0
81 372 60679.0
81 373 3.0
81 374 62142.0
81 375 69294.0
81 378 79091.0
81 380 30369.0
81 464 84548.0
81 465 119.0
81 470 88675.0
81 475 143.0
81 484 123294.0
81 539 20.0
81 545 32.0
81 596 47511.0
81 601 1973.0
81 605 4.0
81 607 162.0
81 608 20073.0
81 618 374.0
81 630 63269.0
81 645 39479.0
81 647 2.0
81 649 37.0
81 656 28421.0
81 657 494.0
81 658 91.0
81 662 106.0
81 664 52.0
81 690 244.0
81 694 138.0
81 719 3.0
81 720 35.0
81 725 345.0
81 726 67.0
81 798 172.0
81 936 3.0
81 937 26382.0
81 961 63627.0
81 990 1.0
81 1003 4.0
81 1095 2494.0
81 1266 1555.0
81 1293 3029.0
81 1335 940.0
81 1439 2759.0
82 84 93827.0
82 86 46.0
82 87 327837.0
82 89 172563.0
82 90 5951.0
82 91 144475.0
82 93 99.0
82 94 23.0
82 96 144172.0
82 98 97.0
82 100 6780.0
82 101 116681.0
82 102 74.0
82 103 1737.0
82 105 19064.0
82 107 83.0
82 108 2485.0
82 110 3703.0
82 112 1345.0
82 123 631.0
82 124 279.0
82 127 452.0
82 128 12208.0
82 130 196.0
82 131 464.0
82 132 338200.0
82 134 460.0
82 135 566.0
82 136 279647.0
82 137 69045.0
82 139 502.0
82 142 92954.0
82 144 16410.0
82 145 335500.0
82 146 578372.0
82 147 184.0
82 149 121370.0
82 150 27.0
82 151 945.0
82 152 42.0
82 156 1452.0
82 158 142421.0
82 160 89.0
82 162 75.0
82 163 440103.0
82 164 243799.0
82 165 16.0
82 167 19.0
82 169 9.0
82 170 755.0
82 173 825704.0
82 174 15137.0
82 175 1024.0
82 176 462.0
82 177 171345.0
82 178 315.0
82 179 278.0
82 180 221.0
82 181 865.0
82 182 368851.0
82 184 204.0
82 185 213.0
82 186 6315.0
82 187 56597.0
82 188 18.0
82 189 92481.0
82 190 4498.0
82 191 156.0
82 193 27506.0
82 194 113755.0
82 195 153856.0
82 196 856.0
82 198 825.0
82 199 716.0
82 201 68.0
82 202 183405.0
82 203 10.0
82 204 118.0
82 205 54.0
82 211 1.0
82 220 5.0
82 229 60.0
82 234 71.0
82 237 107.0
82 239 210.0
82 244 128.0
82 245 73.0
82 248 2.0
82 249 46043.0
82 252 37001.0
82 254 59.0
82 256 26.0
82 257 71990.0
82 258 3.0
82 259 2.0
82 262 60.0
82 263 89.0
82 264 6778.0
82 265 14.0
82 271 999.0
82 273 284.0
82 277 46.0
82 312 90.0
82 313 17.0
82 316 599.0
82 341 94.0
82 349 50.0
82 353 21.0
82 362 22.0
82 374 15.0
82 375 34.0
82 463 56.0
82 464 39.0
82 468 8.0
82 470 2225.0
82 471 1.0
82 472 105.0
82 475 260.0
82 539 7.0
82 545 222.0
82 574 1.0
82 582 8662.0
82 583 108.0
82 590 174.0
82 596 70.0
82 601 2503.0
82 608 28.0
82 618 94.0
82 619 6.0
82 624 8.0
82 656 136.0
82 658 37.0
82 662 621.0
82 663 85.0
82 664 6660.0
82 690 1.0
82 694 57.0
82 705 88.0
82 708 157.0
82 711 95.0
82 714 119.0
82 716 1797.0
82 718 1.0
82 720 18.0
82 725 65.0
82 727 193.0
82 738 47.0
82 792 85.0
82 819 5.0
82 842 1161.0
82 901 23.0
82 936 33.0
82 973 136.0
82 1026 133.0
82 1033 3.0
82 1081 2754.0
82 1280 13.0
82 1334 1879.0
82 1394 50.0
82 1434 6731.0
82 1455 5.0
83 85 261.0
83 87 233628.0
83 94 150.0
83 95 7.0
83 101 2.0
83 102 40.0
83 103 495.0
83 104 68.0
83 110 2035.0
83 123 168.0
83 124 20.0
83 128 2.0
83 139 131.0
83 142 84.0
83 146 89138.0
83 151 12.0
83 153 15.0
83 158 205.0
83 159 16.0
83 163 6294.0
83 173 67922.0
83 174 336.0
83 176 76.0
83 177 325.0
83 179 20.0
83 182 132.0
83 183 12.0
83 184 4.0
83 185 5.0
83 187 190.0
83 190 200.0
83 191 16.0
83 194 22.0
83 201 2.0
83 211 6.0
83 239 22.0
83 249 31.0
83 252 282.0
83 254 50.0
83 256 13.0
83 258 29.0
83 262 3.0
83 265 6.0
83 270 12.0
83 271 20.0
83 275 292.0
83 313 15.0
83 337 13.0
83 338 3436.0
83 344 75.0
83 378 109.0
83 461 29.0
83 462 35.0
83 464 15.0
83 466 13.0
83 470 12.0
83 475 196.0
83 590 4.0
83 607 1.0
83 610 20.0
83 612 13.0
83 618 215.0
83 658 16.0
83 676 6.0
83 686 5.0
83 690 11.0
83 694 7.0
83 712 86.0
83 718 2.0
83 725 5.0
83 799 1.0
83 839 47.0
83 841 4.0
83 871 2.0
83 936 188.0
83 1357 48.0
83 1457 44.0
84 87 376396.0
84 89 1773.0
84 90 128.0
84 91 7.0
84 95 108.0
84 101 5365.0
84 102 43.0
84 103 461.0
84 104 38.0
84 105 70.0
84 107 2.0
84 108 1892.0
84 110 2188.0
84 111 14.0
84 123 62.0
84 124 38.0
84 127 8.0
84 128 350.0
84 132 471.0
84 134 84.0
84 135 2.0
84 136 1120.0
84 137 281.0
84 139 84.0
84 142 27542.0
84 145 26338.0
84 146 161514.0
84 147 4.0
84 149 21422.0
84 153 202.0
84 158 300.0
84 162 56.0
84 163 1629.0
84 164 3411.0
84 168 14.0
84 170 107.0
84 173 272211.0
84 174 101.0
84 176 37.0
84 177 290.0
84 179 104.0
84 182 749.0
84 183 8.0
84 184 12.0
84 185 103.0
84 187 266.0
84 189 54.0
84 190 1.0
84 193 64.0
84 196 239.0
84 201 44.0
84 203 32.0
84 204 14.0
84 205 1.0
84 211 101.0
84 234 82.0
84 235 530.0
84 237 49.0
84 239 3.0
84 244 140.0
84 252 11.0
84 253 49.0
84 257 41.0
84 258 56.0
84 262 4.0
84 268 20.0
84 270 50.0
84 273 79.0
84 277 656.0
84 344 68.0
84 349 10.0
84 353 67.0
84 375 39.0
84 461 49.0
84 464 8.0
84 465 5.0
84 470 260.0
84 472 3.0
84 475 85.0
84 539 7.0
84 575 65.0
84 612 1.0
84 618 109.0
84 630 20.0
84 648 2.0
84 676 11.0
84 690 23.0
84 691 215.0
84 694 11.0
84 706 63.0
84 720 17.0
84 725 49.0
84 731 20.0
84 732 8.0
84 790 2.0
84 792 83.0
84 838 440.0
84 839 7.0
84 842 1.0
84 871 3.0
84 882 1.0
84 936 128.0
84 965 221.0
84 966 283.0
84 1439 1.0
85 86 2317.0
85 87 57291.0
85 88 162.0
85 89 23453.0
85 91 15114.0
85 94 133.0
85 95 452.0
85 96 61.0
85 99 147.0
85 101 179.0
85 105 34.0
85 124 47.0
85 127 2.0
85 128 91.0
85 132 70547.0
85 134 339.0
85 136 404.0
85 137 93.0
85 142 479.0
85 145 12710.0
85 146 49.0
85 149 61182.0
85 158 5.0
85 160 220.0
85 173 615.0
85 174 27.0
85 176 4.0
85 179 76.0
85 180 5.0
85 185 61.0
85 186 22.0
85 187 9.0
85 193 308.0
85 194 2.0
85 197 1.0
85 201 6.0
85 211 9.0
85 239 9835.0
85 244 122443.0
85 249 87.0
85 254 2.0
85 256 10344.0
85 257 10364.0
85 258 104.0
85 264 7.0
85 266 8125.0
85 268 19.0
85 270 74.0
85 271 87.0
85 272 149.0
85 273 288.0
85 275 141.0
85 278 11156.0
85 313 326.0
85 316 13.0
85 349 171.0
85 371 3.0
85 372 6.0
85 374 8.0
85 375 2.0
85 459 7.0
85 463 1.0
85 464 1.0
85 578 4.0
85 584 9.0
85 608 5.0
85 634 3.0
85 664 13.0
85 705 263.0
85 711 4590.0
85 791 24729.0
85 798 18864.0
85 857 19904.0
85 870 2405.0
85 966 5968.0
86 87 762.0
86 89 91807.0
86 91 6163.0
86 94 316.0
86 96 175.0
86 97 98.0
86 101 91.0
86 112 12.0
86 127 346.0
86 128 182.0
86 132 40194.0
86 134 142.0
86 136 27315.0
86 137 115.0
86 140 67.0
86 142 80.0
86 145 50311.0
86 149 140240.0
86 158 17784.0
86 163 1.0
86 164 170.0
86 170 73.0
86 173 491.0
86 174 195.0
86 176 146.0
86 179 204.0
86 180 1270.0
86 185 85.0
86 187 423.0
86 190 133.0
86 191 11.0
86 229 56.0
86 232 97.0
86 239 139.0
86 244 253.0
86 245 7.0
86 248 219.0
86 256 462.0
86 270 43.0
86 273 90.0
86 275 217.0
86 278 243.0
86 316 445722.0
86 349 58.0
86 378 96.0
86 545 3.0
86 559 5.0
86 596 162.0
86 610 4.0
86 962 6.0
86 1108 4.0
87 89 1344706.0
87 90 2473.0
87 91 492946.0
87 92 99.0
87 94 334100.0
87 95 68438.0
87 96 377720.0
87 98 238.0
87 100 1039.0
87 101 926285.0
87 102 246924.0
87 103 378.0
87 104 41.0
87 105 773473.0
87 107 165995.0
87 110 359.0
87 112 487524.0
87 123 170943.0
87 124 233186.0
87 127 439692.0
87 128 504638.0
87 130 10699.0
87 131 113242.0
87 132 1572080.0
87 134 462768.0
87 136 612405.0
87 137 547610.0
87 139 186226.0
87 142 467547.0
87 144 494.0
87 145 1484454.0
87 146 1527742.0
87 147 116.0
87 149 1223167.0
87 150 2.0
87 151 25705.0
87 152 53.0
87 154 12.0
87 156 310.0
87 157 627.0
87 158 1095685.0
87 159 141.0
87 163 1136198.0
87 164 2136371.0
87 166 95865.0
87 168 304508.0
87 169 54.0
87 170 110734.0
87 171 12.0
87 173 1559304.0
87 174 357172.0
87 175 1402.0
87 176 266524.0
87 177 472506.0
87 178 1459.0
87 179 192404.0
87 180 137331.0
87 181 556273.0
87 182 1233932.0
87 183 108.0
87 184 86035.0
87 185 174237.0
87 186 131289.0
87 187 510860.0
87 188 90861.0
87 189 833540.0
87 190 324660.0
87 193 301183.0
87 194 1286856.0
87 195 1846360.0
87 196 199012.0
87 197 79458.0
87 198 210068.0
87 199 555018.0
87 201 65.0
87 202 499805.0
87 203 169937.0
87 204 263259.0
87 205 157858.0
87 211 373574.0
87 212 4817.0
87 214 1817.0
87 219 95.0
87 230 136574.0
87 233 12.0
87 235 68982.0
87 236 2580.0
87 239 153921.0
87 244 1150.0
87 246 549.0
87 248 67049.0
87 249 78526.0
87 251 67763.0
87 252 380846.0
87 253 132848.0
87 254 262.0
87 255 2.0
87 256 141068.0
87 257 378258.0
87 258 131451.0
87 262 103485.0
87 264 59106.0
87 265 89.0
87 268 136430.0
87 270 355140.0
87 271 92789.0
87 272 299697.0
87 273 318323.0
87 274 58546.0
87 275 18379.0
87 313 60409.0
87 314 113.0
87 316 1184190.0
87 321 1291.0
87 322 207.0
87 337 286.0
87 339 1159.0
87 340 86.0
87 341 5.0
87 345 38724.0
87 347 508.0
87 348 69.0
87 349 269602.0
87 351 10617.0
87 353 154923.0
87 355 142155.0
87 373 601313.0
87 374 12.0
87 375 177419.0
87 378 86.0
87 417 300348.0
87 461 85998.0
87 462 139517.0
87 464 64.0
87 465 60475.0
87 466 145.0
87 470 11966.0
87 471 109089.0
87 472 127668.0
87 475 122099.0
87 482 110601.0
87 484 249622.0
87 496 750225.0
87 501 5479.0
87 512 66524.0
87 516 239579.0
87 539 83425.0
87 545 47.0
87 570 138149.0
87 571 72.0
87 574 37104.0
87 575 92252.0
87 577 1697.0
87 578 18662.0
87 579 13095.0
87 580 78.0
87 583 286.0
87 584 75558.0
87 585 69064.0
87 587 197613.0
87 589 1.0
87 590 54509.0
87 593 337026.0
87 596 40058.0
87 598 140879.0
87 601 12222.0
87 602 172913.0
87 604 254606.0
87 605 103900.0
87 606 5703.0
87 607 28514.0
87 608 92041.0
87 611 170.0
87 612 13474.0
87 613 214510.0
87 618 145881.0
87 619 83425.0
87 620 206.0
87 621 30.0
87 622 126442.0
87 624 31217.0
87 626 190459.0
87 627 300881.0
87 628 153912.0
87 632 1100354.0
87 634 3745.0
87 635 53.0
87 639 155815.0
87 640 101312.0
87 644 22571.0
87 648 14639.0
87 649 21593.0
87 650 322344.0
87 657 86.0
87 658 164788.0
87 664 45769.0
87 669 42117.0
87 670 74.0
87 672 6116.0
87 676 140.0
87 677 3925.0
87 678 18046.0
87 681 141.0
87 685 33399.0
87 686 180996.0
87 687 1.0
87 690 60272.0
87 691 404.0
87 694 127135.0
87 697 2.0
87 698 170999.0
87 705 78.0
87 706 36054.0
87 711 103288.0
87 714 85.0
87 716 2039.0
87 719 40009.0
87 720 90144.0
87 725 18052.0
87 731 11552.0
87 799 32117.0
87 824 25743.0
87 828 32467.0
87 838 50.0
87 841 1.0
87 842 27982.0
87 861 301134.0
87 871 14511.0
87 874 3033.0
87 891 5.0
87 892 11914.0
87 894 4829.0
87 901 112.0
87 936 118416.0
87 973 10262.0
87 1010 30028.0
87 1024 65302.0
87 1026 64.0
87 1031 2621.0
87 1054 3826.0
87 1112 45112.0
87 1117 1212.0
87 1123 145739.0
87 1144 6852.0
87 1239 7.0
87 1296 41066.0
87 1310 42837.0
87 1333 3799.0
87 1340 8993.0
87 1341 6275.0
87 1342 8997.0
87 1411 14737.0
87 1439 35933.0
87 1457 43.0
87 1486 4.0
87 1495 5.0
88 97 3063.0
88 132 105.0
88 137 81.0
88 180 503.0
88 239 29256.0
88 257 3115.0
88 258 2846.0
88 266 9355.0
88 274 3031.0
88 466 4607.0
88 711 4344.0
88 733 4408.0
88 791 10471.0
88 857 1831.0
89 90 53.0
89 91 644029.0
89 92 10392.0
89 94 163811.0
89 95 44755.0
89 96 291972.0
89 98 6300.0
89 100 83.0
89 101 291187.0
89 102 214.0
89 103 791.0
89 105 256048.0
89 107 1012.0
89 110 506.0
89 112 176069.0
89 123 9228.0
89 124 155927.0
89 126 105.0
89 127 28993.0
89 128 280597.0
89 130 317.0
89 131 248.0
89 132 889966.0
89 134 207923.0
89 135 1272.0
89 136 254993.0
89 137 207784.0
89 139 95.0
89 142 230005.0
89 144 23462.0
89 145 285745.0
89 146 720835.0
89 147 490.0
89 149 184056.0
89 151 908.0
89 156 108891.0
89 157 1.0
89 158 593367.0
89 160 92040.0
89 163 630332.0
89 164 669684.0
89 165 111.0
89 167 635.0
89 168 249.0
89 169 38.0
89 170 451141.0
89 171 55.0
89 172 3.0
89 173 548238.0
89 174 134203.0
89 175 12893.0
89 176 671.0
89 177 756.0
89 178 1446.0
89 179 173233.0
89 180 367684.0
89 181 49691.0
89 182 718781.0
89 184 342.0
89 185 497250.0
89 186 36.0
89 187 631411.0
89 188 1146.0
89 189 261778.0
89 190 15562.0
89 193 72930.0
89 194 229231.0
89 195 599915.0
89 196 4386.0
89 197 314.0
89 198 48734.0
89 199 6009.0
89 201 192.0
89 202 683293.0
89 203 1532.0
89 204 1268.0
89 205 234.0
89 211 159380.0
89 212 643.0
89 215 3.0
89 219 254.0
89 223 71597.0
89 230 72659.0
89 234 142.0
89 235 363.0
89 237 90.0
89 239 35921.0
89 244 232.0
89 245 1232.0
89 248 53326.0
89 249 46076.0
89 251 3.0
89 252 288410.0
89 254 264.0
89 255 2.0
89 256 69.0
89 257 272.0
89 258 141278.0
89 263 155.0
89 264 174022.0
89 268 199530.0
89 270 134747.0
89 271 52129.0
89 272 479106.0
89 273 188428.0
89 274 145.0
89 275 256.0
89 276 2.0
89 313 23.0
89 316 484774.0
89 322 136607.0
89 345 129.0
89 347 2353.0
89 349 123338.0
89 352 58.0
89 353 90.0
89 354 34632.0
89 374 121.0
89 417 74.0
89 461 133865.0
89 462 186673.0
89 463 46637.0
89 464 366.0
89 465 13489.0
89 468 3.0
89 470 1674.0
89 472 85.0
89 473 139.0
89 475 172.0
89 484 83646.0
89 496 353791.0
89 512 360.0
89 516 1794.0
89 545 501.0
89 571 112545.0
89 575 73.0
89 577 46927.0
89 578 61833.0
89 579 71668.0
89 580 65508.0
89 581 12639.0
89 583 46.0
89 587 69637.0
89 590 115.0
89 592 385.0
89 593 216821.0
89 596 31.0
89 604 98111.0
89 608 125.0
89 613 162606.0
89 619 88.0
89 620 196.0
89 621 2762.0
89 624 54.0
89 625 58.0
89 630 171.0
89 632 352053.0
89 634 353.0
89 638 6.0
89 639 155409.0
89 640 164885.0
89 643 4.0
89 650 140717.0
89 651 3.0
89 657 82140.0
89 662 181.0
89 664 104234.0
89 670 353.0
89 672 57887.0
89 673 384.0
89 676 87086.0
89 677 43671.0
89 681 3288.0
89 682 49700.0
89 685 39052.0
89 686 71085.0
89 690 101.0
89 691 125394.0
89 694 99.0
89 696 1.0
89 705 139.0
89 708 4.0
89 716 5.0
89 731 54.0
89 739 36.0
89 790 87993.0
89 799 91.0
89 808 124.0
89 839 107942.0
89 841 85217.0
89 850 1.0
89 852 41671.0
89 855 46560.0
89 884 215.0
89 896 2.0
89 969 35.0
89 980 73007.0
89 992 329.0
89 1117 38839.0
89 1330 44291.0
89 1337 6.0
89 1429 329.0
89 1502 161.0
89 1503 1.0
90 95 22649.0
90 97 536.0
90 101 54.0
90 103 1861.0
90 105 533.0
90 124 134.0
90 132 104.0
90 136 504.0
90 137 84.0
90 142 128.0
90 146 47.0
90 149 108.0
90 156 50.0
90 158 56.0
90 166 107.0
90 173 181.0
90 174 135.0
90 175 108.0
90 182 53.0
90 187 119.0
90 189 55.0
90 193 596.0
90 195 47.0
90 239 53386.0
90 244 1763.0
90 251 148.0
90 256 41121.0
90 257 49250.0
90 258 22638.0
90 274 28426.0
90 275 27815.0
90 278 3137.0
90 314 55.0
90 353 40729.0
90 355 35958.0
90 571 28633.0
90 583 176.0
90 596 33639.0
90 658 44313.0
90 685 3517.0
90 708 54.0
90 733 31064.0
90 798 36533.0
90 836 130.0
90 857 29070.0
91 92 10.0
91 94 3.0
91 96 111033.0
91 97 357.0
91 100 934.0
91 101 64250.0
91 102 1035.0
91 103 496.0
91 104 42.0
91 105 41008.0
91 107 43.0
91 110 308.0
91 112 2254.0
91 123 645.0
91 124 276.0
91 126 10.0
91 127 1601.0
91 128 57102.0
91 131 63.0
91 132 291545.0
91 134 705.0
91 135 1630.0
91 136 186108.0
91 137 374.0
91 139 115.0
91 142 86459.0
91 144 865.0
91 145 166995.0
91 146 171946.0
91 147 2.0
91 149 195262.0
91 151 113.0
91 152 9.0
91 156 4970.0
91 158 255899.0
91 160 527.0
91 163 199541.0
91 164 75327.0
91 166 40.0
91 167 9.0
91 168 62.0
91 170 1266.0
91 173 172262.0
91 174 3469.0
91 175 1607.0
91 176 1472.0
91 177 599.0
91 178 1376.0
91 179 388.0
91 180 7360.0
91 181 1957.0
91 182 292277.0
91 185 3528.0
91 187 65402.0
91 188 967.0
91 189 4725.0
91 190 2604.0
91 193 712.0
91 194 1861.0
91 195 74044.0
91 196 2015.0
91 197 116.0
91 198 3234.0
91 199 1851.0
91 202 203310.0
91 203 637.0
91 204 98.0
91 205 154.0
91 211 750.0
91 219 583.0
91 235 12.0
91 239 156.0
91 244 7813.0
91 248 6.0
91 249 93.0
91 252 24738.0
91 255 83.0
91 256 30.0
91 257 124.0
91 258 22.0
91 263 55.0
91 264 2.0
91 265 297.0
91 267 1.0
91 268 299.0
91 269 17.0
91 270 76.0
91 271 488.0
91 272 1160.0
91 273 491.0
91 277 136.0
91 316 36507.0
91 344 3.0
91 349 253.0
91 353 540.0
91 375 111.0
91 378 260.0
91 380 170.0
91 461 50.0
91 462 107.0
91 464 212.0
91 465 42.0
91 466 116.0
91 470 704.0
91 471 92.0
91 472 63.0
91 473 240.0
91 474 2.0
91 475 255.0
91 480 1075.0
91 484 167.0
91 496 1660.0
91 516 305.0
91 539 17.0
91 545 89.0
91 571 67.0
91 575 12.0
91 580 126.0
91 583 18.0
91 590 40.0
91 593 47586.0
91 605 170.0
91 608 138.0
91 613 283.0
91 618 25.0
91 634 16.0
91 650 270.0
91 655 49.0
91 656 1.0
91 664 18539.0
91 672 21.0
91 681 24.0
91 686 775.0
91 687 1.0
91 691 2.0
91 694 64.0
91 708 9.0
91 714 55.0
91 718 5.0
91 720 16.0
91 725 47.0
91 731 17.0
91 739 60.0
91 786 168.0
91 791 99.0
91 799 1.0
91 855 563.0
91 857 74.0
91 861 2.0
91 871 13.0
91 1159 98.0
91 1330 6.0
92 94 28.0
92 132 9923.0
92 144 46.0
92 145 1421.0
92 173 177.0
92 185 8.0
92 190 23.0
92 229 3.0
92 273 33.0
92 316 177072.0
92 470 5.0
92 559 1.0
92 899 10.0
93 105 54.0
93 108 1159.0
93 110 2122.0
93 123 105.0
93 135 2.0
93 146 10994.0
93 163 6387.0
93 166 144.0
93 173 64.0
93 182 188.0
93 189 117.0
93 191 93.0
93 193 282.0
93 194 142.0
93 199 135.0
93 338 134.0
93 478 7.0
93 947 13.0
93 1030 2.0
93 1037 3.0
93 1039 20.0
94 96 467.0
94 100 306.0
94 101 10232.0
94 102 40.0
94 103 1139.0
94 104 20.0
94 105 14071.0
94 107 80.0
94 112 217.0
94 123 37.0
94 124 81.0
94 127 2151.0
94 132 153942.0
94 134 153.0
94 136 49.0
94 137 45.0
94 139 267.0
94 142 59489.0
94 145 367.0
94 146 995.0
94 149 115193.0
94 156 1.0
94 158 81630.0
94 163 49.0
94 164 136.0
94 169 25.0
94 170 56.0
94 173 22730.0
94 174 1311.0
94 176 252.0
94 177 382.0
94 179 2674.0
94 180 156.0
94 181 43.0
94 182 1168.0
94 185 413.0
94 187 254.0
94 189 549.0
94 190 932.0
94 193 196.0
94 195 1.0
94 198 249.0
94 201 18.0
94 202 494.0
94 211 168.0
94 219 93.0
94 235 109.0
94 239 26.0
94 244 1195.0
94 248 78.0
94 249 28.0
94 254 90.0
94 256 168.0
94 257 19.0
94 258 24.0
94 266 104.0
94 268 58.0
94 271 177.0
94 272 110.0
94 273 23.0
94 278 2.0
94 313 81.0
94 316 34234.0
94 320 54.0
94 349 38.0
94 350 33.0
94 353 117.0
94 361 90.0
94 362 735.0
94 375 55.0
94 381 72.0
94 461 2.0
94 462 177.0
94 464 2.0
94 465 22.0
94 470 263.0
94 472 14.0
94 539 4.0
94 545 28.0
94 571 16.0
94 581 25.0
94 589 2.0
94 601 2.0
94 603 78.0
94 609 2.0
94 618 5.0
94 619 5.0
94 649 8.0
94 655 73.0
94 657 4.0
94 658 11.0
94 664 64.0
94 681 8.0
94 739 36.0
94 763 60.0
94 839 6.0
94 842 22.0
94 1233 41.0
94 1294 72.0
94 1476 81.0
95 97 31471.0
95 101 40.0
95 102 78.0
95 103 646.0
95 124 23.0
95 128 66.0
95 136 342.0
95 147 3.0
95 149 68.0
95 160 193.0
95 170 38.0
95 179 14.0
95 187 105.0
95 201 49.0
95 211 78.0
95 235 302.0
95 244 1983.0
95 245 4.0
95 248 41.0
95 251 271.0
95 253 24.0
95 255 25.0
95 256 11.0
95 257 52.0
95 258 54.0
95 260 245.0
95 265 6.0
95 270 4.0
95 271 8.0
95 313 21.0
95 353 16.0
95 371 2.0
95 372 2.0
95 374 17.0
95 375 19.0
95 378 67.0
95 380 7.0
95 462 62.0
95 463 22.0
95 464 31.0
95 465 8.0
95 471 1.0
95 544 55.0
95 545 286.0
95 584 4.0
95 608 10.0
95 630 12.0
95 656 1.0
95 686 28.0
95 691 63.0
95 705 10.0
95 936 28.0
95 965 45.0
96 97 45.0
96 101 104958.0
96 102 19.0
96 103 1081.0
96 105 113102.0
96 112 202.0
96 123 287.0
96 124 1742.0
96 127 214.0
96 128 24888.0
96 132 357414.0
96 134 35592.0
96 135 16.0
96 136 256565.0
96 137 114864.0
96 142 139410.0
96 144 39.0
96 145 141600.0
96 146 43444.0
96 147 8.0
96 149 374666.0
96 151 64.0
96 156 170.0
96 157 3.0
96 158 208294.0
96 160 20228.0
96 163 2197.0
96 164 1188.0
96 168 4.0
96 170 7569.0
96 173 321390.0
96 174 44.0
96 175 430.0
96 176 33.0
96 177 328.0
96 178 4.0
96 179 741.0
96 181 118.0
96 182 1583.0
96 184 24.0
96 185 19143.0
96 187 3539.0
96 188 4.0
96 189 303.0
96 190 307.0
96 193 809.0
96 194 771.0
96 195 553.0
96 196 3.0
96 198 19.0
96 199 644.0
96 201 19.0
96 203 98.0
96 211 4500.0
96 230 32.0
96 235 1137.0
96 244 132115.0
96 249 35905.0
96 257 9617.0
96 258 74.0
96 268 765.0
96 270 1020.0
96 273 308.0
96 274 9.0
96 316 83733.0
96 353 55.0
96 464 4.0
96 496 177.0
96 581 83.0
96 590 19.0
96 605 89720.0
96 607 67.0
96 608 295.0
96 610 20328.0
96 650 1875.0
96 799 4.0
96 934 6.0
96 1512 4.0
97 101 341.0
97 102 79.0
97 103 2778.0
97 105 10.0
97 128 667.0
97 132 228.0
97 142 135.0
97 146 35.0
97 158 668.0
97 163 255.0
97 169 19428.0
97 174 259.0
97 177 685.0
97 198 85.0
97 235 350.0
97 239 4164.0
97 245 1147.0
97 256 36022.0
97 257 6491.0
97 258 34894.0
97 266 10792.0
97 272 3.0
97 274 29833.0
97 275 3536.0
97 278 4998.0
97 316 66.0
97 344 279.0
97 353 38670.0
97 355 3712.0
97 374 213.0
97 375 30043.0
97 377 87.0
97 383 260.0
97 475 28334.0
97 571 48312.0
97 596 39036.0
97 600 502.0
97 604 271.0
97 618 25052.0
97 631 108290.0
97 640 129459.0
97 653 8806.0
97 654 30811.0
97 655 368.0
97 664 170.0
97 733 39793.0
97 788 4542.0
97 798 5243.0
97 800 13119.0
97 839 31200.0
97 845 557.0
97 852 40618.0
97 853 18650.0
97 857 46886.0
97 877 8705.0
97 928 14624.0
97 1024 170.0
97 1035 13605.0
97 1070 533.0
97 1085 250.0
97 1357 175.0
97 1522 531.0
97 1523 275.0
98 101 74.0
98 132 2942.0
98 134 24.0
98 136 1.0
98 142 72.0
98 146 57921.0
98 149 181743.0
98 158 301883.0
98 163 261.0
98 164 74850.0
98 174 101.0
98 175 2.0
98 182 30235.0
98 187 19.0
98 188 16.0
98 195 504.0
98 199 72.0
98 202 126.0
98 268 5.0
98 273 1.0
98 316 457009.0
99 128 384.0
99 136 264.0
99 145 2.0
99 149 313.0
99 179 230.0
99 185 238.0
99 244 139.0
99 249 322.0
99 258 138.0
99 268 10.0
99 272 24904.0
99 273 327.0
99 316 73870.0
99 672 102.0
99 673 155.0
100 101 156.0
100 103 3701.0
100 105 23355.0
100 106 3.0
100 112 3.0
100 127 27.0
100 128 422.0
100 132 13605.0
100 134 645.0
100 136 47876.0
100 137 500.0
100 142 18399.0
100 145 48553.0
100 149 770.0
100 156 1.0
100 158 112.0
100 164 2.0
100 170 11.0
100 173 598.0
100 179 30.0
100 185 33.0
100 187 192.0
100 193 166.0
100 202 116.0
100 203 22.0
100 239 5.0
100 249 266.0
100 258 4.0
100 268 293.0
100 270 15.0
100 271 95.0
100 273 36.0
100 313 73.0
100 349 7.0
100 461 39.0
100 468 2.0
100 609 1.0
100 610 143.0
100 1470 2.0
101 102 94238.0
101 103 1803.0
101 104 291.0
101 105 35013.0
101 107 5712.0
101 110 1747.0
101 112 159004.0
101 123 61845.0
101 124 3757.0
101 126 1569.0
101 127 18062.0
101 128 4513.0
101 131 593.0
101 132 148900.0
101 134 5405.0
101 135 2498.0
101 136 313912.0
101 137 122797.0
101 139 118.0
101 140 311.0
101 142 92626.0
101 144 428407.0
101 145 212392.0
101 146 638045.0
101 147 45.0
101 149 145876.0
101 150 71.0
101 151 3509.0
101 154 6.0
101 156 246758.0
101 157 654.0
101 158 164747.0
101 160 1728.0
101 163 303695.0
101 164 360159.0
101 165 1412.0
101 167 1292.0
101 168 105.0
101 169 260.0
101 170 5172.0
101 171 66.0
101 173 466346.0
101 174 70024.0
101 175 20379.0
101 176 112981.0
101 177 180703.0
101 178 4742.0
101 179 7949.0
101 180 5574.0
101 181 7592.0
101 182 457216.0
101 183 75.0
101 184 585.0
101 185 6053.0
101 186 5514.0
101 187 89088.0
101 188 3810.0
101 189 58659.0
101 190 29907.0
101 193 110751.0
101 194 124555.0
101 195 88207.0
101 196 8288.0
101 198 16474.0
101 199 9022.0
101 202 162380.0
101 203 4525.0
101 204 48.0
101 205 158.0
101 211 73.0
101 235 294.0
101 239 807.0
101 244 382.0
101 248 59.0
101 252 100281.0
101 254 178.0
101 255 40.0
101 257 403.0
101 258 80.0
101 263 84.0
101 264 15509.0
101 267 117.0
101 268 16.0
101 270 58.0
101 271 827.0
101 273 101.0
101 312 61.0
101 316 202436.0
101 337 81.0
101 339 63.0
101 344 183.0
101 349 103.0
101 356 138.0
101 374 16.0
101 377 59.0
101 378 79.0
101 461 70.0
101 462 1.0
101 464 176.0
101 466 68.0
101 468 18.0
101 470 1109.0
101 472 3.0
101 475 711.0
101 477 14003.0
101 539 96.0
101 590 53.0
101 594 9133.0
101 601 11.0
101 618 58.0
101 619 112.0
101 620 80.0
101 649 50.0
101 657 66.0
101 658 36.0
101 664 21104.0
101 677 129.0
101 681 71.0
101 686 87.0
101 690 2.0
101 694 2.0
101 707 55.0
101 708 17.0
101 711 99.0
101 712 117.0
101 716 4.0
101 725 98.0
101 731 54.0
101 836 144.0
101 856 14.0
101 874 2258.0
101 925 80.0
101 1031 1915.0
101 1071 14909.0
101 1332 4041.0
101 1359 384.0
102 103 464.0
102 104 7.0
102 105 160.0
102 107 1145.0
102 108 289.0
102 110 2147.0
102 112 54368.0
102 123 3784.0
102 124 81.0
102 126 73.0
102 127 5452.0
102 128 6.0
102 129 78.0
102 131 326.0
102 132 476.0
102 134 138.0
102 135 641.0
102 136 546.0
102 137 759.0
102 139 1.0
102 140 337.0
102 142 317.0
102 144 256799.0
102 145 422.0
102 146 353196.0
102 147 17.0
102 149 25185.0
102 151 23.0
102 154 1.0
102 156 200346.0
102 157 244.0
102 158 252501.0
102 159 5.0
102 160 10.0
102 163 77371.0
102 164 34050.0
102 165 341.0
102 166 157.0
102 167 1580.0
102 169 32.0
102 170 63.0
102 173 54984.0
102 174 3815.0
102 175 943.0
102 176 135.0
102 177 224.0
102 178 1730.0
102 179 102.0
102 181 1119.0
102 182 136579.0
102 184 16.0
102 185 40.0
102 187 202.0
102 188 567.0
102 189 5656.0
102 190 7082.0
102 193 317.0
102 194 1731.0
102 195 1844.0
102 196 471.0
102 198 3633.0
102 199 954.0
102 201 14.0
102 202 3274.0
102 203 67.0
102 204 122.0
102 205 2.0
102 211 18.0
102 235 35.0
102 239 25.0
102 248 18.0
102 249 131.0
102 252 345.0
102 254 3.0
102 256 1.0
102 257 72.0
102 260 296.0
102 267 48.0
102 270 26.0
102 273 22.0
102 274 272.0
102 313 1.0
102 316 8622.0
102 344 16.0
102 353 360.0
102 461 151.0
102 464 182.0
102 465 56.0
102 466 30.0
102 472 2.0
102 475 271.0
102 539 14.0
102 575 179.0
102 584 3.0
102 597 46.0
102 601 14.0
102 607 36.0
102 610 17.0
102 618 7.0
102 630 5.0
102 657 43.0
102 658 83.0
102 686 37.0
102 694 2.0
102 719 7.0
102 720 8.0
102 725 41.0
102 790 13.0
102 798 69.0
102 841 18.0
102 871 5.0
102 937 276.0
102 973 8.0
102 1026 43.0
102 1033 184.0
103 106 300.0
103 107 197.0
103 109 879.0
103 110 222.0
103 111 482.0
103 123 233.0
103 124 229.0
103 126 302.0
103 127 1048.0
103 128 172.0
103 132 133.0
103 133 204.0
103 134 1169.0
103 136 1296.0
103 137 346.0
103 140 1750.0
103 142 255.0
103 144 765.0
103 146 226.0
103 149 435.0
103 153 240.0
103 156 788.0
103 157 563.0
103 158 1263.0
103 160 538.0
103 163 234.0
103 165 252.0
103 166 732.0
103 170 112.0
103 173 908.0
103 174 184.0
103 176 705.0
103 177 306.0
103 178 100.0
103 179 621.0
103 180 769.0
103 185 130.0
103 187 2341.0
103 189 168.0
103 190 1896.0
103 193 1096.0
103 201 366.0
103 202 133.0
103 203 158.0
103 232 198.0
103 235 359.0
103 239 3543.0
103 245 671.0
103 248 2170.0
103 249 756.0
103 250 174.0
103 251 383.0
103 254 806.0
103 255 457.0
103 256 904.0
103 257 1065.0
103 258 1435.0
103 259 782.0
103 260 1273.0
103 265 88.0
103 268 189.0
103 269 47.0
103 270 144.0
103 271 62.0
103 273 54.0
103 274 741.0
103 275 2481.0
103 278 1334.0
103 313 909.0
103 338 152.0
103 340 165.0
103 348 488.0
103 349 709.0
103 353 720.0
103 355 816.0
103 371 161.0
103 372 97.0
103 378 525.0
103 465 847.0
103 466 751.0
103 470 349.0
103 475 240.0
103 596 1499.0
103 608 784.0
103 658 645.0
103 676 129.0
103 692 427.0
103 705 133.0
103 711 953.0
103 733 551.0
103 996 284.0
103 1026 145.0
104 105 54.0
104 124 11.0
104 134 22.0
104 142 65.0
104 145 298.0
104 156 3.0
104 158 67734.0
104 165 46.0
104 176 117.0
104 177 86.0
104 179 31.0
104 185 5.0
104 187 22.0
104 193 181.0
104 211 65.0
104 239 22.0
104 248 37.0
104 249 73.0
104 251 16.0
104 255 330.0
104 256 23.0
104 258 16.0
104 271 1.0
104 273 24.0
104 313 4.0
104 316 718.0
104 337 20.0
104 349 29.0
104 355 25.0
104 374 72.0
104 375 8.0
104 466 107.0
104 468 4.0
104 470 32.0
104 584 20.0
104 596 9.0
104 608 14.0
104 609 1.0
104 657 161.0
104 738 127.0
104 791 731.0
104 882 7.0
104 1205 98.0
104 1558 28.0
105 107 8.0
105 110 254.0
105 112 65.0
105 123 1.0
105 124 8939.0
105 128 25897.0
105 132 270508.0
105 134 167.0
105 135 11.0
105 136 65926.0
105 137 33269.0
105 139 291.0
105 142 77993.0
105 144 127.0
105 145 128233.0
105 146 213456.0
105 147 7.0
105 149 463848.0
105 151 109.0
105 156 61.0
105 158 205450.0
105 163 360247.0
105 164 470536.0
105 166 49.0
105 170 7072.0
105 173 167485.0
105 174 8526.0
105 175 103.0
105 176 170.0
105 177 515.0
105 178 1.0
105 179 23.0
105 180 37700.0
105 181 23444.0
105 182 105055.0
105 185 8525.0
105 187 60500.0
105 188 4.0
105 189 37567.0
105 190 210.0
105 193 272.0
105 194 63972.0
105 195 404799.0
105 198 138.0
105 199 21883.0
105 201 7.0
105 202 203283.0
105 203 151.0
105 219 82.0
105 223 6.0
105 224 4.0
105 225 19.0
105 228 4.0
105 229 435.0
105 235 34.0
105 236 4.0
105 239 132.0
105 244 8428.0
105 245 176.0
105 248 1.0
105 249 35.0
105 254 43.0
105 256 57.0
105 257 7240.0
105 258 26.0
105 265 4.0
105 268 9539.0
105 270 5057.0
105 271 118.0
105 272 11663.0
105 273 5419.0
105 274 8.0
105 275 10.0
105 276 6.0
105 277 4.0
105 312 122.0
105 313 18.0
105 314 49.0
105 316 473693.0
105 341 60.0
105 344 6.0
105 349 8058.0
105 353 24.0
105 361 5.0
105 370 241.0
105 375 74.0
105 417 56.0
105 461 13.0
105 462 25.0
105 463 8.0
105 464 16.0
105 465 55.0
105 466 75.0
105 470 3.0
105 471 42.0
105 472 33.0
105 475 17.0
105 545 367.0
105 558 8.0
105 574 5.0
105 583 115.0
105 584 10.0
105 596 68.0
105 607 18.0
105 608 27.0
105 618 62.0
105 648 12.0
105 656 64.0
105 658 63.0
105 662 266.0
105 672 46.0
105 676 2.0
105 690 8.0
105 707 10.0
105 708 58.0
105 720 21.0
105 723 10.0
105 725 52.0
105 747 11.0
105 787 10.0
105 797 14.0
105 839 11.0
105 897 8.0
105 899 32.0
105 925 72.0
105 936 4.0
105 950 12.0
105 962 38.0
105 1061 23.0
105 1094 10.0
105 1120 4.0
105 1176 8.0
105 1179 5.0
105 1184 5.0
105 1242 8.0
105 1270 6.0
105 1273 9.0
105 1279 3.0
105 1281 9.0
105 1283 13.0
105 1286 2.0
105 1425 4.0
105 1440 3.0
105 1468 37.0
105 1470 4.0
105 1473 4.0
105 1517 3.0
105 1535 8.0
105 1542 9.0
106 107 87.0
106 108 1574.0
106 109 41.0
106 110 1980.0
106 111 282.0
106 112 134.0
106 113 3.0
106 146 124.0
106 164 13.0
106 189 3.0
106 194 6.0
106 355 42.0
107 108 1738.0
107 110 2546.0
107 112 10104.0
107 123 65975.0
107 124 135.0
107 126 217.0
107 127 173441.0
107 128 128.0
107 129 92.0
107 131 648.0
107 132 1199.0
107 134 32.0
107 135 1170.0
107 136 8799.0
107 137 616.0
107 138 101.0
107 140 314.0
107 142 88.0
107 144 266524.0
107 145 360.0
107 146 109458.0
107 147 75.0
107 149 1.0
107 150 270.0
107 151 373.0
107 156 160425.0
107 157 5700.0
107 158 182585.0
107 160 12.0
107 163 176626.0
107 164 169062.0
107 165 1592.0
107 166 446.0
107 167 87.0
107 170 107.0
107 172 59.0
107 173 376.0
107 174 4221.0
107 175 8121.0
107 176 811.0
107 177 1069.0
107 178 3006.0
107 179 520.0
107 181 2182.0
107 182 460207.0
107 183 51.0
107 184 297.0
107 185 79.0
107 187 165.0
107 188 2226.0
107 189 46165.0
107 190 149044.0
107 191 216.0
107 192 105.0
107 193 769.0
107 194 2907.0
107 195 5891.0
107 196 6132.0
107 197 153.0
107 198 4277.0
107 199 1130.0
107 202 6062.0
107 203 708.0
107 205 94.0
107 234 248.0
107 273 2.0
107 314 293.0
107 316 365.0
107 337 598.0
107 338 5800.0
107 340 74.0
107 345 2254.0
107 349 426.0
107 351 912.0
107 352 668.0
107 353 457.0
107 375 373.0
107 464 578.0
107 475 10.0
107 590 2.0
107 643 349.0
107 645 270.0
107 649 48.0
107 798 277.0
107 846 222.0
107 909 4.0
107 1099 217.0
107 1100 14.0
108 109 895.0
108 111 2039.0
108 112 3336.0
108 123 1451.0
108 126 1468.0
108 127 1899.0
108 130 2019.0
108 131 663.0
108 139 871.0
108 140 2405.0
108 146 2015.0
108 148 1147.0
108 150 436.0
108 151 2305.0
108 152 1984.0
108 153 1293.0
108 154 2024.0
108 156 292.0
108 157 1764.0
108 165 1441.0
108 167 1726.0
108 171 863.0
108 173 1926.0
108 176 1372.0
108 181 1984.0
108 183 1428.0
108 190 4387.0
108 194 4498.0
108 195 1.0
108 234 1281.0
108 241 6477.0
108 243 875.0
108 253 2278.0
108 262 1161.0
108 341 410.0
108 344 1922.0
108 385 1145.0
108 471 428.0
108 475 551.0
108 480 1433.0
108 612 337.0
108 690 901.0
108 720 1472.0
108 725 1299.0
108 729 1188.0
108 730 479.0
108 731 1123.0
108 732 628.0
108 768 397.0
108 810 817.0
108 819 2333.0
108 846 784.0
108 881 1564.0
108 917 1454.0
108 1010 729.0
108 1016 875.0
108 1026 528.0
108 1106 465.0
109 110 349.0
109 258 36.0
109 1026 44.0
110 111 2334.0
110 112 323.0
110 123 2733.0
110 126 2097.0
110 127 1080.0
110 129 568.0
110 130 1087.0
110 131 285.0
110 132 57.0
110 133 402.0
110 134 704.0
110 135 2403.0
110 136 320.0
110 137 916.0
110 139 495.0
110 140 1690.0
110 144 1542.0
110 146 4021.0
110 148 2292.0
110 149 269.0
110 150 1749.0
110 151 2120.0
110 152 853.0
110 153 755.0
110 154 1257.0
110 156 250.0
110 157 3044.0
110 158 3461.0
110 162 92.0
110 163 304.0
110 165 1357.0
110 166 1796.0
110 167 2300.0
110 170 107.0
110 171 875.0
110 172 1746.0
110 173 31509.0
110 174 723.0
110 175 1393.0
110 176 2532.0
110 177 2917.0
110 178 1467.0
110 181 5016.0
110 183 1969.0
110 184 252.0
110 189 1838.0
110 190 4336.0
110 191 648.0
110 193 576.0
110 194 7566.0
110 195 709.0
110 196 2515.0
110 198 2683.0
110 203 2148.0
110 205 387.0
110 232 460.0
110 239 1098.0
110 241 5552.0
110 243 161.0
110 245 248.0
110 248 120.0
110 249 367.0
110 253 2097.0
110 256 674.0
110 257 1547.0
110 259 332.0
110 265 212.0
110 274 478.0
110 338 1463.0
110 344 836.0
110 348 147.0
110 353 582.0
110 355 1609.0
110 374 1219.0
110 375 447.0
110 378 246.0
110 464 500.0
110 465 511.0
110 470 245.0
110 471 2175.0
110 475 2790.0
110 539 454.0
110 608 183.0
110 612 117.0
110 618 993.0
110 658 1750.0
110 690 564.0
110 692 550.0
110 711 550.0
110 720 2271.0
110 725 1978.0
110 727 2265.0
110 729 252.0
110 730 769.0
110 731 83.0
110 733 3289.0
110 786 1045.0
110 819 990.0
110 835 2077.0
110 846 1595.0
110 873 892.0
110 917 2239.0
110 996 260.0
110 1010 2253.0
110 1024 778.0
110 1026 2974.0
110 1030 939.0
110 1039 724.0
110 1058 970.0
110 1106 918.0
110 1242 1554.0
110 1320 78.0
110 1321 2348.0
111 127 3.0
111 135 3.0
111 158 63.0
111 167 36.0
111 188 199.0
111 248 3.0
111 374 57.0
111 597 1.0
112 123 226865.0
112 124 3052.0
112 126 430.0
112 127 108206.0
112 128 1326.0
112 129 140.0
112 130 143383.0
112 131 463047.0
112 132 198119.0
112 134 267.0
112 135 101536.0
112 136 256654.0
112 137 874.0
112 139 74207.0
112 142 264989.0
112 144 4382.0
112 145 113307.0
112 146 1423530.0
112 148 59072.0
112 149 169897.0
112 150 82273.0
112 151 355245.0
112 152 76347.0
112 154 72917.0
112 156 9562.0
112 157 143.0
112 158 374387.0
112 159 136431.0
112 160 516.0
112 161 20.0
112 162 135.0
112 163 981675.0
112 164 844678.0
112 165 389.0
112 166 350814.0
112 167 399.0
112 168 38500.0
112 170 208.0
112 171 11282.0
112 172 1.0
112 173 484627.0
112 174 63789.0
112 175 475530.0
112 176 91268.0
112 177 91426.0
112 178 173487.0
112 179 1861.0
112 180 244.0
112 181 576190.0
112 182 1145749.0
112 183 157812.0
112 184 67762.0
112 185 788.0
112 186 20510.0
112 187 1282.0
112 188 306469.0
112 189 412619.0
112 190 111057.0
112 191 38523.0
112 192 10.0
112 193 262.0
112 194 751056.0
112 195 400999.0
112 196 188390.0
112 197 18357.0
112 198 293323.0
112 199 330205.0
112 202 13552.0
112 203 116271.0
112 204 78573.0
112 205 60179.0
112 211 165.0
112 236 497.0
112 240 1.0
112 241 146.0
112 243 11.0
112 252 52077.0
112 257 64.0
112 262 1.0
112 272 86.0
112 273 388.0
112 316 2884.0
112 341 196.0
112 344 44.0
112 373 47110.0
112 385 75.0
112 417 164738.0
112 462 16.0
112 464 144.0
112 475 50837.0
112 484 298.0
112 496 3.0
112 512 20116.0
112 539 283.0
112 545 42.0
112 574 6840.0
112 575 156607.0
112 579 1333.0
112 590 145175.0
112 593 105220.0
112 612 111471.0
112 618 22.0
112 619 34653.0
112 623 2045.0
112 624 3285.0
112 626 2437.0
112 631 54.0
112 632 4041.0
112 633 2030.0
112 648 10174.0
112 649 39.0
112 650 354.0
112 651 32.0
112 652 48.0
112 659 39825.0
112 690 50726.0
112 704 10469.0
112 707 77294.0
112 725 18157.0
112 727 254.0
112 730 58057.0
112 731 130718.0
112 732 56648.0
112 734 55131.0
112 768 59.0
112 809 15.0
112 810 15001.0
112 819 49257.0
112 846 55070.0
112 850 74233.0
112 857 160.0
112 881 49011.0
112 892 3564.0
112 894 3554.0
112 990 28488.0
112 1016 12385.0
112 1094 42774.0
112 1100 107.0
112 1319 50.0
112 1529 75347.0
112 1533 8845.0
112 1534 1483.0
113 127 3.0
113 129 2.0
113 135 7.0
113 150 8.0
113 163 12.0
113 172 8.0
113 175 10.0
113 184 3.0
113 195 8.0
113 197 8.0
113 199 5.0
113 203 5.0
113 213 8.0
113 229 1.0
113 571 3.0
113 612 58.0
113 796 4.0
113 905 4.0
113 1106 2.0
113 1191 2.0
113 1396 2.0
114 115 8.0
114 116 18.0
114 117 74.0
114 118 77.0
114 119 146.0
114 120 133.0
114 121 505.0
114 122 66.0
114 328 9.0
114 391 3.0
114 1068 2.0
115 117 35.0
115 118 6.0
115 119 64.0
115 120 253.0
115 121 11.0
115 122 72.0
115 328 22.0
115 391 74.0
115 396 18.0
115 513 19.0
115 525 12.0
115 529 17.0
115 825 382.0
115 826 47.0
115 827 32.0
115 1068 9.0
116 328 4.0
116 495 150.0
116 504 34.0
116 513 2582.0
116 525 125.0
116 534 305.0
116 536 1.0
116 702 20.0
116 703 16.0
116 826 91.0
116 827 36.0
116 1097 28.0
116 1098 147.0
117 118 33.0
117 119 178.0
117 120 312.0
117 121 84.0
117 122 28.0
117 328 20.0
117 335 8.0
117 513 8.0
117 825 6.0
117 1027 4.0
117 1068 36.0
118 119 92.0
118 120 78.0
118 121 225.0
118 122 17.0
118 328 16.0
118 329 2.0
118 391 1.0
119 120 712.0
119 121 124.0
119 122 91.0
119 292 16.0
119 325 34.0
119 328 10.0
119 391 86.0
119 513 5.0
119 529 19.0
119 534 3.0
119 825 7.0
119 827 36.0
119 1068 58.0
120 121 167.0
120 122 663.0
120 391 4.0
120 825 67.0
120 1068 432.0
120 1508 1.0
121 122 34.0
121 325 51.0
121 328 23.0
121 391 23.0
121 513 3.0
121 525 1.0
121 825 1.0
121 1068 12.0
122 326 2.0
122 327 1.0
122 328 46.0
122 329 1.0
122 335 23.0
122 387 14.0
122 391 269.0
122 396 1.0
122 430 1.0
122 507 1.0
122 529 19.0
122 756 1.0
122 825 27.0
122 1027 1.0
122 1068 589.0
122 1097 16.0
123 124 284.0
123 125 737.0
123 126 218.0
123 127 25871.0
123 128 713.0
123 129 6.0
123 130 270.0
123 131 1484.0
123 132 3157.0
123 133 50.0
123 134 74.0
123 135 7930.0
123 136 130616.0
123 137 45.0
123 138 4998.0
123 139 617.0
123 140 205.0
123 141 119.0
123 142 921.0
123 143 4442.0
123 144 362283.0
123 145 1638.0
123 146 616191.0
123 147 255.0
123 148 283.0
123 149 437.0
123 150 188.0
123 151 5039.0
123 152 70.0
123 153 7.0
123 154 149.0
123 155 660.0
123 156 152588.0
123 157 427.0
123 158 205694.0
123 159 191.0
123 160 1018.0
123 161 2.0
123 162 286.0
123 163 318290.0
123 164 296565.0
123 165 46518.0
123 166 89.0
123 167 46748.0
123 168 115.0
123 169 44.0
123 170 834.0
123 171 59.0
123 172 133.0
123 173 151954.0
123 174 3178.0
123 175 161337.0
123 176 1277.0
123 177 608.0
123 178 10394.0
123 179 341.0
123 180 130.0
123 181 60057.0
123 182 731553.0
123 183 421.0
123 184 268.0
123 185 1613.0
123 186 393.0
123 187 1562.0
123 188 4781.0
123 189 136875.0
123 190 29398.0
123 191 301.0
123 192 885.0
123 193 105.0
123 194 104080.0
123 195 44731.0
123 196 7072.0
123 197 523.0
123 198 16949.0
123 199 6965.0
123 200 3022.0
123 201 53.0
123 202 20661.0
123 203 98934.0
123 204 109.0
123 205 13.0
123 240 6.0
123 312 32.0
123 316 110.0
123 464 74.0
123 619 10.0
123 730 25.0
123 732 2.0
123 901 120.0
123 1050 33.0
124 126 2.0
124 127 1439.0
124 128 146.0
124 130 2.0
124 131 186.0
124 132 11975.0
124 134 3143.0
124 135 1455.0
124 136 384094.0
124 137 279.0
124 140 1.0
124 142 25307.0
124 144 1210.0
124 145 88002.0
124 146 4153.0
124 147 156.0
124 149 103889.0
124 151 233.0
124 153 5.0
124 156 5573.0
124 158 366.0
124 163 88193.0
124 164 1106.0
124 165 6.0
124 170 230.0
124 173 52224.0
124 174 415.0
124 175 1018.0
124 176 106.0
124 177 172.0
124 178 990.0
124 179 1674.0
124 180 1787.0
124 181 321.0
124 182 1454.0
124 187 4123.0
124 188 600.0
124 189 677.0
124 190 2322.0
124 193 363.0
124 194 960.0
124 195 648.0
124 196 230.0
124 198 827.0
124 199 122.0
124 202 85914.0
124 203 434.0
124 211 39.0
124 229 4.0
124 235 128.0
124 239 20.0
124 244 2956.0
124 248 123.0
124 249 19.0
124 251 10.0
124 253 17.0
124 254 42.0
124 257 180.0
124 265 6.0
124 268 85.0
124 269 111.0
124 270 197.0
124 271 15.0
124 273 94.0
124 277 37.0
124 313 37.0
124 316 172.0
124 353 22.0
124 362 295.0
124 374 215.0
124 459 8.0
124 460 5137.0
124 461 24.0
124 462 441.0
124 463 5.0
124 464 22.0
124 465 23.0
124 466 19.0
124 467 6652.0
124 468 11.0
124 469 4450.0
124 470 12.0
124 471 39.0
124 472 18.0
124 473 295.0
124 474 23.0
124 539 10.0
124 610 63.0
124 618 2.0
124 680 11.0
124 841 8.0
124 857 3.0
125 138 10.0
125 155 1.0
126 127 10521.0
126 131 6.0
126 134 21.0
126 135 318.0
126 136 685.0
126 137 12.0
126 140 305.0
126 144 271315.0
126 146 83470.0
126 147 122.0
126 151 51.0
126 156 26480.0
126 157 514.0
126 158 97498.0
126 160 24.0
126 163 59183.0
126 164 1046.0
126 165 37.0
126 167 36.0
126 170 7.0
126 173 240.0
126 174 328.0
126 175 262.0
126 176 46.0
126 177 23.0
126 178 42.0
126 179 31.0
126 181 13.0
126 182 2605.0
126 187 61.0
126 188 136.0
126 189 1196.0
126 190 4312.0
126 194 80.0
126 195 176.0
126 196 104.0
126 198 22.0
126 199 20.0
126 202 435.0
126 203 1.0
126 232 59.0
126 257 281.0
126 374 287.0
126 480 75.0
126 1016 21.0
127 128 4806.0
127 129 224.0
127 130 27.0
127 131 567.0
127 132 58980.0
127 134 1453.0
127 135 2278.0
127 136 165753.0
127 137 985.0
127 139 261.0
127 140 269.0
127 142 21296.0
127 144 554645.0
127 145 3358.0
127 146 556863.0
127 148 127.0
127 149 161617.0
127 150 291.0
127 151 102.0
127 156 289133.0
127 157 55429.0
127 158 688945.0
127 160 641.0
127 162 124.0
127 163 247812.0
127 164 363377.0
127 165 91514.0
127 166 69748.0
127 167 3330.0
127 168 106.0
127 169 179.0
127 170 3618.0
127 172 77.0
127 173 124376.0
127 174 17711.0
127 175 73567.0
127 176 8211.0
127 177 930.0
127 178 4739.0
127 179 3666.0
127 180 60.0
127 181 23298.0
127 182 423213.0
127 183 5.0
127 184 710.0
127 185 670.0
127 186 2.0
127 187 10065.0
127 188 7206.0
127 189 132607.0
127 190 112.0
127 191 611.0
127 192 25.0
127 193 300.0
127 194 104522.0
127 195 176667.0
127 196 133050.0
127 197 157.0
127 198 7142.0
127 199 3580.0
127 201 3.0
127 202 67971.0
127 203 1799.0
127 204 13.0
127 205 359.0
127 211 22.0
127 212 25.0
127 233 137.0
127 234 182.0
127 235 145.0
127 236 714.0
127 237 566.0
127 239 80.0
127 243 1.0
127 245 5.0
127 252 5056.0
127 254 136.0
127 257 40.0
127 258 215.0
127 262 657.0
127 270 63.0
127 271 521.0
127 273 59.0
127 312 50.0
127 313 1.0
127 316 52.0
127 338 26.0
127 349 86.0
127 375 423.0
127 378 116.0
127 464 645.0
127 466 9.0
127 470 13.0
127 475 63.0
127 539 18.0
127 571 113.0
127 574 5.0
127 582 6908.0
127 590 98.0
127 612 11.0
127 618 1.0
127 624 22.0
127 632 3222.0
127 649 147.0
127 656 43.0
127 685 2.0
127 694 5.0
127 704 228.0
127 705 142.0
127 706 3.0
127 707 29.0
127 708 163.0
127 709 65.0
127 710 8.0
127 711 10.0
127 712 82.0
127 713 5.0
127 714 36.0
127 715 53.0
127 716 1.0
127 732 2.0
127 810 1.0
127 905 3.0
127 1121 5.0
127 1475 3.0
127 1481 120.0
128 130 31.0
128 131 407.0
128 132 287.0
128 134 4857.0
128 135 701.0
128 136 504390.0
128 137 1927.0
128 139 91.0
128 142 100660.0
128 144 611.0
128 145 160927.0
128 146 77848.0
128 147 270.0
128 148 99.0
128 149 60623.0
128 151 1.0
128 156 4292.0
128 158 7018.0
128 163 90067.0
128 164 28973.0
128 168 2.0
128 170 10.0
128 172 87.0
128 173 217518.0
128 174 1774.0
128 175 2822.0
128 176 368.0
128 177 1338.0
128 178 831.0
128 179 1225.0
128 180 67459.0
128 181 2784.0
128 182 6677.0
128 184 1.0
128 187 24381.0
128 188 199.0
128 189 7747.0
128 190 1564.0
128 193 1723.0
128 194 987.0
128 195 4093.0
128 196 559.0
128 198 1692.0
128 199 3550.0
128 201 106.0
128 202 173898.0
128 203 278.0
128 204 81.0
128 205 84.0
128 211 12713.0
128 215 36.0
128 230 2.0
128 232 100.0
128 235 36.0
128 239 83.0
128 248 4.0
128 249 46.0
128 252 8956.0
128 254 1026.0
128 256 17.0
128 257 325.0
128 258 39.0
128 263 35.0
128 264 188.0
128 268 105.0
128 270 6443.0
128 271 39.0
128 272 92521.0
128 273 400.0
128 276 2.0
128 277 577.0
128 316 93238.0
128 344 5.0
128 345 11.0
128 347 324.0
128 349 3.0
128 353 236.0
128 354 61.0
128 373 9.0
128 375 138.0
128 423 1.0
128 464 20.0
128 466 62.0
128 470 260.0
128 472 6.0
128 475 5.0
128 539 13.0
128 556 210.0
128 571 93.0
128 575 187.0
128 577 211.0
128 580 6.0
128 590 15.0
128 592 231.0
128 601 68.0
128 608 38.0
128 612 170.0
128 618 1.0
128 626 303.0
128 634 361.0
128 640 10.0
128 669 143.0
128 677 18.0
128 705 352.0
128 707 47.0
128 748 1.0
128 841 75.0
128 936 4.0
128 1157 9.0
128 1354 5.0
128 1460 2.0
129 131 53.0
129 146 34233.0
129 163 3881.0
129 164 31038.0
129 167 27.0
129 175 3909.0
129 176 30.0
129 177 14.0
129 178 931.0
129 182 102706.0
129 189 4826.0
129 190 241.0
129 191 164.0
129 194 53.0
129 195 34506.0
129 198 40.0
129 203 430.0
129 338 112.0
129 619 2.0
129 726 932.0
129 732 2.0
129 786 155.0
129 1033 1.0
130 131 117.0
130 135 216.0
130 136 274.0
130 139 140.0
130 145 10.0
130 146 303892.0
130 149 48.0
130 150 85.0
130 151 169.0
130 154 3.0
130 158 132.0
130 163 30727.0
130 164 27400.0
130 173 116305.0
130 176 5.0
130 178 20.0
130 181 116.0
130 182 127.0
130 184 60.0
130 188 67.0
130 194 91360.0
130 198 337.0
130 202 107.0
130 203 4.0
130 211 2.0
130 338 35700.0
130 341 55.0
130 475 13.0
130 612 170.0
130 707 1719.0
130 730 56.0
130 767 1.0
130 769 1435.0
130 809 139.0
130 810 101.0
130 811 228.0
130 812 2309.0
130 813 987.0
130 814 279.0
130 815 6.0
130 816 1004.0
130 817 6.0
130 819 61.0
130 1046 1.0
131 132 390.0
131 134 39.0
131 135 3172.0
131 136 973.0
131 137 153.0
131 139 91.0
131 142 60.0
131 144 298.0
131 145 616.0
131 146 446361.0
131 148 287.0
131 149 223.0
131 150 739.0
131 151 133106.0
131 156 1350.0
131 158 1037.0
131 159 17503.0
131 160 13.0
131 162 251.0
131 163 146469.0
131 164 98664.0
131 165 56.0
131 166 162.0
131 167 6.0
131 173 126677.0
131 174 85.0
131 175 107014.0
131 176 169.0
131 177 60.0
131 178 9201.0
131 179 78.0
131 181 268487.0
131 182 152685.0
131 183 179.0
131 185 165.0
131 186 191.0
131 187 328.0
131 188 76689.0
131 189 12090.0
131 190 425.0
131 191 2.0
131 194 380724.0
131 195 113243.0
131 196 36978.0
131 198 33994.0
131 199 3247.0
131 202 365.0
131 203 999.0
131 235 11.0
131 239 100.0
131 252 206.0
131 270 18.0
131 274 256.0
131 313 101.0
131 314 2.0
131 338 1131.0
131 375 22.0
131 475 4.0
131 574 4.0
131 618 149.0
131 645 277.0
131 690 18.0
131 694 4.0
131 725 6.0
131 730 20.0
131 733 592.0
131 819 60.0
131 846 16984.0
131 847 43.0
131 848 5506.0
131 849 88.0
131 850 4099.0
131 1033 2.0
132 134 235278.0
132 135 137.0
132 136 1178835.0
132 137 71271.0
132 140 14.0
132 142 198089.0
132 144 21547.0
132 145 966361.0
132 146 733554.0
132 147 300.0
132 149 535775.0
132 151 846.0
132 156 6194.0
132 158 464542.0
132 163 198147.0
132 164 920030.0
132 165 3.0
132 166 114944.0
132 167 114.0
132 168 2674.0
132 169 5.0
132 170 82.0
132 173 459471.0
132 174 56712.0
132 175 43866.0
132 176 383.0
132 177 556.0
132 178 181.0
132 179 512.0
132 180 321257.0
132 181 97955.0
132 182 311401.0
132 186 15.0
132 187 328198.0
132 188 8375.0
132 189 144125.0
132 190 6519.0
132 193 556.0
132 194 273158.0
132 195 1011522.0
132 196 53000.0
132 197 18.0
132 198 1981.0
132 199 5196.0
132 201 3.0
132 202 290393.0
132 203 1891.0
132 204 1821.0
132 205 488.0
132 211 88918.0
132 215 59259.0
132 219 174.0
132 220 3.0
132 224 7820.0
132 226 39274.0
132 228 8.0
132 229 14.0
132 230 138149.0
132 244 84889.0
132 248 6.0
132 249 84519.0
132 252 94149.0
132 257 1165.0
132 258 40.0
132 264 27691.0
132 268 134.0
132 270 60592.0
132 271 149.0
132 272 341872.0
132 273 28075.0
132 314 50.0
132 316 707335.0
132 322 2.0
132 347 148.0
132 349 14371.0
132 352 998.0
132 353 27.0
132 354 83003.0
132 356 189.0
132 357 166.0
132 369 2.0
132 373 20590.0
132 375 9.0
132 417 628.0
132 462 74.0
132 463 1.0
132 464 1210.0
132 470 6.0
132 473 96.0
132 482 19.0
132 484 209712.0
132 496 248783.0
132 512 23.0
132 516 6875.0
132 570 36.0
132 571 812.0
132 575 277.0
132 577 5.0
132 578 107346.0
132 579 6298.0
132 580 97147.0
132 581 1215.0
132 583 137.0
132 585 264.0
132 587 2187.0
132 590 129.0
132 592 836.0
132 593 342507.0
132 601 1.0
132 604 182360.0
132 607 12.0
132 609 1.0
132 613 145031.0
132 617 85.0
132 619 157.0
132 620 185.0
132 621 1060.0
132 622 9460.0
132 626 3152.0
132 627 1096.0
132 632 850028.0
132 633 485.0
132 639 81864.0
132 650 142632.0
132 651 11.0
132 652 7.0
132 657 90397.0
132 662 122.0
132 663 794.0
132 664 31843.0
132 667 10.0
132 669 19.0
132 670 68891.0
132 672 39192.0
132 674 49.0
132 675 84.0
132 677 10215.0
132 682 198.0
132 685 47798.0
132 686 26599.0
132 690 135.0
132 691 55.0
132 694 86.0
132 695 8338.0
132 696 22217.0
132 697 17.0
132 708 173.0
132 714 1.0
132 716 2.0
132 719 43.0
132 748 8.0
132 751 2.0
132 788 64.0
132 791 42.0
132 799 8.0
132 828 862.0
132 829 11336.0
132 838 78.0
132 851 2.0
132 852 2390.0
132 853 112934.0
132 854 12088.0
132 855 8557.0
132 856 69.0
132 857 21398.0
132 858 59524.0
132 859 29842.0
132 860 22052.0
132 861 1018.0
132 862 29864.0
132 863 14473.0
132 864 10879.0
132 865 1.0
132 866 477.0
132 867 5661.0
132 868 6.0
132 869 2.0
132 870 80688.0
132 871 2.0
132 892 26.0
132 913 2.0
132 1085 11.0
132 1110 3.0
132 1122 240.0
132 1302 15.0
132 1305 39.0
132 1412 1.0
132 1461 10.0
133 158 34368.0
133 164 2.0
133 597 1.0
133 882 1.0
133 1470 2.0
134 135 1471.0
134 136 416065.0
134 137 314.0
134 139 318.0
134 142 30924.0
134 144 1423.0
134 145 78519.0
134 146 2610.0
134 147 321.0
134 149 185754.0
134 151 241.0
134 153 248.0
134 156 1080.0
134 158 585.0
134 160 758.0
134 163 151618.0
134 164 1954.0
134 167 9.0
134 168 199.0
134 170 20.0
134 173 38869.0
134 174 5174.0
134 175 2026.0
134 176 332.0
134 177 203.0
134 178 1154.0
134 179 1996.0
134 180 4777.0
134 181 850.0
134 182 82662.0
134 185 948.0
134 187 5742.0
134 188 1027.0
134 189 3535.0
134 190 588.0
134 193 69.0
134 194 2460.0
134 195 708.0
134 196 177.0
134 198 191.0
134 199 378.0
134 201 332.0
134 202 142135.0
134 204 473.0
134 205 123.0
134 211 430.0
134 219 87.0
134 233 257.0
134 235 25.0
134 239 38.0
134 244 5260.0
134 253 1.0
134 254 43.0
134 256 46.0
134 257 12.0
134 258 23.0
134 264 18.0
134 268 39.0
134 270 1078.0
134 271 164.0
134 273 63.0
134 277 2.0
134 316 1380.0
134 353 106.0
134 462 190.0
134 464 32.0
134 465 24.0
134 468 5.0
134 470 402.0
134 472 10.0
134 473 219.0
134 475 2.0
134 539 43.0
134 545 730.0
134 571 2.0
134 578 26.0
134 595 21.0
134 596 2.0
134 601 16.0
134 618 4.0
134 658 10.0
134 664 84.0
134 677 7.0
134 686 515.0
134 705 123.0
134 707 6.0
134 714 93.0
134 718 1.0
134 733 253.0
134 883 288.0
134 884 242.0
134 885 100.0
134 980 1.0
135 136 4262.0
135 137 1647.0
135 139 12.0
135 140 53.0
135 144 1882.0
135 145 1036.0
135 146 80850.0
135 147 2.0
135 148 493.0
135 149 940.0
135 150 16.0
135 151 9845.0
135 152 1.0
135 154 115.0
135 156 8162.0
135 157 14.0
135 158 20.0
135 159 32.0
135 160 293.0
135 162 2.0
135 163 741159.0
135 164 19.0
135 165 99.0
135 166 67.0
135 167 131.0
135 168 4.0
135 170 639.0
135 172 163.0
135 173 181.0
135 174 2136.0
135 175 798869.0
135 176 1834.0
135 177 3107.0
135 178 272.0
135 179 610.0
135 180 19.0
135 181 135995.0
135 182 640681.0
135 183 11.0
135 184 10.0
135 185 862.0
135 187 346.0
135 188 18824.0
135 189 48.0
135 190 4007.0
135 191 3.0
135 193 1169.0
135 194 266411.0
135 195 141020.0
135 196 441708.0
135 197 28.0
135 198 460749.0
135 199 1.0
135 202 909.0
135 203 2247.0
135 204 7.0
135 205 14.0
135 211 2.0
135 212 1.0
135 213 69.0
135 219 8.0
135 225 9.0
135 229 396.0
135 231 2.0
135 239 2.0
135 241 189.0
135 242 9.0
135 243 14.0
135 245 2.0
135 252 56.0
135 254 11.0
135 258 1.0
135 259 4.0
135 263 2.0
135 268 2.0
135 271 4.0
135 273 6.0
135 274 8.0
135 285 51.0
135 314 73.0
135 316 58.0
135 347 10.0
135 353 2.0
135 354 5.0
135 355 48.0
135 370 132.0
135 417 25.0
135 464 41.0
135 471 8.0
135 475 40.0
135 512 69.0
135 531 2.0
135 539 11.0
135 558 7.0
135 559 8.0
135 560 14.0
135 571 11.0
135 574 56.0
135 575 9.0
135 590 43.0
135 607 14.0
135 612 63.0
135 624 9.0
135 648 17.0
135 662 5.0
135 672 10.0
135 682 10.0
135 694 1.0
135 708 5.0
135 709 123.0
135 710 15.0
135 724 25.0
135 728 5.0
135 731 43.0
135 732 40.0
135 734 44.0
135 747 22.0
135 748 6.0
135 751 1.0
135 783 8.0
135 796 3.0
135 832 1.0
135 835 26.0
135 846 113.0
135 847 1.0
135 848 265.0
135 850 218.0
135 876 33.0
135 886 4.0
135 887 9.0
135 888 4.0
135 889 3.0
135 890 2.0
135 891 5.0
135 892 35.0
135 893 10.0
135 894 49.0
135 895 2.0
135 896 70.0
135 897 3.0
135 898 24.0
135 899 13.0
135 900 16.0
135 901 11.0
135 902 4.0
135 903 6.0
135 904 7.0
135 905 13.0
135 906 25.0
135 907 1.0
135 908 5.0
135 909 4.0
135 910 14.0
135 911 2.0
135 912 20.0
135 913 3.0
135 914 2.0
135 915 3.0
135 916 42.0
135 917 3.0
135 918 11.0
135 1033 4.0
135 1047 9.0
135 1058 4.0
135 1320 7.0
135 1398 10.0
135 1407 1.0
135 1442 135.0
135 1507 6.0
135 1554 1.0
136 137 293217.0
136 139 765.0
136 140 558.0
136 142 91589.0
136 144 72572.0
136 145 193.0
136 146 613395.0
136 147 64928.0
136 149 98198.0
136 150 130.0
136 151 828.0
136 152 725.0
136 156 257661.0
136 157 992.0
136 158 376809.0
136 160 321339.0
136 163 306336.0
136 164 324307.0
136 165 1084.0
136 166 55.0
136 167 587.0
136 168 225.0
136 169 115.0
136 170 531156.0
136 171 28.0
136 173 280512.0
136 174 232830.0
136 175 25490.0
136 176 70628.0
136 177 2352.0
136 178 3662.0
136 179 257505.0
136 180 238574.0
136 181 10419.0
136 182 425634.0
136 185 586408.0
136 186 328.0
136 187 391892.0
136 188 21331.0
136 189 175777.0
136 190 213383.0
136 193 219223.0
136 194 105052.0
136 195 102877.0
136 196 11913.0
136 198 10012.0
136 199 4620.0
136 201 636.0
136 202 602596.0
136 203 5336.0
136 205 99.0
136 211 72.0
136 212 341.0
136 220 12.0
136 235 291.0
136 239 12.0
136 244 107.0
136 248 48.0
136 249 236.0
136 252 90563.0
136 254 358.0
136 257 87113.0
136 258 490.0
136 264 90542.0
136 267 256.0
136 268 172112.0
136 270 153981.0
136 271 806.0
136 272 153084.0
136 273 131.0
136 274 50.0
136 316 235559.0
136 340 1348.0
136 345 100.0
136 347 2216.0
136 353 191.0
136 354 2654.0
136 361 288.0
136 373 167.0
136 375 46.0
136 383 690.0
136 417 450.0
136 462 163.0
136 464 72688.0
136 466 148.0
136 470 646.0
136 473 46.0
136 475 228.0
136 476 25.0
136 512 13.0
136 544 87.0
136 545 220.0
136 571 145.0
136 578 300.0
136 580 3441.0
136 583 220.0
136 590 27.0
136 592 196.0
136 603 628.0
136 615 1.0
136 617 10.0
136 619 2.0
136 620 370.0
136 632 95545.0
136 635 3329.0
136 645 263.0
136 649 34.0
136 662 56.0
136 663 458.0
136 664 17626.0
136 672 131.0
136 676 83.0
136 677 139.0
136 690 79.0
136 691 149.0
136 708 99.0
136 716 2.0
136 718 2.0
136 725 73.0
136 798 48.0
136 806 253.0
136 841 211.0
136 847 3.0
136 853 2.0
136 871 3.0
136 892 3.0
136 894 154.0
136 925 296.0
136 926 41.0
136 927 150.0
136 928 6283.0
136 929 474.0
136 930 11210.0
136 931 12.0
136 932 345.0
136 1163 4.0
136 1482 181.0
136 1552 1.0
137 139 140.0
137 140 5.0
137 142 94437.0
137 144 1118.0
137 145 149992.0
137 146 150560.0
137 147 53.0
137 149 142874.0
137 151 1.0
137 154 11.0
137 156 11495.0
137 157 8.0
137 158 198924.0
137 160 867.0
137 163 181443.0
137 164 42730.0
137 165 26.0
137 166 320.0
137 170 1621.0
137 171 22.0
137 173 192950.0
137 174 1511.0
137 175 491.0
137 176 2401.0
137 177 2587.0
137 178 773.0
137 179 1773.0
137 180 2334.0
137 181 1307.0
137 182 247680.0
137 184 162.0
137 185 618.0
137 187 9608.0
137 188 1186.0
137 189 3952.0
137 190 2551.0
137 193 146.0
137 194 1453.0
137 195 3285.0
137 196 548.0
137 197 215.0
137 198 1810.0
137 199 2638.0
137 201 101.0
137 202 179746.0
137 203 36.0
137 204 106.0
137 205 90.0
137 211 191.0
137 219 123.0
137 235 207.0
137 239 263.0
137 244 2023.0
137 248 247.0
137 249 92.0
137 252 2036.0
137 254 139.0
137 255 1.0
137 256 12.0
137 257 46.0
137 258 158.0
137 264 33.0
137 268 121.0
137 270 112.0
137 271 134.0
137 272 618.0
137 273 107.0
137 276 8.0
137 312 82.0
137 314 28.0
137 316 41673.0
137 344 20.0
137 347 18.0
137 349 237.0
137 371 69.0
137 374 2.0
137 378 161.0
137 380 3.0
137 461 1.0
137 462 2.0
137 463 54.0
137 464 266.0
137 465 22.0
137 466 30.0
137 468 1.0
137 470 348.0
137 471 8.0
137 473 43.0
137 475 15.0
137 539 186.0
137 545 47.0
137 571 73.0
137 575 141.0
137 578 14.0
137 597 49.0
137 608 68.0
137 617 87.0
137 618 114.0
137 620 115.0
137 630 48.0
137 662 20.0
137 674 135.0
137 676 22.0
137 686 85.0
137 691 440.0
137 694 48.0
137 720 1.0
137 725 10.0
137 731 28.0
137 790 4.0
137 838 167.0
137 842 8.0
137 843 27.0
137 847 5.0
137 936 126.0
137 961 23.0
137 965 265.0
138 155 2.0
139 142 56.0
139 145 536.0
139 146 544314.0
139 148 4.0
139 149 16.0
139 150 50.0
139 152 141.0
139 158 142926.0
139 161 9.0
139 163 61241.0
139 164 74436.0
139 166 7755.0
139 169 30.0
139 172 4.0
139 173 67710.0
139 174 228.0
139 175 32.0
139 176 1024.0
139 177 357.0
139 178 878.0
139 179 168.0
139 181 5.0
139 182 1090.0
139 183 18.0
139 184 41.0
139 187 305.0
139 188 109.0
139 189 74.0
139 190 1140.0
139 191 105.0
139 193 586.0
139 194 32.0
139 195 28586.0
139 196 76.0
139 197 43.0
139 198 85.0
139 199 151.0
139 202 409.0
139 203 261.0
139 204 1.0
139 253 131.0
139 257 8.0
139 316 54.0
139 337 1322.0
139 338 7982.0
139 343 303.0
139 344 86.0
139 353 148.0
139 355 4.0
139 375 50.0
139 475 75.0
139 539 168.0
139 582 93.0
139 590 76.0
139 648 44.0
139 649 17.0
139 676 287.0
139 686 44.0
139 720 4.0
139 725 16.0
139 731 14.0
139 735 31.0
139 783 4.0
139 786 12.0
139 799 1.0
139 805 62.0
139 819 95.0
139 836 56.0
139 972 11.0
139 992 225.0
139 993 104.0
139 994 83.0
139 995 94.0
140 144 66481.0
140 146 579.0
140 156 166263.0
140 157 53.0
140 158 240083.0
140 163 58.0
140 164 25.0
140 165 122.0
140 167 404.0
140 169 48.0
140 170 2.0
140 174 90.0
140 175 33.0
140 176 70.0
140 177 6.0
140 181 41.0
140 182 378.0
140 185 1.0
140 187 14.0
140 188 235.0
140 190 66.0
140 194 14.0
140 196 27.0
140 202 38.0
140 597 100.0
140 1267 190.0
141 158 21331.0
141 163 84.0
142 145 131347.0
142 146 196944.0
142 149 187084.0
142 150 296.0
142 151 1174.0
142 153 182.0
142 156 160.0
142 158 174332.0
142 163 179742.0
142 164 258622.0
142 173 201656.0
142 174 46629.0
142 175 576.0
142 176 2511.0
142 177 36963.0
142 179 57569.0
142 180 10999.0
142 181 1040.0
142 182 93813.0
142 183 38.0
142 185 2566.0
142 187 85003.0
142 188 101.0
142 189 74215.0
142 190 14712.0
142 193 84133.0
142 194 104992.0
142 195 152929.0
142 198 785.0
142 199 330.0
142 201 31.0
142 202 134436.0
142 205 29.0
142 211 14509.0
142 214 144.0
142 239 41737.0
142 244 1189.0
142 245 8.0
142 248 1543.0
142 249 256.0
142 251 17980.0
142 252 39598.0
142 254 12.0
142 255 78.0
142 256 49069.0
142 257 79181.0
142 258 39289.0
142 270 31201.0
142 271 9854.0
142 273 28356.0
142 275 3103.0
142 313 45.0
142 316 113483.0
142 321 143.0
142 344 7.0
142 349 60959.0
142 353 60877.0
142 354 179.0
142 355 36.0
142 362 421.0
142 371 70.0
142 373 360.0
142 374 41.0
142 375 37089.0
142 461 66.0
142 462 121.0
142 464 2.0
142 465 11.0
142 468 39.0
142 470 89.0
142 484 259.0
142 516 54.0
142 571 55.0
142 583 274.0
142 593 112723.0
142 604 108.0
142 607 1658.0
142 608 44279.0
142 609 11.0
142 618 85.0
142 619 55.0
142 623 2.0
142 632 832.0
142 639 149.0
142 664 17356.0
142 676 88.0
142 685 32.0
142 707 24.0
142 708 55.0
142 715 70.0
142 719 56.0
142 720 16.0
142 725 38.0
142 798 31639.0
142 882 2.0
142 1569 1.0
144 146 141923.0
144 147 18155.0
144 149 130.0
144 151 1169.0
144 156 1102321.0
144 157 94788.0
144 158 167902.0
144 160 502.0
144 162 2.0
144 163 121074.0
144 164 80875.0
144 165 323798.0
144 166 51.0
144 167 271159.0
144 169 286.0
144 170 847.0
144 173 16765.0
144 174 364282.0
144 175 46906.0
144 176 186871.0
144 177 2582.0
144 178 3620.0
144 179 1177.0
144 180 179.0
144 181 22883.0
144 182 157859.0
144 185 1448.0
144 187 4608.0
144 188 2501.0
144 189 72664.0
144 190 656010.0
144 191 5.0
144 193 516.0
144 194 41417.0
144 195 5723.0
144 196 3631.0
144 198 7923.0
144 199 1715.0
144 201 15.0
144 202 43513.0
144 203 1274.0
144 204 82.0
144 205 82.0
144 211 47.0
144 229 2.0
144 234 79.0
144 239 60.0
144 249 93.0
144 256 84.0
144 262 543.0
144 267 234.0
144 268 93.0
144 316 535.0
144 337 48.0
144 345 151.0
144 352 23.0
144 356 104.0
144 464 1121.0
144 466 312.0
144 583 50.0
144 619 93.0
144 652 5.0
144 674 140.0
144 676 267.0
144 686 44.0
144 694 77.0
144 798 279.0
144 809 15.0
144 846 141.0
144 848 146.0
144 924 196.0
144 925 36.0
144 1023 1.0
144 1326 2.0
145 146 415391.0
145 149 143475.0
145 151 93.0
145 152 2.0
145 156 20.0
145 158 556730.0
145 159 6.0
145 163 81589.0
145 164 106374.0
145 168 221.0
145 169 100.0
145 170 99208.0
145 173 461407.0
145 174 180486.0
145 175 147.0
145 176 1144.0
145 177 69805.0
145 178 555.0
145 179 73574.0
145 180 191455.0
145 181 1022.0
145 182 278393.0
145 183 15.0
145 185 148373.0
145 187 250705.0
145 188 1085.0
145 189 12881.0
145 190 8820.0
145 193 76018.0
145 194 200071.0
145 195 12545.0
145 196 829.0
145 197 329.0
145 198 1079.0
145 199 14905.0
145 201 536.0
145 202 346691.0
145 203 3354.0
145 204 1778.0
145 205 1131.0
145 211 55238.0
145 215 10088.0
145 223 26.0
145 226 8586.0
145 239 53779.0
145 245 128.0
145 246 80.0
145 248 56528.0
145 249 20889.0
145 251 31979.0
145 252 2461.0
145 254 1084.0
145 255 34.0
145 257 18268.0
145 258 57891.0
145 264 1336.0
145 265 713.0
145 268 115181.0
145 270 70755.0
145 271 9940.0
145 272 1304.0
145 273 124459.0
145 275 1.0
145 313 572.0
145 316 784020.0
145 339 1555.0
145 345 213.0
145 347 1425.0
145 349 39.0
145 351 156.0
145 352 395.0
145 371 210.0
145 372 693.0
145 374 102.0
145 375 388.0
145 378 313.0
145 383 322.0
145 417 54.0
145 462 106991.0
145 464 13697.0
145 466 172.0
145 468 2.0
145 470 1286.0
145 471 1090.0
145 472 52.0
145 475 14.0
145 509 197.0
145 539 15.0
145 556 118.0
145 571 2581.0
145 575 67.0
145 578 19.0
145 580 16038.0
145 587 463.0
145 588 107.0
145 590 19.0
145 596 18802.0
145 599 160.0
145 601 120.0
145 609 3.0
145 624 266.0
145 625 2401.0
145 630 364.0
145 634 45.0
145 643 527.0
145 646 883.0
145 648 52.0
145 650 1655.0
145 663 716.0
145 664 258.0
145 672 2106.0
145 673 35.0
145 681 15.0
145 685 1.0
145 686 30960.0
145 690 125.0
145 691 92.0
145 718 87.0
145 838 328.0
145 925 53.0
145 936 53.0
145 1025 61.0
145 1026 43.0
146 147 23.0
146 148 80466.0
146 149 541238.0
146 150 100382.0
146 151 439770.0
146 152 183034.0
146 154 67293.0
146 156 289556.0
146 157 208.0
146 158 1168599.0
146 159 69784.0
146 160 2223.0
146 162 14476.0
146 163 1779079.0
146 164 1900414.0
146 165 1619.0
146 166 62860.0
146 167 50748.0
146 168 56044.0
146 169 398.0
146 170 4223.0
146 171 27604.0
146 172 39117.0
146 173 1453997.0
146 174 382431.0
146 175 416532.0
146 176 525330.0
146 177 801423.0
146 178 380483.0
146 179 3797.0
146 180 449.0
146 181 1020965.0
146 182 1821751.0
146 183 96458.0
146 184 121167.0
146 185 2517.0
146 186 96825.0
146 187 93015.0
146 188 323515.0
146 189 1154530.0
146 190 463736.0
146 191 143239.0
146 192 6.0
146 193 100750.0
146 194 1401803.0
146 195 1573472.0
146 196 595137.0
146 197 68956.0
146 198 832291.0
146 199 856678.0
146 201 141.0
146 202 435992.0
146 203 466511.0
146 204 156439.0
146 205 182383.0
146 208 5.0
146 211 43885.0
146 214 203.0
146 219 46.0
146 220 308.0
146 230 4858.0
146 232 419.0
146 233 248.0
146 234 376.0
146 236 1418.0
146 239 37737.0
146 249 150768.0
146 252 194189.0
146 257 99072.0
146 262 81536.0
146 270 1050.0
146 271 394.0
146 273 899.0
146 274 2.0
146 276 3.0
146 312 39.0
146 314 219.0
146 316 175600.0
146 337 204.0
146 338 398.0
146 341 20440.0
146 345 180.0
146 349 4.0
146 355 68328.0
146 372 78.0
146 373 15270.0
146 374 1.0
146 375 43023.0
146 378 8.0
146 381 115.0
146 384 2876.0
146 385 17381.0
146 386 8366.0
146 417 178072.0
146 463 27.0
146 464 1237.0
146 472 7975.0
146 475 121579.0
146 478 13402.0
146 484 8161.0
146 496 198790.0
146 501 5.0
146 512 53937.0
146 514 45.0
146 539 124825.0
146 545 37.0
146 574 350799.0
146 575 211254.0
146 582 28209.0
146 583 38.0
146 587 31.0
146 590 231771.0
146 592 37.0
146 593 11.0
146 597 68.0
146 599 33.0
146 601 20223.0
146 606 876.0
146 607 102523.0
146 612 47038.0
146 618 133860.0
146 619 686.0
146 623 45008.0
146 624 91793.0
146 626 1239.0
146 632 247725.0
146 633 60.0
146 648 102523.0
146 649 352.0
146 650 6548.0
146 652 49.0
146 657 28284.0
146 658 27717.0
146 665 1.0
146 669 1125.0
146 670 16.0
146 674 276.0
146 676 162.0
146 686 12185.0
146 690 222466.0
146 694 105064.0
146 707 44556.0
146 712 155.0
146 720 4.0
146 725 90914.0
146 727 274.0
146 729 13050.0
146 730 56018.0
146 731 114814.0
146 732 29350.0
146 734 148.0
146 746 3571.0
146 767 31028.0
146 768 15766.0
146 769 5037.0
146 808 218.0
146 810 41290.0
146 811 640.0
146 812 622.0
146 813 788.0
146 814 1055.0
146 815 2003.0
146 816 45.0
146 817 28344.0
146 819 85959.0
146 828 56.0
146 847 18057.0
146 866 353.0
146 871 57415.0
146 892 30122.0
146 894 20300.0
146 901 141.0
146 912 10625.0
146 925 53.0
146 936 51.0
146 944 3566.0
146 947 12675.0
146 948 19081.0
146 973 50683.0
146 988 5469.0
146 989 458.0
146 990 27474.0
146 1016 25970.0
146 1017 4775.0
146 1026 121.0
146 1028 5613.0
146 1029 1224.0
146 1030 16364.0
146 1032 20320.0
146 1033 284513.0
146 1034 18794.0
146 1035 226.0
146 1036 4046.0
146 1037 16369.0
146 1038 27.0
146 1039 8493.0
146 1040 3856.0
146 1041 122.0
146 1042 84.0
146 1043 52.0
146 1044 3722.0
146 1045 36.0
146 1046 28500.0
146 1047 8760.0
147 156 60914.0
147 160 278.0
147 163 22.0
147 164 94.0
147 165 5.0
147 167 142.0
147 170 452.0
147 173 59.0
147 176 90.0
147 178 6.0
147 179 87.0
147 181 43.0
147 182 456.0
147 185 367.0
147 190 58.0
147 193 237.0
147 194 122.0
147 195 3.0
147 196 10.0
147 198 50.0
147 199 23.0
147 239 71.0
147 249 34.0
147 251 31.0
147 255 1.0
147 257 84.0
147 275 7.0
147 312 53.0
147 349 14.0
147 353 2.0
147 375 13.0
147 378 1.0
147 468 2.0
147 608 15.0
147 637 1.0
147 638 1.0
148 152 2.0
148 163 41646.0
148 164 25239.0
148 166 128.0
148 175 32214.0
148 178 1.0
148 181 147864.0
148 182 630.0
148 192 4.0
148 193 305.0
148 194 111705.0
148 195 194742.0
148 196 280.0
148 203 1088.0
148 226 1.0
148 232 148.0
148 239 326.0
148 241 142.0
148 262 190.0
148 338 33651.0
148 375 71.0
148 514 12.0
148 574 2.0
148 612 3.0
148 730 305.0
148 731 59.0
148 732 907.0
148 783 8.0
148 846 273.0
148 848 296.0
149 151 640.0
149 154 12.0
149 156 105.0
149 158 1056729.0
149 163 711021.0
149 164 797942.0
149 168 167684.0
149 169 63.0
149 170 94148.0
149 171 71.0
149 173 383795.0
149 174 172722.0
149 175 15.0
149 176 28254.0
149 177 71520.0
149 178 402.0
149 179 126712.0
149 180 636289.0
149 181 170258.0
149 182 601808.0
149 184 372.0
149 185 103550.0
149 186 28960.0
149 187 242421.0
149 188 1481.0
149 189 328863.0
149 190 121018.0
149 193 60204.0
149 194 543673.0
149 195 816809.0
149 196 491.0
149 197 51653.0
149 198 870.0
149 199 191011.0
149 201 269.0
149 202 610781.0
149 203 966.0
149 204 89529.0
149 205 101017.0
149 211 214371.0
149 212 3460.0
149 215 9631.0
149 220 115972.0
149 226 5.0
149 230 123705.0
149 234 136.0
149 235 156.0
149 238 82.0
149 239 20927.0
149 245 15.0
149 246 95260.0
149 248 3.0
149 252 271079.0
149 254 941.0
149 257 37093.0
149 258 78107.0
149 264 55254.0
149 265 152.0
149 268 155484.0
149 270 141297.0
149 271 68722.0
149 272 326924.0
149 273 98035.0
149 274 45.0
149 313 25242.0
149 314 31.0
149 316 764010.0
149 321 90854.0
149 322 507070.0
149 339 72353.0
149 345 17493.0
149 349 54002.0
149 351 14925.0
149 352 13134.0
149 353 292.0
149 354 166243.0
149 373 158813.0
149 374 125.0
149 375 22185.0
149 417 152438.0
149 459 107.0
149 461 63200.0
149 462 121683.0
149 463 30.0
149 464 329.0
149 466 545.0
149 470 1089.0
149 473 169.0
149 475 108.0
149 481 93613.0
149 484 284261.0
149 496 405950.0
149 516 164856.0
149 533 105488.0
149 539 553.0
149 545 680.0
149 556 56828.0
149 559 4.0
149 570 243197.0
149 571 182.0
149 575 394.0
149 577 56758.0
149 578 171006.0
149 579 102166.0
149 580 106034.0
149 585 219144.0
149 586 8356.0
149 587 223301.0
149 589 5925.0
149 590 541.0
149 592 1489.0
149 593 356628.0
149 598 250041.0
149 599 5596.0
149 601 3379.0
149 602 179291.0
149 604 178376.0
149 605 128583.0
149 607 19624.0
149 610 56.0
149 611 212.0
149 612 8.0
149 613 230907.0
149 617 251.0
149 618 121.0
149 619 85.0
149 620 192.0
149 622 101031.0
149 624 3022.0
149 626 182002.0
149 628 48.0
149 632 1064272.0
149 633 85432.0
149 634 14300.0
149 639 124266.0
149 640 198491.0
149 643 626.0
149 648 3487.0
149 650 263555.0
149 651 91098.0
149 655 108.0
149 660 34834.0
149 662 151.0
149 663 113314.0
149 664 159948.0
149 666 1246.0
149 667 206.0
149 669 57345.0
149 670 121475.0
149 672 59630.0
149 674 106.0
149 675 69.0
149 677 83258.0
149 680 678.0
149 685 112362.0
149 686 90967.0
149 687 35149.0
149 690 110.0
149 697 2.0
149 705 578.0
149 708 18.0
149 719 91270.0
149 720 2.0
149 725 11.0
149 731 54.0
149 748 63.0
149 751 29.0
149 788 91212.0
149 800 99755.0
149 841 49842.0
149 847 37.0
149 852 105024.0
149 855 219063.0
149 861 164814.0
149 867 309.0
149 868 9.0
149 870 219671.0
149 877 73888.0
149 879 54.0
149 892 2073.0
149 910 7.0
149 929 618.0
149 1039 72.0
149 1085 151471.0
149 1110 13.0
149 1111 101965.0
149 1112 5099.0
149 1113 192.0
149 1114 36.0
149 1115 50535.0
149 1116 81713.0
149 1117 114633.0
149 1118 160.0
149 1119 5996.0
149 1120 2.0
149 1121 77.0
149 1122 91868.0
149 1123 71312.0
149 1124 47.0
149 1125 30062.0
149 1126 90.0
149 1127 1698.0
149 1273 4.0
149 1302 28.0
149 1555 48.0
150 151 230.0
150 158 785.0
150 163 148313.0
150 164 221534.0
150 168 83.0
150 169 2.0
150 172 44.0
150 174 59.0
150 175 100.0
150 176 150.0
150 177 404.0
150 180 79.0
150 181 39551.0
150 182 180930.0
150 183 259.0
150 184 2.0
150 186 9.0
150 189 11.0
150 190 355.0
150 191 20.0
150 193 75.0
150 194 72044.0
150 195 81841.0
150 196 58.0
150 197 2.0
150 202 1.0
150 203 865.0
150 480 139.0
150 560 3.0
150 575 2.0
150 590 12.0
150 612 3.0
150 618 3.0
150 619 38421.0
150 624 1.0
150 645 244.0
150 716 302.0
150 725 15.0
150 732 6.0
150 835 3.0
150 846 240.0
150 936 248.0
150 972 6.0
150 1099 258.0
150 1398 36.0
151 152 182.0
151 154 6.0
151 156 1230.0
151 158 1393.0
151 159 100.0
151 160 96.0
151 163 159857.0
151 164 6285.0
151 165 3.0
151 167 35.0
151 168 7.0
151 170 94.0
151 172 1.0
151 173 201173.0
151 174 850.0
151 175 127524.0
151 176 251.0
151 177 900.0
151 178 9935.0
151 181 305840.0
151 182 160111.0
151 183 286.0
151 184 94.0
151 185 73.0
151 186 7.0
151 187 26.0
151 188 22866.0
151 189 8651.0
151 190 1712.0
151 191 42.0
151 194 917380.0
151 195 76289.0
151 196 27359.0
151 198 41185.0
151 199 1524.0
151 202 2249.0
151 203 442.0
151 204 10.0
151 205 38.0
151 235 228.0
151 237 33.0
151 252 156.0
151 257 66.0
151 263 85.0
151 314 18.0
151 338 128.0
151 475 538.0
151 575 15.0
151 597 116.0
151 618 8.0
151 624 1.0
151 690 41.0
151 707 22.0
151 776 14.0
151 809 90.0
151 846 87.0
151 847 77.0
151 964 1.0
151 965 234.0
151 1033 2.0
151 1042 241.0
152 163 28099.0
152 164 27805.0
152 172 9.0
152 182 56494.0
152 188 37.0
152 189 12.0
152 191 36.0
152 198 57.0
152 203 16.0
152 204 2.0
152 205 1.0
152 316 12.0
152 378 110.0
152 590 6.0
152 727 145.0
152 981 6.0
153 158 91731.0
153 163 302.0
153 179 64.0
153 188 148.0
153 193 31.0
153 239 5.0
153 245 33.0
153 248 18.0
153 249 15.0
153 255 234.0
153 258 14.0
153 271 30.0
153 320 107.0
153 340 14.0
153 341 86.0
153 349 38.0
153 464 46.0
153 466 3.0
153 584 23.0
153 618 79.0
153 630 4.0
153 657 172.0
153 712 164.0
153 720 254.0
153 730 246.0
153 735 2075.0
153 785 241.0
153 806 209.0
153 819 239.0
153 882 25.0
153 1026 164.0
153 1147 369.0
153 1203 123.0
154 158 55.0
154 163 42849.0
154 173 46810.0
154 188 183.0
154 190 16.0
154 194 41239.0
154 196 38.0
154 203 77.0
154 230 3.0
154 338 33397.0
154 590 300.0
154 618 5.0
154 707 456.0
154 731 186.0
156 157 304645.0
156 160 6089.0
156 163 323575.0
156 164 298392.0
156 165 47743.0
156 167 123061.0
156 170 1485.0
156 173 3760.0
156 174 548940.0
156 175 154412.0
156 176 204426.0
156 177 2427.0
156 178 6603.0
156 179 4301.0
156 180 1308.0
156 181 6660.0
156 182 262799.0
156 185 8395.0
156 187 14560.0
156 188 7761.0
156 189 134188.0
156 190 283978.0
156 193 8774.0
156 194 7633.0
156 195 7759.0
156 196 6969.0
156 198 11955.0
156 199 3768.0
156 201 78.0
156 202 229582.0
156 203 3248.0
156 211 51.0
156 220 6.0
156 230 4.0
156 239 19.0
156 260 288.0
156 265 21.0
156 268 28.0
156 270 165.0
156 273 74.0
156 316 80.0
156 378 36.0
156 380 270.0
156 464 151488.0
156 465 8615.0
156 545 38.0
156 582 7144.0
156 584 26.0
156 657 42.0
156 685 6.0
156 709 4.0
156 712 71.0
156 747 3.0
156 965 249.0
156 1267 112.0
156 1481 209.0
157 158 130801.0
157 160 48.0
157 163 2522.0
157 164 806.0
157 165 1097.0
157 167 322.0
157 170 46.0
157 173 30127.0
157 174 815.0
157 175 135.0
157 176 556.0
157 181 36.0
157 182 338.0
157 185 59.0
157 187 83.0
157 189 541.0
157 190 74794.0
157 193 11.0
157 195 2.0
157 196 1.0
157 198 4.0
157 199 10.0
157 202 38.0
157 203 22.0
157 248 22.0
157 316 1390.0
157 337 4737.0
157 338 2612.0
157 340 2563.0
157 345 3557.0
157 348 283.0
157 349 1900.0
157 351 3104.0
157 352 1585.0
157 356 456.0
157 464 27.0
158 159 55.0
158 163 862568.0
158 164 1095735.0
158 165 108028.0
158 166 63.0
158 167 154556.0
158 168 612103.0
158 169 304404.0
158 171 281.0
158 173 342620.0
158 174 866652.0
158 175 518.0
158 176 280775.0
158 177 217789.0
158 178 288087.0
158 179 63694.0
158 180 201236.0
158 181 390923.0
158 182 854039.0
158 183 208.0
158 184 113.0
158 185 265.0
158 186 176392.0
158 187 253594.0
158 188 1821.0
158 189 648953.0
158 190 714126.0
158 193 132243.0
158 194 771301.0
158 195 778004.0
158 196 267568.0
158 197 172417.0
158 198 321721.0
158 199 381310.0
158 201 78.0
158 202 461279.0
158 203 181951.0
158 204 148363.0
158 205 305288.0
158 211 33540.0
158 212 61874.0
158 232 27391.0
158 233 45.0
158 239 84275.0
158 244 558.0
158 245 59.0
158 248 43492.0
158 251 24660.0
158 252 657585.0
158 254 59.0
158 256 21.0
158 257 62765.0
158 258 53464.0
158 264 43869.0
158 265 108264.0
158 268 23.0
158 270 178.0
158 271 69862.0
158 272 183523.0
158 273 441.0
158 313 27848.0
158 316 520927.0
158 321 204.0
158 337 81480.0
158 338 16.0
158 339 134779.0
158 340 2408.0
158 345 226730.0
158 347 137.0
158 348 84166.0
158 349 564.0
158 351 212645.0
158 352 82830.0
158 355 436.0
158 356 64471.0
158 372 279.0
158 373 175665.0
158 374 84578.0
158 375 77025.0
158 376 28630.0
158 378 215705.0
158 417 269744.0
158 464 131684.0
158 470 136041.0
158 472 24.0
158 475 627.0
158 484 286943.0
158 496 333491.0
158 512 15594.0
158 514 191.0
158 516 12463.0
158 539 74944.0
158 571 81.0
158 574 349.0
158 578 13129.0
158 581 228.0
158 586 19836.0
158 587 5828.0
158 589 130113.0
158 590 13.0
158 592 80958.0
158 593 266649.0
158 594 48.0
158 597 74468.0
158 601 140147.0
158 604 473.0
158 606 177638.0
158 607 27777.0
158 608 153.0
158 611 100797.0
158 613 777.0
158 618 13.0
158 619 212210.0
158 620 78.0
158 621 133920.0
158 622 101028.0
158 623 2856.0
158 624 23728.0
158 626 1533.0
158 630 203418.0
158 632 523384.0
158 633 111905.0
158 634 128195.0
158 635 622.0
158 639 9910.0
158 643 127723.0
158 645 40658.0
158 648 28662.0
158 649 270501.0
158 650 5500.0
158 657 148.0
158 660 74350.0
158 663 189021.0
158 666 41864.0
158 669 72116.0
158 680 71667.0
158 685 68.0
158 686 13.0
158 690 4.0
158 694 64.0
158 708 63.0
158 711 50.0
158 716 47535.0
158 725 36.0
158 731 9.0
158 740 632.0
158 799 1.0
158 824 149016.0
158 847 44748.0
158 866 468.0
158 872 34269.0
158 876 126701.0
158 882 51565.0
158 913 27697.0
158 937 300.0
158 960 806.0
158 961 1.0
158 982 20530.0
158 996 85300.0
158 1014 158.0
158 1049 149.0
158 1051 30751.0
158 1053 23956.0
158 1054 8988.0
158 1060 37222.0
158 1063 143219.0
158 1069 26374.0
158 1117 4678.0
158 1144 13393.0
158 1206 31064.0
158 1254 4158.0
158 1267 71.0
158 1303 39153.0
158 1308 19687.0
158 1309 63577.0
158 1310 35762.0
158 1311 19603.0
158 1312 16319.0
158 1313 27500.0
158 1314 5219.0
158 1315 9962.0
158 1316 28929.0
158 1317 17271.0
159 163 28563.0
159 164 9716.0
159 166 6742.0
159 173 136.0
159 175 53.0
159 181 1971.0
159 183 566.0
159 194 12291.0
159 196 13.0
159 220 4.0
159 338 4211.0
159 475 2.0
159 590 16.0
159 731 130.0
159 846 33.0
160 163 68487.0
160 164 27.0
160 165 274.0
160 170 95.0
160 173 74.0
160 174 1885.0
160 175 464.0
160 176 103.0
160 177 116.0
160 178 1056.0
160 179 1043.0
160 180 211593.0
160 181 34.0
160 182 8266.0
160 187 9902.0
160 188 427.0
160 189 755.0
160 190 808.0
160 193 176.0
160 194 1705.0
160 195 1598.0
160 196 134.0
160 198 367.0
160 199 259.0
160 202 181375.0
160 203 119.0
160 215 2.0
160 220 2.0
160 236 273.0
160 463 88.0
160 464 161.0
160 571 22.0
160 638 238.0
160 1240 16.0
161 164 21884.0
161 181 9.0
161 194 1.0
162 173 64.0
162 189 244.0
162 195 111.0
162 213 48.0
162 249 76.0
162 274 249.0
162 341 3.0
162 704 106.0
162 728 303.0
162 810 20.0
162 815 1.0
162 901 245.0
162 1017 632.0
162 1033 71.0
162 1046 13.0
163 164 1803119.0
163 165 66439.0
163 166 240517.0
163 167 64082.0
163 168 183075.0
163 169 75122.0
163 170 82687.0
163 171 5807.0
163 172 30399.0
163 173 804651.0
163 174 154301.0
163 175 609969.0
163 176 116835.0
163 177 198910.0
163 178 448034.0
163 179 49127.0
163 180 5866.0
163 181 549019.0
163 182 1525004.0
163 183 49332.0
163 184 29191.0
163 185 85649.0
163 186 3140.0
163 187 91252.0
163 188 672236.0
163 189 757066.0
163 190 292316.0
163 191 25.0
163 193 85331.0
163 194 1059332.0
163 195 1765641.0
163 196 583934.0
163 197 2461.0
163 198 564184.0
163 199 446059.0
163 202 185044.0
163 203 326344.0
163 204 267439.0
163 205 231452.0
163 211 120319.0
163 212 16.0
163 220 3.0
163 229 11.0
163 230 4.0
163 234 143.0
163 235 935.0
163 241 332460.0
163 247 18.0
163 252 115.0
163 257 37000.0
163 270 90.0
163 272 63.0
163 276 11.0
163 312 79.0
163 316 301080.0
163 338 1003.0
163 341 236.0
163 344 31088.0
163 348 38346.0
163 353 30942.0
163 355 56836.0
163 362 49.0
163 374 38103.0
163 375 28705.0
163 417 532051.0
163 459 15.0
163 464 2523.0
163 468 224.0
163 471 3468.0
163 475 38728.0
163 484 129.0
163 496 52106.0
163 501 940.0
163 512 11732.0
163 539 139578.0
163 560 2.0
163 580 382.0
163 587 783.0
163 590 26880.0
163 593 21967.0
163 605 325.0
163 612 28348.0
163 618 61591.0
163 619 42519.0
163 622 590.0
163 627 51369.0
163 631 275980.0
163 632 171266.0
163 633 7.0
163 640 27026.0
163 646 35709.0
163 649 66245.0
163 658 69795.0
163 661 172.0
163 670 26.0
163 675 98.0
163 677 4.0
163 682 167.0
163 686 1484.0
163 690 32004.0
163 694 34943.0
163 716 35.0
163 725 53991.0
163 727 58932.0
163 729 29996.0
163 730 35109.0
163 731 32218.0
163 732 26728.0
163 733 32577.0
163 734 12990.0
163 745 39.0
163 746 19.0
163 748 13.0
163 783 22405.0
163 786 40659.0
163 809 117.0
163 819 26761.0
163 824 246.0
163 832 574.0
163 835 76615.0
163 846 243.0
163 847 57.0
163 850 2.0
163 852 814.0
163 871 17068.0
163 872 246.0
163 892 6.0
163 894 109.0
163 898 1.0
163 905 2.0
163 909 33184.0
163 915 2.0
163 918 3.0
163 948 2884.0
163 972 6.0
163 973 16379.0
163 1008 319.0
163 1030 131.0
163 1038 1001.0
163 1043 99.0
163 1053 153.0
163 1106 12.0
163 1109 8.0
163 1121 132.0
163 1247 8910.0
163 1254 2.0
163 1310 153.0
163 1317 5.0
163 1354 6.0
163 1358 97.0
163 1396 3634.0
163 1397 12.0
163 1398 4.0
163 1399 54.0
163 1400 9550.0
163 1413 8.0
163 1428 4.0
163 1488 1.0
163 1567 1.0
164 165 7320.0
164 166 69.0
164 167 4193.0
164 168 644061.0
164 170 2708.0
164 172 148263.0
164 173 762449.0
164 174 209204.0
164 175 751583.0
164 176 58124.0
164 177 6079.0
164 178 186.0
164 179 5276.0
164 180 843.0
164 181 589284.0
164 182 1304988.0
164 183 16669.0
164 184 101526.0
164 185 3905.0
164 186 180521.0
164 187 35235.0
164 188 389459.0
164 189 777129.0
164 190 219211.0
164 191 237468.0
164 192 71155.0
164 193 3420.0
164 194 1478673.0
164 195 2974626.0
164 196 887517.0
164 197 397578.0
164 198 617763.0
164 199 188.0
164 202 99180.0
164 203 385704.0
164 204 797699.0
164 205 237208.0
164 211 108725.0
164 219 82.0
164 220 1.0
164 229 11.0
164 230 153120.0
164 236 285.0
164 240 50826.0
164 241 36654.0
164 243 32740.0
164 247 2.0
164 252 139167.0
164 257 461.0
164 262 135.0
164 264 462.0
164 265 344.0
164 268 495.0
164 272 66352.0
164 273 20.0
164 285 4.0
164 314 74.0
164 316 863793.0
164 322 111402.0
164 339 44956.0
164 345 183277.0
164 350 18.0
164 351 328642.0
164 353 325.0
164 354 70.0
164 355 33842.0
164 360 307.0
164 372 272.0
164 373 1035671.0
164 375 29472.0
164 376 3755.0
164 378 132.0
164 416 489892.0
164 417 1970631.0
164 459 16.0
164 463 113.0
164 464 1399.0
164 475 25260.0
164 484 215812.0
164 496 328120.0
164 509 7982.0
164 512 840887.0
164 516 182819.0
164 533 913987.0
164 539 71763.0
164 545 454.0
164 558 4.0
164 559 26.0
164 564 24395.0
164 571 3.0
164 574 32077.0
164 575 7947.0
164 578 307.0
164 579 110.0
164 587 3966.0
164 589 1679.0
164 590 4749.0
164 591 215.0
164 593 493719.0
164 599 153.0
164 604 609.0
164 605 35795.0
164 606 197266.0
164 607 17127.0
164 611 13364.0
164 613 74861.0
164 618 29202.0
164 619 718482.0
164 620 152.0
164 621 906.0
164 622 44650.0
164 626 477623.0
164 627 909777.0
164 631 23.0
164 632 1368012.0
164 633 138250.0
164 640 71.0
164 643 113.0
164 646 305860.0
164 648 2228.0
164 650 166270.0
164 651 203.0
164 652 233.0
164 663 124563.0
164 664 2.0
164 667 58851.0
164 669 131642.0
164 671 412.0
164 672 10.0
164 674 49.0
164 675 68924.0
164 678 849700.0
164 690 38.0
164 697 10.0
164 707 226.0
164 709 21210.0
164 710 26.0
164 716 61675.0
164 722 3.0
164 730 96860.0
164 731 35580.0
164 732 22236.0
164 741 550.0
164 748 11.0
164 750 9.0
164 751 15.0
164 782 10.0
164 783 12.0
164 786 52412.0
164 789 657.0
164 809 16392.0
164 819 111.0
164 824 57282.0
164 828 120675.0
164 832 872.0
164 844 261109.0
164 846 312.0
164 847 67595.0
164 848 28.0
164 850 12174.0
164 852 993.0
164 853 13.0
164 855 198.0
164 861 210380.0
164 865 1.0
164 866 1422.0
164 868 8.0
164 891 5.0
164 892 383608.0
164 894 393788.0
164 898 99.0
164 909 79730.0
164 910 10.0
164 913 52113.0
164 940 94211.0
164 966 816.0
164 972 54188.0
164 978 2046.0
164 1004 622.0
164 1008 58.0
164 1044 6752.0
164 1045 8.0
164 1050 9748.0
164 1093 4.0
164 1100 47721.0
164 1110 7.0
164 1122 480.0
164 1157 2311.0
164 1162 766.0
164 1184 4.0
164 1213 20514.0
164 1222 131509.0
164 1239 10.0
164 1247 24156.0
164 1260 229001.0
164 1274 495.0
164 1309 282.0
164 1310 79506.0
164 1311 899.0
164 1317 40117.0
164 1329 9433.0
164 1342 295728.0
164 1344 2.0
164 1355 2.0
164 1391 25808.0
164 1395 19892.0
164 1401 4.0
164 1402 6.0
164 1403 7.0
164 1404 6.0
164 1405 6.0
164 1406 25565.0
164 1407 31165.0
164 1408 115.0
164 1409 8450.0
164 1410 23261.0
164 1411 54311.0
164 1488 261.0
165 167 11.0
165 170 5.0
165 173 73.0
165 174 539.0
165 175 364.0
165 176 430.0
165 177 3.0
165 178 36.0
165 181 105.0
165 182 9023.0
165 184 126.0
165 185 9.0
165 187 18.0
165 188 730.0
165 189 853.0
165 190 1408.0
165 193 11.0
165 194 88.0
165 195 6.0
165 196 412.0
165 198 353.0
165 199 11.0
165 202 340.0
165 203 149.0
165 233 357.0
165 234 209.0
165 237 345.0
165 262 58.0
165 464 6.0
165 597 424.0
166 173 47.0
166 175 332681.0
166 176 123.0
166 177 37.0
166 181 198859.0
166 182 162224.0
166 186 17.0
166 188 223.0
166 189 185.0
166 190 364.0
166 194 286055.0
166 195 306929.0
166 196 2012.0
166 198 141933.0
166 202 42.0
166 203 1536.0
166 205 11.0
166 229 17.0
166 241 15353.0
166 314 277.0
166 383 991.0
166 503 185.0
166 590 8.0
166 612 54.0
166 707 49.0
166 728 299.0
166 731 134.0
166 835 21100.0
166 846 27.0
166 916 19.0
166 966 170.0
167 173 40.0
167 174 970.0
167 175 4526.0
167 176 2131.0
167 177 2.0
167 178 25.0
167 181 138.0
167 182 689.0
167 187 35.0
167 188 9.0
167 189 192.0
167 190 1852.0
167 193 43.0
167 194 516.0
167 195 125.0
167 196 146.0
167 198 167.0
167 199 3.0
167 202 182.0
167 203 5.0
167 464 369.0
167 658 11.0
168 173 2568.0
168 174 4273.0
168 175 432.0
168 176 27.0
168 178 403.0
168 179 3.0
168 181 963.0
168 182 167201.0
168 184 10.0
168 185 12.0
168 187 154.0
168 189 7587.0
168 190 108313.0
168 194 9431.0
168 195 230065.0
168 196 478.0
168 199 137.0
168 202 581.0
168 203 18959.0
168 246 910.0
168 316 540858.0
168 417 95.0
168 571 150.0
169 176 62.0
169 177 60.0
169 178 95.0
169 179 45.0
169 182 987.0
169 190 122.0
169 194 166.0
169 196 54.0
169 197 6.0
169 202 129.0
169 203 52.0
169 257 227.0
169 265 6.0
169 608 5.0
169 649 91.0
170 173 342.0
170 174 1651.0
170 175 1374.0
170 176 361.0
170 177 433.0
170 178 1233.0
170 179 2557.0
170 180 3460.0
170 181 1556.0
170 182 74955.0
170 187 7318.0
170 188 552.0
170 189 3074.0
170 190 857.0
170 193 2925.0
170 194 41.0
170 195 806.0
170 196 3134.0
170 198 366.0
170 199 1597.0
170 202 176384.0
170 203 24.0
170 244 1817.0
170 250 576.0
170 254 102.0
170 257 266.0
170 264 7.0
170 266 190.0
170 268 606.0
170 273 69.0
170 312 66.0
170 316 360.0
170 361 162.0
170 362 1009.0
170 462 170.0
170 464 202.0
170 472 61.0
170 545 1.0
170 571 15.0
170 580 3.0
170 610 6.0
170 618 13.0
170 634 341.0
170 661 2.0
170 664 10.0
170 676 20.0
170 735 72.0
171 173 131764.0
171 177 13.0
171 179 53.0
171 182 33.0
171 187 13.0
171 190 339.0
171 222 1.0
171 471 26.0
171 480 228.0
171 539 1.0
171 618 4.0
171 630 681.0
171 658 8.0
171 720 3.0
172 173 184.0
172 178 9.0
172 182 63363.0
172 184 41.0
172 188 859.0
172 189 15424.0
172 194 12.0
172 195 79051.0
172 198 6.0
172 203 282.0
172 204 52.0
172 229 7.0
172 230 1.0
172 240 1.0
172 918 3.0
172 973 3.0
172 1033 3.0
172 1328 2.0
172 1409 3.0
173 174 75615.0
173 175 3673.0
173 176 72647.0
173 177 264569.0
173 178 992.0
173 179 42180.0
173 180 6339.0
173 181 415629.0
173 182 1111565.0
173 183 29623.0
173 184 33405.0
173 185 54310.0
173 186 52331.0
173 187 185026.0
173 188 2368.0
173 189 380403.0
173 190 133694.0
173 191 5.0
173 193 104358.0
173 194 1012938.0
173 195 695080.0
173 196 162163.0
173 197 22218.0
173 198 196258.0
173 199 201035.0
173 202 262163.0
173 203 96499.0
173 204 142415.0
173 205 144709.0
173 206 39877.0
173 207 15203.0
173 211 59489.0
173 212 315.0
173 229 4.0
173 230 2.0
173 232 64.0
173 235 20935.0
173 239 24403.0
173 244 250.0
173 249 592.0
173 252 198637.0
173 253 100042.0
173 254 105.0
173 256 8919.0
173 257 251880.0
173 258 4.0
173 262 81288.0
173 264 23950.0
173 267 53.0
173 268 52.0
173 270 22410.0
173 271 700.0
173 272 14781.0
173 273 127.0
173 274 4683.0
173 277 290.0
173 312 116.0
173 314 307.0
173 316 254681.0
173 319 332.0
173 337 155.0
173 344 168547.0
173 346 5.0
173 349 89.0
173 351 48.0
173 353 33080.0
173 355 4225.0
173 367 68.0
173 373 235846.0
173 375 37693.0
173 386 20763.0
173 417 148310.0
173 462 114.0
173 463 69.0
173 464 135.0
173 465 23437.0
173 470 67.0
173 471 94507.0
173 472 46006.0
173 473 39.0
173 475 273710.0
173 484 439987.0
173 496 2661.0
173 512 7741.0
173 539 127781.0
173 545 70.0
173 575 16889.0
173 578 626.0
173 579 126.0
173 583 53.0
173 584 19814.0
173 589 130.0
173 590 144156.0
173 593 95725.0
173 597 84.0
173 601 17875.0
173 604 317.0
173 607 15410.0
173 608 47.0
173 612 61504.0
173 618 199067.0
173 620 131.0
173 622 153.0
173 624 10677.0
173 632 129475.0
173 652 1.0
173 658 40166.0
173 662 134.0
173 664 8478.0
173 669 9524.0
173 672 1565.0
173 673 15.0
173 674 145.0
173 675 1280.0
173 677 2577.0
173 686 54.0
173 690 146739.0
173 691 295.0
173 692 48535.0
173 693 15494.0
173 694 162766.0
173 706 5891.0
173 707 38648.0
173 708 202.0
173 716 14521.0
173 720 91276.0
173 725 167114.0
173 731 81874.0
173 735 8.0
173 783 5.0
173 819 3.0
173 823 42715.0
173 828 32.0
173 838 136.0
173 839 63.0
173 841 57.0
173 842 29863.0
173 847 18992.0
173 852 10.0
173 853 31064.0
173 861 8295.0
173 871 68160.0
173 873 31325.0
173 918 41.0
173 936 511.0
173 961 15.0
173 965 539.0
173 966 296.0
173 967 25915.0
173 968 45.0
173 973 62861.0
173 1010 2798.0
173 1026 3.0
173 1033 95.0
173 1058 26811.0
173 1072 4766.0
173 1073 6732.0
173 1075 28.0
173 1078 9550.0
173 1079 8934.0
173 1081 47034.0
173 1084 141.0
173 1121 1766.0
173 1159 329.0
173 1174 15302.0
173 1225 1918.0
173 1242 20380.0
173 1243 4845.0
173 1317 1766.0
173 1321 26.0
173 1427 1.0
173 1466 9.0
173 1467 118.0
174 175 13753.0
174 176 6720.0
174 177 515.0
174 178 1995.0
174 179 3913.0
174 180 1674.0
174 181 4313.0
174 182 85722.0
174 185 3021.0
174 186 16.0
174 187 5863.0
174 188 1614.0
174 189 13605.0
174 190 19665.0
174 193 5202.0
174 194 3998.0
174 195 21413.0
174 196 1081.0
174 198 1173.0
174 199 805.0
174 202 192414.0
174 203 151.0
174 205 71.0
174 211 285.0
174 226 18.0
174 229 2.0
174 230 7.0
174 232 225.0
174 238 123.0
174 239 52.0
174 244 382.0
174 248 59.0
174 252 1238.0
174 253 425.0
174 254 11.0
174 256 242.0
174 257 70.0
174 258 2.0
174 264 278.0
174 265 117.0
174 267 25.0
174 268 84.0
174 270 4.0
174 271 466.0
174 272 54.0
174 273 786.0
174 274 6.0
174 275 201.0
174 276 4.0
174 312 22.0
174 316 229314.0
174 322 48.0
174 338 130.0
174 345 57.0
174 347 52.0
174 349 174.0
174 352 5494.0
174 353 379.0
174 361 217.0
174 371 169.0
174 372 65.0
174 375 182.0
174 464 43.0
174 466 2.0
174 475 38.0
174 545 61.0
174 580 28.0
174 581 7.0
174 584 274.0
174 589 102.0
174 593 1964.0
174 608 13.0
174 613 116.0
174 618 2.0
174 620 177.0
174 621 1358.0
174 631 512.0
174 632 2944.0
174 634 104.0
174 640 750.0
174 649 13.0
174 657 267.0
174 662 75.0
174 676 343.0
174 681 25.0
174 690 17.0
174 694 3.0
174 725 6.0
174 733 396.0
174 798 236.0
174 808 96.0
174 880 294.0
174 966 161.0
174 1035 552.0
174 1556 9.0
175 176 2351.0
175 177 3083.0
175 178 511473.0
175 179 1939.0
175 180 6.0
175 181 457982.0
175 182 696365.0
175 184 389.0
175 185 773.0
175 186 452.0
175 187 2240.0
175 188 135779.0
175 189 743856.0
175 190 10782.0
175 191 14.0
175 193 380.0
175 194 772231.0
175 195 100.0
175 197 125.0
175 198 164.0
175 199 498569.0
175 202 2989.0
175 203 27359.0
175 204 41.0
175 212 2010.0
175 229 20.0
175 232 182.0
175 234 52.0
175 241 42119.0
175 252 905.0
175 262 84.0
175 276 4.0
175 285 2.0
175 314 339.0
175 316 29.0
175 338 1328.0
175 369 17.0
175 417 166239.0
175 464 418.0
175 512 106347.0
175 539 52.0
175 575 26.0
175 583 50.0
175 590 2.0
175 612 103.0
175 619 192266.0
175 623 7.0
175 627 9.0
175 662 37.0
175 676 86.0
175 708 54.0
175 716 1196.0
175 731 53.0
175 785 1.0
175 824 4554.0
175 846 295.0
175 847 59.0
175 850 2.0
175 865 9.0
175 867 5890.0
175 881 46.0
175 892 46709.0
175 913 8629.0
175 990 3.0
175 1043 105.0
175 1094 239.0
175 1237 1.0
175 1310 131.0
175 1317 163.0
175 1411 1478.0
175 1487 4.0
175 1488 2430.0
176 177 247.0
176 178 3421.0
176 179 333.0
176 180 147.0
176 181 1066.0
176 182 143942.0
176 184 153.0
176 185 96.0
176 186 32.0
176 187 1035.0
176 188 1114.0
176 189 1818.0
176 190 16027.0
176 193 4245.0
176 194 5669.0
176 195 4231.0
176 196 517.0
176 198 4383.0
176 199 1320.0
176 201 490.0
176 202 5446.0
176 203 2238.0
176 204 45.0
176 205 12.0
176 211 53.0
176 212 14.0
176 232 346.0
176 233 463.0
176 234 131.0
176 235 8.0
176 236 127.0
176 239 185.0
176 244 177.0
176 249 29.0
176 254 30.0
176 255 43.0
176 257 61.0
176 258 259.0
176 262 486.0
176 263 66.0
176 270 74.0
176 271 8.0
176 273 9.0
176 314 31.0
176 316 73.0
176 344 42.0
176 349 28.0
176 350 1118.0
176 353 65.0
176 355 532.0
176 361 246.0
176 362 1955.0
176 371 288.0
176 372 44.0
176 374 70.0
176 375 77.0
176 377 33.0
176 461 46.0
176 463 125.0
176 464 416.0
176 466 5.0
176 470 24.0
176 471 9.0
176 472 120.0
176 475 72.0
176 545 35.0
176 559 64.0
176 575 37.0
176 584 18.0
176 590 1.0
176 596 33.0
176 597 574.0
176 618 159.0
176 623 6.0
176 649 9.0
176 656 10.0
176 657 113.0
176 662 78.0
176 676 29.0
176 685 14.0
176 690 40.0
176 691 22.0
176 692 2.0
176 694 2.0
176 705 873.0
176 707 28.0
176 715 94.0
176 730 33.0
176 732 12.0
176 735 198.0
176 738 95.0
176 819 16.0
176 839 2071.0
176 875 18.0
176 901 81.0
176 925 37.0
176 973 4.0
176 1099 257.0
176 1203 94.0
176 1241 1440.0
176 1414 198.0
176 1429 95.0
176 1480 166.0
177 178 2425.0
177 179 1071.0
177 180 14.0
177 181 3731.0
177 182 326581.0
177 183 31.0
177 184 80.0
177 185 611.0
177 187 1786.0
177 188 1608.0
177 189 6174.0
177 190 3974.0
177 193 635.0
177 194 2784.0
177 195 6683.0
177 196 2673.0
177 198 1608.0
177 199 4474.0
177 201 142.0
177 202 7849.0
177 203 655.0
177 204 21.0
177 205 87.0
177 211 17.0
177 224 1.0
177 235 95.0
177 239 103.0
177 248 191.0
177 249 114.0
177 253 148.0
177 255 6.0
177 256 48.0
177 257 619.0
177 263 2.0
177 265 16.0
177 268 9.0
177 270 29.0
177 271 46.0
177 273 24.0
177 337 98.0
177 344 10.0
177 348 1083.0
177 349 42.0
177 355 44.0
177 371 95.0
177 374 7.0
177 375 25.0
177 464 58.0
177 465 32.0
177 466 16.0
177 470 25.0
177 472 6.0
177 475 33.0
177 512 273.0
177 539 22.0
177 545 89.0
177 584 206.0
177 596 48.0
177 607 115.0
177 608 6.0
177 610 79.0
177 612 22.0
177 618 59.0
177 649 98.0
177 656 18.0
177 657 20.0
177 658 123.0
177 676 20.0
177 685 55.0
177 686 7.0
177 690 29.0
177 694 15.0
177 707 22.0
177 712 66.0
177 725 44.0
177 727 76.0
177 731 22.0
177 790 4.0
177 799 3.0
177 839 26.0
177 841 21.0
177 894 61.0
177 936 98.0
177 1439 2.0
178 179 278.0
178 181 145365.0
178 182 789142.0
178 183 895.0
178 185 32.0
178 186 150.0
178 187 1505.0
178 188 21658.0
178 189 46.0
178 190 6142.0
178 193 3053.0
178 194 267320.0
178 195 110974.0
178 196 295430.0
178 197 84.0
178 198 492094.0
178 199 4.0
178 202 3017.0
178 203 2116.0
178 204 146.0
178 205 81.0
178 213 10.0
178 220 5.0
178 239 12.0
178 240 3.0
178 243 2.0
178 245 1.0
178 252 46.0
178 338 192.0
178 361 73.0
178 362 244.0
178 375 130.0
178 417 288.0
178 484 1.0
178 539 99.0
178 590 22.0
178 612 33.0
178 619 13289.0
178 648 8.0
178 674 11.0
178 707 127.0
178 730 26.0
178 732 306.0
178 819 1.0
178 847 13.0
178 892 311.0
178 915 3661.0
178 948 1521.0
178 1038 349.0
178 1044 4705.0
178 1106 1.0
178 1241 266.0
178 1396 379.0
179 180 37.0
179 181 674.0
179 182 3102.0
179 183 4.0
179 185 2780.0
179 187 341.0
179 188 649.0
179 189 1619.0
179 190 1604.0
179 193 1208.0
179 194 264.0
179 195 64.0
179 196 215.0
179 198 1112.0
179 199 117.0
179 201 250.0
179 202 65548.0
179 203 16.0
179 211 11.0
179 235 21.0
179 239 91.0
179 244 1118.0
179 245 5.0
179 248 152.0
179 249 142.0
179 253 14.0
179 254 26.0
179 255 71.0
179 256 130.0
179 257 128.0
179 258 99.0
179 268 232.0
179 270 70.0
179 271 136.0
179 273 335.0
179 313 81.0
179 316 49251.0
179 353 53.0
179 354 3.0
179 375 16.0
179 378 151.0
179 462 37.0
179 464 143.0
179 465 25.0
179 466 42.0
179 468 11.0
179 470 1845.0
179 472 10.0
179 556 1.0
179 601 4.0
179 608 22.0
179 655 159.0
179 671 1159.0
179 685 63.0
179 686 3.0
179 687 3.0
179 934 4.0
180 181 17.0
180 182 56.0
180 184 23.0
180 185 6189.0
180 187 1557.0
180 188 21.0
180 189 177.0
180 190 168.0
180 193 523.0
180 194 226.0
180 195 261.0
180 196 114.0
180 199 47.0
180 201 4870.0
180 202 198081.0
180 203 367.0
180 204 9.0
180 211 271.0
180 219 6.0
180 220 7.0
180 229 8.0
180 244 43577.0
180 245 20.0
180 249 14.0
180 257 68.0
180 258 46.0
180 263 150.0
180 264 1.0
180 266 2002.0
180 268 264.0
180 270 157.0
180 273 231.0
180 349 39.0
180 570 9.0
180 572 21897.0
180 584 649.0
180 617 663.0
180 673 2.0
180 733 1380.0
180 751 12.0
180 791 2336.0
180 799 6.0
180 1110 5.0
180 1158 30229.0
180 1166 10.0
180 1339 5.0
180 1482 4.0
181 182 811002.0
181 184 57685.0
181 185 115.0
181 186 4391.0
181 187 2140.0
181 188 123297.0
181 189 291169.0
181 190 5182.0
181 191 8067.0
181 193 767.0
181 194 918979.0
181 195 580736.0
181 196 396363.0
181 197 27638.0
181 198 503517.0
181 199 269409.0
181 202 2968.0
181 203 6427.0
181 204 156210.0
181 205 21534.0
181 239 112.0
181 241 5637.0
181 249 369.0
181 257 63.0
181 314 17199.0
181 316 435.0
181 340 2.0
181 349 77.0
181 373 121143.0
181 417 259234.0
181 464 27.0
181 471 5.0
181 479 61.0
181 484 110273.0
181 496 201.0
181 512 255215.0
181 533 1.0
181 575 48.0
181 576 2523.0
181 587 3.0
181 590 234.0
181 619 83.0
181 627 5300.0
181 632 2964.0
181 690 141.0
181 694 73.0
181 716 1682.0
181 730 133537.0
181 731 428.0
181 732 130494.0
181 770 6.0
181 775 5788.0
181 780 14.0
181 786 22.0
181 847 276.0
181 882 29.0
181 892 9993.0
181 898 9427.0
181 909 23490.0
181 910 6.0
181 918 236.0
181 972 27.0
181 975 4.0
181 1026 1.0
181 1042 240.0
181 1317 75.0
181 1320 17305.0
181 1339 446.0
181 1400 146.0
181 1407 703.0
181 1500 9745.0
182 183 128.0
182 184 153836.0
182 185 81510.0
182 186 247099.0
182 187 94107.0
182 188 435633.0
182 189 1246755.0
182 190 392045.0
182 191 139825.0
182 192 116040.0
182 193 78466.0
182 194 1123029.0
182 195 945456.0
182 196 711619.0
182 197 311251.0
182 198 753027.0
182 199 975840.0
182 202 252813.0
182 203 408274.0
182 204 185071.0
182 205 263251.0
182 211 2076.0
182 212 10257.0
182 213 12.0
182 219 92.0
182 229 6.0
182 233 1619.0
182 234 64.0
182 237 184.0
182 240 2.0
182 242 5.0
182 249 636.0
182 252 130154.0
182 262 58.0
182 264 20566.0
182 272 78.0
182 276 6.0
182 277 628.0
182 285 2.0
182 314 320.0
182 316 88533.0
182 340 1.0
182 349 3.0
182 361 86.0
182 362 622.0
182 373 537.0
182 375 182.0
182 417 366105.0
182 464 1201.0
182 475 135.0
182 484 948.0
182 496 9956.0
182 512 176021.0
182 539 113171.0
182 545 40.0
182 571 5.0
182 575 179.0
182 581 10.0
182 590 51.0
182 596 157.0
182 606 1.0
182 612 49.0
182 618 824.0
182 619 169139.0
182 626 78.0
182 632 150088.0
182 649 48.0
182 658 98.0
182 662 3.0
182 671 3.0
182 674 87.0
182 694 20262.0
182 716 20440.0
182 746 8036.0
182 796 1.0
182 809 107198.0
182 810 4.0
182 812 13.0
182 832 5.0
182 847 101492.0
182 848 130.0
182 871 663.0
182 892 97487.0
182 894 100346.0
182 898 7.0
182 912 7804.0
182 948 1696.0
182 972 5.0
182 973 359.0
182 1033 41201.0
182 1100 109998.0
182 1170 5942.0
182 1192 3.0
182 1234 6903.0
182 1247 36825.0
182 1267 55.0
182 1317 2949.0
182 1504 4.0
182 1505 2.0
183 188 149.0
183 190 61.0
183 194 188187.0
183 195 47527.0
183 239 261.0
183 241 139.0
183 270 25.0
183 338 29189.0
183 479 67.0
183 574 1.0
183 590 8.0
183 618 1.0
183 707 3.0
183 731 34.0
183 732 79.0
183 917 67.0
184 187 259.0
184 188 1.0
184 190 167.0
184 192 2.0
184 194 183711.0
184 195 191707.0
184 196 5.0
184 197 7.0
184 198 21887.0
184 202 126.0
184 203 164.0
184 204 46139.0
184 205 80047.0
184 240 3.0
184 241 49923.0
184 242 4.0
184 314 189.0
184 539 33626.0
184 590 38.0
184 612 1.0
184 618 4.0
184 624 1.0
184 694 56.0
184 707 1.0
184 725 12.0
184 730 2.0
184 731 1.0
184 783 1.0
184 835 3.0
184 915 3.0
184 973 12.0
184 1320 1.0
184 1442 135.0
185 187 16266.0
185 188 54.0
185 189 6314.0
185 190 3045.0
185 193 909.0
185 194 350.0
185 195 1690.0
185 196 1159.0
185 198 2405.0
185 199 1578.0
185 201 16.0
185 202 196488.0
185 203 1050.0
185 204 237.0
185 215 6088.0
185 222 1.0
185 226 5623.0
185 229 4.0
185 235 10.0
185 239 321.0
185 244 2793.0
185 249 17.0
185 250 95.0
185 252 970.0
185 253 26.0
185 254 174.0
185 256 17.0
185 257 10.0
185 258 23.0
185 264 1181.0
185 265 30.0
185 270 129.0
185 271 49.0
185 272 33.0
185 273 220.0
185 316 352.0
185 321 22.0
185 349 125.0
185 353 59.0
185 354 6.0
185 463 37.0
185 464 344.0
185 470 26.0
185 472 138.0
185 539 8.0
185 601 1.0
185 657 170.0
185 658 15.0
185 664 387.0
185 672 22.0
185 676 53.0
185 677 99.0
185 705 97.0
185 707 25.0
185 884 107.0
186 189 7796.0
186 190 249.0
186 194 72715.0
186 195 157395.0
186 196 33.0
186 198 81.0
186 202 38.0
186 203 23.0
187 188 928.0
187 189 8396.0
187 190 4383.0
187 193 47.0
187 194 8730.0
187 195 5294.0
187 196 3270.0
187 198 1754.0
187 199 1473.0
187 201 1038.0
187 202 181973.0
187 203 851.0
187 204 384.0
187 205 22.0
187 211 387.0
187 212 12.0
187 219 220.0
187 229 196.0
187 235 128.0
187 237 83.0
187 239 62.0
187 244 6027.0
187 249 136.0
187 252 5033.0
187 254 40.0
187 255 1.0
187 256 125.0
187 257 229.0
187 258 245.0
187 260 4915.0
187 264 883.0
187 267 4.0
187 268 193.0
187 270 317.0
187 271 191.0
187 272 1362.0
187 273 537.0
187 277 59.0
187 316 256737.0
187 340 134.0
187 349 153.0
187 351 63.0
187 353 303.0
187 362 50.0
187 372 19.0
187 375 36.0
187 378 205.0
187 380 75.0
187 383 153.0
187 462 73.0
187 463 191.0
187 464 477.0
187 465 18.0
187 466 79.0
187 470 137.0
187 475 11.0
187 496 607.0
187 539 79.0
187 544 165.0
187 545 836.0
187 571 17.0
187 589 120.0
187 592 46.0
187 599 33.0
187 605 557.0
187 608 69.0
187 612 13.0
187 619 10.0
187 620 190.0
187 624 35.0
187 630 3.0
187 632 105540.0
187 634 4.0
187 642 99.0
187 645 41.0
187 649 5.0
187 658 95.0
187 663 63.0
187 672 70.0
187 673 193.0
187 676 167.0
187 677 62.0
187 685 3.0
187 686 332.0
187 690 38.0
187 707 30.0
187 839 50.0
187 852 9.0
187 936 73.0
187 1117 299.0
187 1157 1.0
188 189 119810.0
188 190 4745.0
188 191 2.0
188 192 1.0
188 193 1273.0
188 194 212258.0
188 195 178960.0
188 196 108079.0
188 197 17.0
188 198 6.0
188 199 20235.0
188 202 1581.0
188 203 2304.0
188 204 3.0
188 205 13.0
188 211 78.0
188 239 32.0
188 241 902.0
188 252 916.0
188 253 130.0
188 256 353.0
188 257 122.0
188 275 124.0
188 314 640.0
188 316 433.0
188 338 739.0
188 417 498.0
188 464 62.0
188 475 238.0
188 514 75.0
188 575 47.0
188 590 43.0
188 612 103.0
188 618 280.0
188 619 59.0
188 645 333.0
188 690 18.0
188 727 134.0
188 729 118.0
188 730 60.0
188 731 20.0
188 732 139.0
188 733 640.0
188 747 2.0
188 846 260.0
188 847 103.0
188 901 115.0
188 1026 243.0
188 1030 440.0
188 1033 1.0
188 1039 192.0
188 1099 285.0
188 1407 849.0
188 1469 103.0
189 190 115693.0
189 193 2676.0
189 194 685250.0
189 195 1459346.0
189 196 637569.0
189 197 77196.0
189 198 717676.0
189 202 9433.0
189 203 189002.0
189 204 54610.0
189 205 55197.0
189 219 1.0
189 233 247.0
189 241 36589.0
189 262 2028.0
189 271 5.0
189 314 2842.0
189 316 716.0
189 338 1224.0
189 349 169.0
189 373 3454.0
189 375 391.0
189 417 188596.0
189 459 4.0
189 464 178.0
189 484 295.0
189 496 7092.0
189 512 55047.0
189 514 225.0
189 533 21.0
189 539 410.0
189 574 5.0
189 575 438.0
189 577 143.0
189 590 2.0
189 593 5.0
189 612 55.0
189 613 148.0
189 618 57.0
189 619 1.0
189 632 3156.0
189 639 567.0
189 649 56.0
189 727 128.0
189 731 28.0
189 746 2.0
189 901 236.0
189 918 8.0
189 933 84.0
189 1099 258.0
189 1175 119.0
189 1317 7.0
189 1567 10.0
190 191 393.0
190 192 16.0
190 193 549.0
190 194 10629.0
190 195 42346.0
190 196 11676.0
190 197 601.0
190 198 14473.0
190 199 6169.0
190 201 3.0
190 202 72231.0
190 203 2769.0
190 204 6.0
190 205 2.0
190 235 636.0
190 237 269.0
190 239 72.0
190 243 1.0
190 244 235.0
190 245 5.0
190 248 167.0
190 255 190.0
190 257 100.0
190 258 89.0
190 264 7.0
190 270 73.0
190 271 44.0
190 273 46.0
190 275 1.0
190 316 295.0
190 337 423.0
190 338 276.0
190 340 476.0
190 345 1148.0
190 347 54.0
190 348 68.0
190 349 456.0
190 351 1182.0
190 352 1118.0
190 354 52.0
190 356 538.0
190 373 1989.0
190 375 126.0
190 378 122.0
190 463 64.0
190 464 4037.0
190 466 45.0
190 475 102.0
190 590 21.0
190 596 4.0
190 601 182.0
190 618 28.0
190 623 3.0
190 643 243.0
190 649 11038.0
190 657 302.0
190 662 73.0
190 676 2.0
190 690 161.0
190 707 9.0
190 712 67.0
190 786 2.0
190 847 3.0
190 898 3.0
190 901 68.0
190 982 37.0
190 1026 74.0
190 1320 8.0
190 1428 4.0
190 1513 31.0
191 193 150.0
191 194 43429.0
191 195 104232.0
191 196 11400.0
191 198 25320.0
191 199 2.0
191 203 482.0
191 204 13.0
191 219 4.0
191 229 4.0
191 241 30.0
191 574 7.0
191 576 4.0
191 590 1.0
191 612 56.0
191 690 10.0
191 709 3.0
191 731 112.0
191 732 46.0
191 796 22.0
191 847 2.0
191 850 14.0
191 892 16.0
191 909 1.0
191 914 2.0
191 1033 13.0
191 1100 1.0
191 1483 2.0
191 1514 2.0
191 1515 2.0
192 195 67451.0
192 203 255.0
192 732 9.0
193 194 808.0
193 195 333.0
193 196 751.0
193 198 1087.0
193 199 118.0
193 201 51.0
193 202 85819.0
193 203 972.0
193 204 2.0
193 211 107.0
193 229 336.0
193 232 57.0
193 235 171.0
193 239 8.0
193 244 1652.0
193 245 6.0
193 248 189.0
193 249 4.0
193 251 2.0
193 252 578.0
193 254 17.0
193 255 100.0
193 257 58.0
193 258 97.0
193 262 104.0
193 265 16.0
193 268 20.0
193 270 16.0
193 271 537.0
193 273 489.0
193 316 28173.0
193 337 48.0
193 340 10.0
193 344 56.0
193 349 485.0
193 353 251.0
193 355 6.0
193 372 63.0
193 375 41.0
193 378 35.0
193 379 83.0
193 461 37.0
193 462 1.0
193 463 8.0
193 464 103.0
193 466 8.0
193 468 24.0
193 470 84.0
193 475 17.0
193 571 1.0
193 590 25.0
193 596 4.0
193 597 44.0
193 608 113.0
193 609 38.0
193 612 27.0
193 617 4.0
193 618 33.0
193 638 98.0
193 649 31.0
193 656 61.0
193 658 41.0
193 664 47.0
193 670 3.0
193 671 8.0
193 686 21.0
193 694 28.0
193 705 285.0
193 714 33.0
193 720 3.0
193 725 5.0
193 731 24.0
193 739 57.0
193 798 2.0
193 842 8.0
193 871 2.0
193 896 21.0
193 939 9.0
193 1010 23.0
193 1288 3.0
194 195 1373178.0
194 196 576277.0
194 197 55417.0
194 198 582053.0
194 199 566634.0
194 202 5224.0
194 203 100846.0
194 204 382099.0
194 205 145400.0
194 214 105.0
194 240 10941.0
194 241 198261.0
194 243 13200.0
194 249 160.0
194 252 22479.0
194 262 1250.0
194 264 238.0
194 272 233.0
194 273 318.0
194 287 4032.0
194 316 103744.0
194 357 553.0
194 365 250954.0
194 367 53751.0
194 373 304796.0
194 375 77.0
194 417 621068.0
194 464 161.0
194 475 1.0
194 479 57514.0
194 484 208937.0
194 496 138122.0
194 501 59951.0
194 503 121635.0
194 512 329665.0
194 516 104473.0
194 519 7932.0
194 533 134366.0
194 537 6774.0
194 538 5414.0
194 539 110189.0
194 575 143.0
194 579 26.0
194 583 57.0
194 587 5.0
194 590 74363.0
194 593 119739.0
194 597 194.0
194 611 6.0
194 612 81315.0
194 613 857.0
194 619 501.0
194 626 3982.0
194 627 225933.0
194 632 169823.0
194 639 114.0
194 650 5.0
194 669 6032.0
194 675 848.0
194 690 140.0
194 707 29472.0
194 708 116.0
194 730 72369.0
194 731 114391.0
194 732 98150.0
194 771 141.0
194 783 170291.0
194 828 10764.0
194 846 44393.0
194 847 17641.0
194 848 64929.0
194 850 15140.0
194 853 59477.0
194 892 109899.0
194 894 107862.0
194 898 1389.0
194 901 324.0
194 909 48963.0
194 917 101808.0
194 964 1.0
194 972 1.0
194 1016 162.0
194 1042 2599.0
194 1080 91501.0
194 1102 1286.0
194 1106 4.0
194 1203 141.0
194 1303 40.0
194 1320 112.0
194 1400 96458.0
194 1407 677.0
194 1520 3.0
194 1521 1.0
195 196 163.0
195 197 138512.0
195 198 110715.0
195 199 743139.0
195 202 9033.0
195 203 49279.0
195 204 479768.0
195 205 217821.0
195 211 31716.0
195 220 2499.0
195 230 73352.0
195 239 3.0
195 240 103505.0
195 242 25555.0
195 243 58667.0
195 252 12735.0
195 258 306.0
195 270 2626.0
195 272 582.0
195 314 292.0
195 316 402018.0
195 344 40.0
195 351 111090.0
195 353 148.0
195 372 13.0
195 373 660515.0
195 374 12.0
195 375 316.0
195 416 125799.0
195 417 1125590.0
195 464 36.0
195 484 213644.0
195 496 532891.0
195 501 139670.0
195 512 364019.0
195 516 359126.0
195 533 535527.0
195 539 94613.0
195 574 8874.0
195 575 358.0
195 577 206.0
195 587 5671.0
195 590 17044.0
195 592 82.0
195 593 266816.0
195 598 88.0
195 605 24180.0
195 606 210368.0
195 607 48.0
195 611 702.0
195 612 120.0
195 613 197.0
195 618 11.0
195 619 43764.0
195 621 113.0
195 622 2791.0
195 626 781669.0
195 627 504338.0
195 628 799.0
195 631 631.0
195 632 840965.0
195 633 35846.0
195 639 394.0
195 646 245841.0
195 649 37.0
195 650 189630.0
195 651 828.0
195 659 42.0
195 667 520.0
195 669 187662.0
195 675 727.0
195 678 293391.0
195 682 255.0
195 690 27.0
195 716 119.0
195 730 137545.0
195 731 9404.0
195 732 57759.0
195 733 3.0
195 735 39.0
195 746 2.0
195 748 4.0
195 751 6.0
195 783 56430.0
195 785 11.0
195 847 552.0
195 850 11.0
195 861 206589.0
195 865 8.0
195 866 34451.0
195 868 5.0
195 892 215383.0
195 894 115670.0
195 896 2.0
195 898 34965.0
195 913 12.0
195 964 46253.0
195 972 5.0
195 1022 44.0
195 1060 4.0
195 1106 46008.0
195 1110 1.0
195 1118 1.0
195 1153 44.0
195 1213 19446.0
195 1237 11.0
195 1254 3.0
195 1320 25179.0
195 1328 1.0
195 1342 333.0
195 1407 616.0
195 1444 270.0
195 1524 4.0
195 1525 1.0
195 1526 207.0
195 1527 3.0
196 197 1952.0
196 198 9628.0
196 199 498722.0
196 202 941.0
196 203 15645.0
196 204 390.0
196 205 147.0
196 252 67.0
196 262 60.0
196 272 60.0
196 314 138.0
196 341 99.0
196 353 148.0
196 372 80.0
196 375 234.0
196 417 153437.0
196 464 11.0
196 475 91.0
196 512 33539.0
196 539 120.0
196 574 2.0
196 575 64.0
196 596 30.0
196 607 2.0
196 612 46.0
196 618 178.0
196 619 114028.0
196 631 1.0
196 645 267.0
196 674 47.0
196 704 225.0
196 707 75.0
196 715 145.0
196 730 19.0
196 731 297.0
196 732 2.0
196 824 2089.0
196 847 93.0
196 848 319.0
196 865 8.0
196 892 40708.0
196 1210 3.0
196 1310 12999.0
196 1393 16.0
196 1398 6.0
196 1407 6706.0
196 1439 115.0
197 198 23425.0
197 199 295.0
197 203 101.0
197 213 50.0
197 276 6.0
198 199 461018.0
198 202 2349.0
198 203 16045.0
198 204 90.0
198 212 588.0
198 240 13604.0
198 241 339.0
198 242 1388.0
198 252 21.0
198 263 40.0
198 316 836.0
198 338 17.0
198 344 192.0
198 375 98.0
198 417 165161.0
198 464 210.0
198 475 1.0
198 512 71497.0
198 590 395.0
198 612 89.0
198 619 47142.0
198 659 203.0
198 672 10.0
198 690 3.0
198 704 214.0
198 716 787.0
198 730 1.0
198 731 715.0
198 732 58.0
198 819 51.0
198 824 130.0
198 906 39.0
198 1185 3.0
198 1310 122.0
198 1475 3.0
199 202 1207.0
199 203 4127.0
199 204 32.0
199 211 838.0
199 229 4.0
199 243 3.0
199 252 106.0
199 257 59.0
199 271 40.0
199 272 52.0
199 316 2209.0
199 345 38.0
199 355 2.0
199 417 37134.0
199 464 13.0
199 475 13.0
199 496 3.0
199 512 25737.0
199 539 90.0
199 574 11.0
199 575 419.0
199 583 65.0
199 589 135.0
199 590 41.0
199 601 6.0
199 607 21.0
199 610 6.0
199 612 59.0
199 619 125.0
199 662 57.0
199 690 2.0
199 707 62.0
199 708 56.0
199 730 52.0
199 731 9.0
199 819 48.0
199 846 21.0
199 847 4.0
199 898 1.0
199 912 3.0
199 961 2.0
199 1320 9.0
199 1491 3.0
201 202 21550.0
201 219 164.0
201 225 2.0
201 235 71.0
201 238 53.0
201 239 56.0
201 245 1.0
201 248 33.0
201 249 1.0
201 251 23.0
201 254 52.0
201 255 3.0
201 256 4.0
201 257 35.0
201 258 843.0
201 270 1.0
201 275 2.0
201 313 9.0
201 316 51934.0
201 349 50.0
201 353 170.0
201 355 17.0
201 361 96.0
201 371 68.0
201 375 24.0
201 463 509.0
201 464 2.0
201 468 11.0
201 470 72.0
201 544 149.0
201 545 403.0
201 561 1.0
201 584 7.0
201 596 4.0
201 608 2.0
201 609 2.0
201 645 153.0
201 657 197.0
201 792 254.0
201 901 141.0
202 203 1391.0
202 204 131.0
202 205 73.0
202 211 8224.0
202 214 40.0
202 219 297.0
202 230 960.0
202 244 101714.0
202 248 1.0
202 249 75477.0
202 257 12375.0
202 263 35.0
202 264 351.0
202 268 1335.0
202 270 71053.0
202 272 110908.0
202 273 344.0
202 313 14007.0
202 316 438722.0
202 318 52.0
202 340 133.0
202 345 401.0
202 349 164.0
202 351 133.0
202 353 53.0
202 372 120.0
202 464 6.0
202 470 24944.0
202 473 81.0
202 539 13.0
202 545 66.0
202 577 639.0
202 587 4.0
202 590 76.0
202 592 122.0
202 593 226.0
202 599 27.0
202 605 119.0
202 607 288.0
202 610 35980.0
202 618 3.0
202 631 112200.0
202 632 2945.0
202 633 7.0
202 640 4558.0
202 660 112.0
202 661 544.0
202 663 534.0
202 670 5.0
202 671 402.0
202 673 338.0
202 681 56.0
202 682 127.0
202 685 2459.0
202 686 14640.0
202 690 61.0
202 691 539.0
202 705 142.0
202 751 30.0
202 879 5.0
202 897 5.0
202 924 135.0
202 993 56.0
202 1157 132.0
202 1447 55.0
203 204 20.0
203 205 25.0
203 229 2.0
203 237 29.0
203 248 245.0
203 274 284.0
203 338 296.0
203 375 1.0
203 472 14.0
203 475 161.0
203 539 75.0
203 574 9.0
203 590 83.0
203 612 79.0
203 618 3.0
203 619 50.0
203 690 174.0
203 707 83.0
203 709 6.0
203 716 2.0
203 728 1.0
203 731 30.0
203 732 20.0
203 746 4.0
203 809 19.0
203 819 10.0
203 832 46.0
203 841 28.0
203 846 357.0
203 847 60.0
203 972 1.0
203 1033 55.0
203 1100 1.0
203 1247 189.0
204 219 43.0
204 229 15.0
204 257 299.0
204 276 4.0
204 285 18.0
204 314 149.0
204 316 2813.0
204 417 222927.0
204 512 170605.0
204 513 262.0
204 558 9.0
204 575 1.0
204 576 4.0
204 618 3.0
204 674 45.0
204 690 1.0
204 731 28.0
204 809 16.0
204 820 9.0
204 839 1.0
204 848 16.0
204 850 36.0
204 892 18957.0
204 894 10824.0
204 898 125.0
204 909 28.0
204 975 2.0
204 976 15.0
204 991 16.0
204 1033 2.0
204 1089 11.0
204 1422 1.0
205 219 40.0
205 239 1.0
205 257 167.0
205 313 2.0
205 338 6.0
205 417 19323.0
205 512 28504.0
205 558 3.0
205 575 4.0
205 618 2.0
205 648 1.0
205 674 47.0
205 706 1.0
205 711 5.0
206 207 11.0
206 257 3.0
206 344 23.0
207 386 115.0
209 210 146.0
209 211 78.0
209 239 6.0
210 232 85.0
210 928 107.0
211 219 188.0
211 224 8.0
211 225 25.0
211 229 2.0
211 235 17.0
211 244 800.0
211 248 7.0
211 249 61.0
211 257 285.0
211 258 29.0
211 268 1.0
211 270 14.0
211 271 44.0
211 272 3389.0
211 316 240307.0
211 349 2.0
211 353 35.0
211 375 9.0
211 464 17.0
211 465 2.0
211 472 11.0
211 545 52.0
211 571 8.0
211 584 12.0
211 608 23.0
211 612 2.0
211 618 10.0
211 656 1.0
211 676 30.0
211 739 2.0
212 213 8.0
213 229 3.0
213 252 58.0
213 710 4.0
213 913 3.0
215 216 8.0
215 217 2.0
215 218 16641.0
215 219 18.0
215 220 8.0
215 221 2.0
215 222 27.0
215 223 6.0
215 224 67302.0
215 225 64.0
215 226 9102.0
215 227 6.0
215 228 36.0
215 229 1644.0
215 230 1.0
215 231 7.0
215 545 3.0
218 226 7847.0
218 228 2.0
218 229 7.0
219 316 103.0
219 463 29.0
219 473 40.0
219 545 46.0
219 595 8.0
219 674 46.0
219 686 247.0
219 719 31.0
219 864 2.0
219 871 34.0
219 906 2.0
219 1183 3.0
219 1504 5.0
220 229 95.0
220 271 57.0
220 316 16.0
220 475 11.0
220 529 9.0
220 545 4.0
220 571 6.0
220 575 4.0
220 1176 2.0
221 226 5.0
221 1240 6.0
222 223 1.0
222 225 9.0
222 226 4.0
222 228 5.0
222 268 5.0
222 460 6.0
222 583 2.0
222 609 9.0
222 803 2.0
222 812 1.0
222 1177 22.0
222 1295 12.0
222 1484 1.0
223 229 1.0
223 268 29.0
223 571 23.0
223 747 7.0
223 751 1.0
223 906 10.0
224 226 3144.0
224 228 5.0
224 229 41.0
224 271 6.0
224 791 2.0
224 1186 4.0
225 226 5.0
225 228 4.0
225 230 11.0
225 353 12.0
225 561 2.0
225 625 4.0
225 710 7.0
225 899 1.0
225 1176 1.0
225 1431 4.0
225 1499 1.0
226 228 17.0
226 229 571.0
227 229 3.0
227 863 2.0
228 229 8.0
228 244 12.0
228 313 1.0
228 555 1.0
228 657 2.0
228 803 1.0
228 854 1.0
228 930 8.0
228 1177 1.0
228 1179 6.0
228 1498 4.0
229 230 68.0
229 231 3.0
229 238 41.0
229 244 7.0
229 247 6.0
229 249 1.0
229 262 4.0
229 263 124.0
229 270 4.0
229 272 2.0
229 273 51.0
229 275 1.0
229 276 12.0
229 316 29.0
229 322 8.0
229 353 99.0
229 362 35.0
229 417 4.0
229 459 43.0
229 462 1.0
229 463 1.0
229 473 2.0
229 496 4.0
229 559 11.0
229 570 3.0
229 571 2.0
229 574 11.0
229 577 17.0
229 579 1.0
229 580 8.0
229 581 3.0
229 583 3.0
229 587 5.0
229 595 14.0
229 605 4.0
229 607 10.0
229 610 15.0
229 611 2.0
229 622 2.0
229 626 2.0
229 632 22.0
229 637 16.0
229 639 2.0
229 640 8.0
229 652 19.0
229 658 2.0
229 661 1.0
229 667 3.0
229 670 10.0
229 671 13.0
229 672 2.0
229 675 9.0
229 677 8.0
229 694 2.0
229 697 39.0
229 721 3.0
229 740 2.0
229 748 66.0
229 751 113.0
229 753 6.0
229 791 4.0
229 799 10.0
229 850 1.0
229 853 8.0
229 854 26.0
229 859 1.0
229 863 10.0
229 865 4.0
229 868 13.0
229 879 10.0
229 906 1.0
229 910 11.0
229 918 5.0
229 919 4.0
229 923 2.0
229 930 1.0
229 936 97.0
229 1002 2.0
229 1060 8.0
229 1093 5.0
229 1110 33.0
229 1120 2.0
229 1121 11.0
229 1172 2.0
229 1177 6.0
229 1179 7.0
229 1188 4.0
229 1195 2.0
229 1270 6.0
229 1271 3.0
229 1283 1.0
229 1327 5.0
229 1339 2.0
229 1360 5.0
229 1405 7.0
229 1412 5.0
229 1413 4.0
229 1415 3.0
229 1435 5.0
229 1456 5.0
229 1471 10.0
229 1486 2.0
229 1487 2.0
229 1490 4.0
229 1507 6.0
229 1519 10.0
229 1544 5.0
229 1545 2.0
229 1546 6.0
229 1547 3.0
229 1548 16.0
229 1549 2.0
229 1550 12.0
229 1551 4.0
229 1566 4.0
230 314 2.0
230 316 143117.0
230 545 1.0
230 571 2.0
231 863 4.0
232 233 70.0
232 234 386.0
232 235 71.0
232 236 513.0
232 237 456.0
232 238 97.0
232 239 35.0
232 480 7.0
233 236 216.0
233 237 39.0
233 262 324.0
233 338 130.0
233 596 6.0
233 597 387.0
233 630 11.0
233 691 56.0
233 996 138.0
234 237 127.0
234 239 98.0
234 277 82.0
234 559 78.0
234 597 287.0
234 735 172.0
234 937 264.0
234 1175 72.0
235 239 20.0
235 248 18.0
235 249 1.0
235 251 23.0
235 252 4736.0
235 258 6.0
235 264 153.0
235 265 734.0
235 268 46.0
235 270 5.0
235 271 11.0
235 273 10.0
235 349 1.0
235 375 3.0
235 461 3.0
235 462 15.0
235 463 66.0
235 471 5.0
235 475 6.0
235 571 17.0
235 584 4.0
235 657 105.0
235 686 5.0
235 691 544.0
235 719 1.0
235 787 291.0
235 799 1.0
235 936 433.0
235 965 356.0
236 597 126.0
236 846 38.0
236 848 38.0
236 1040 7.0
237 262 59.0
237 597 369.0
237 603 281.0
237 630 270.0
237 708 116.0
237 846 136.0
237 848 138.0
238 239 274.0
238 248 82.0
238 375 159.0
238 378 124.0
238 379 248.0
238 463 76.0
238 480 57.0
238 647 6.0
238 691 58.0
239 244 2596.0
239 248 350.0
239 249 69.0
239 251 13.0
239 254 107.0
239 256 53.0
239 257 97.0
239 262 4.0
239 265 56.0
239 268 1.0
239 271 40.0
239 273 94.0
239 275 275.0
239 277 32.0
239 316 21654.0
239 337 50.0
239 340 49.0
239 344 7.0
239 349 59.0
239 353 23.0
239 355 31.0
239 370 3.0
239 371 327.0
239 372 18.0
239 375 152.0
239 377 52.0
239 378 832.0
239 379 99.0
239 383 341.0
239 461 90.0
239 463 60.0
239 464 43.0
239 465 40.0
239 466 3.0
239 468 6.0
239 470 2.0
239 471 3.0
239 472 13.0
239 475 7.0
239 596 230.0
239 609 2.0
239 612 11.0
239 618 5.0
239 630 4.0
239 645 3.0
239 656 38.0
239 658 11.0
239 676 4.0
239 686 46.0
239 690 112.0
239 694 38.0
239 719 28.0
239 720 95.0
239 730 102.0
239 738 44.0
239 798 132.0
239 882 1.0
239 993 51.0
240 241 20.0
240 242 1854.0
240 243 3489.0
241 338 47472.0
241 732 141.0
241 772 1514.0
241 773 1995.0
241 835 142.0
241 1005 3.0
243 730 96.0
243 905 5.0
243 1106 48.0
244 245 2727.0
244 246 121.0
244 247 6.0
244 248 1336.0
244 249 3704.0
244 250 1569.0
244 251 669.0
244 252 1110.0
244 253 464.0
244 254 1642.0
244 255 1999.0
244 256 472.0
244 257 1642.0
244 258 6886.0
244 259 110.0
244 260 1736.0
244 261 431.0
244 262 300.0
244 263 91.0
244 264 106.0
244 265 242.0
244 266 193.0
244 267 863.0
244 268 1682.0
244 269 1601.0
244 270 2558.0
244 271 957.0
244 272 680.0
244 273 4169.0
244 274 1708.0
244 275 1753.0
244 276 2.0
244 277 64.0
244 278 6870.0
244 316 1.0
244 459 8.0
244 545 1.0
244 596 130.0
244 660 20.0
244 711 101.0
245 251 8.0
245 255 49.0
245 258 1.0
245 263 5.0
245 265 15.0
245 271 171.0
245 272 2.0
245 316 8.0
245 349 3.0
245 370 97.0
245 371 6.0
245 372 3.0
245 373 18.0
245 374 332.0
245 375 33.0
245 378 33.0
245 464 59.0
245 470 4.0
245 609 49.0
246 252 232.0
246 354 2297.0
246 592 346.0
246 664 1620.0
246 872 226.0
248 251 1.0
248 256 63.0
248 257 54.0
248 262 323.0
248 265 31.0
248 273 11.0
248 316 92.0
248 337 21.0
248 340 228.0
248 349 85.0
248 353 31.0
248 355 10.0
248 371 467.0
248 372 206.0
248 374 311.0
248 375 371.0
248 378 93.0
248 379 250.0
248 380 136.0
248 383 429.0
248 462 1.0
248 464 105.0
248 471 8.0
248 472 26.0
248 480 115.0
248 584 2.0
248 610 69.0
248 625 6.0
248 656 1.0
248 658 18.0
248 691 35.0
248 798 119.0
248 882 36.0
248 936 50.0
248 937 290.0
248 938 198.0
248 939 48.0
249 254 250.0
249 255 6.0
249 257 94.0
249 258 7.0
249 271 186.0
249 272 28.0
249 273 601.0
249 313 59.0
249 337 3.0
249 353 64.0
249 371 83.0
249 372 18.0
249 374 4.0
249 375 19.0
249 378 41.0
249 464 4.0
249 466 51.0
249 468 6.0
249 470 78.0
249 545 251.0
249 584 5.0
249 603 1.0
249 657 40.0
249 658 3.0
249 676 319.0
249 720 7.0
249 733 245.0
249 790 3.0
249 838 118.0
250 277 277.0
250 463 100.0
250 945 98.0
251 254 2.0
251 256 1.0
251 265 65.0
251 273 3.0
251 313 5.0
251 337 7.0
251 349 14.0
251 353 25.0
251 371 2.0
251 378 6.0
251 464 7.0
251 466 14.0
251 472 11.0
251 475 4.0
251 480 47.0
251 539 26.0
251 799 11.0
252 268 92.0
252 272 34.0
252 277 198.0
252 316 439860.0
252 349 533.0
252 575 6.0
252 584 137.0
252 690 41.0
252 733 6637.0
252 836 144.0
252 876 11.0
252 896 4.0
253 256 124.0
253 257 36.0
253 262 30.0
253 268 1.0
253 462 8.0
253 562 18.0
253 571 6.0
253 618 3.0
253 644 29.0
253 676 2.0
253 691 4.0
253 720 44.0
253 725 9.0
253 799 2.0
253 839 11.0
253 841 15.0
253 1010 281.0
254 255 27.0
254 258 42.0
254 268 15.0
254 270 2.0
254 271 2.0
254 272 4.0
254 273 92.0
254 275 2.0
254 313 19.0
254 361 170.0
254 362 1276.0
254 461 139.0
254 468 1.0
254 584 33.0
254 657 227.0
254 676 7.0
254 806 214.0
254 1019 233.0
255 265 4.0
255 271 8.0
255 337 632.0
255 340 203.0
255 349 139.0
255 371 4.0
255 375 33.0
255 378 64.0
255 461 8.0
255 464 64.0
255 466 12.0
255 470 51.0
255 603 25.0
255 655 81.0
256 258 71.0
256 259 248.0
256 265 19.0
256 268 31.0
256 270 38.0
256 271 74.0
256 273 11.0
256 349 67.0
256 353 167.0
256 355 1.0
256 372 12.0
256 375 2.0
256 462 12.0
256 464 46.0
256 472 3.0
256 571 6.0
256 596 134.0
256 618 27.0
256 630 2.0
256 656 3.0
256 676 4.0
256 686 11.0
256 718 1.0
256 719 1.0
256 790 78.0
256 799 2.0
256 823 76.0
256 839 13.0
256 842 4.0
256 961 2.0
256 1065 2.0
257 258 42.0
257 262 16.0
257 268 63.0
257 270 12.0
257 271 23.0
257 273 26.0
257 275 24.0
257 312 58.0
257 313 46.0
257 316 355.0
257 338 35159.0
257 341 58.0
257 349 17.0
257 355 27.0
257 375 123.0
257 462 202.0
257 470 22.0
257 471 4.0
257 472 28.0
257 475 51.0
257 539 101.0
257 571 16.0
257 590 27.0
257 596 12.0
257 608 35.0
257 618 228.0
257 656 68.0
257 685 2.0
257 686 4.0
257 690 14.0
257 694 26.0
257 720 4.0
257 725 1.0
257 798 17.0
257 871 4.0
257 934 9.0
258 265 31.0
258 267 31.0
258 268 4.0
258 270 52.0
258 271 2.0
258 272 141.0
258 313 350.0
258 316 31582.0
258 337 32.0
258 349 55.0
258 353 116.0
258 371 1.0
258 372 41.0
258 374 18.0
258 375 138.0
258 378 28.0
258 461 2.0
258 464 94.0
258 465 1.0
258 468 5.0
258 545 460.0
258 571 138.0
258 596 256.0
258 608 17.0
258 656 7.0
258 720 65.0
258 798 145.0
258 841 15.0
258 934 22.0
258 965 45.0
259 353 45.0
260 642 99.0
260 798 263.0
260 937 273.0
261 557 18.0
262 314 24.0
262 316 87.0
262 338 150.0
262 372 259.0
262 471 5.0
262 472 5.0
262 475 6.0
262 597 317.0
262 618 41.0
262 658 4.0
262 676 84.0
262 690 11.0
262 725 26.0
262 731 6.0
262 738 53.0
262 846 242.0
262 924 137.0
262 1087 52.0
263 273 39.0
263 277 2.0
263 353 79.0
263 361 97.0
263 739 84.0
263 906 39.0
264 270 9.0
264 273 171.0
264 316 276225.0
264 571 343.0
264 672 14.0
265 273 25.0
265 313 17.0
265 340 7.0
265 349 19.0
265 375 15.0
265 466 3.0
265 584 12.0
265 596 14.0
265 608 32.0
265 882 6.0
266 344 82.0
266 686 2.0
267 798 77.0
267 937 25.0
268 270 9.0
268 271 48.0
268 273 2.0
268 312 59.0
268 316 205.0
268 353 96.0
268 462 46.0
268 464 5.0
268 470 18.0
268 472 21.0
268 580 9.0
268 584 11.0
268 664 4.0
268 686 1.0
268 697 10.0
268 718 4.0
268 853 51.0
268 859 12.0
268 1176 5.0
269 270 97.0
269 273 282.0
270 273 150.0
270 274 6.0
270 316 1725.0
270 349 112.0
270 353 7.0
270 375 19.0
270 461 44.0
270 464 12.0
270 465 12.0
270 466 34.0
270 470 447.0
270 472 16.0
270 473 65.0
270 475 8.0
270 545 63.0
270 596 2.0
270 608 6.0
270 658 7.0
270 664 11.0
270 725 5.0
270 991 1.0
271 272 7.0
271 313 23.0
271 316 18744.0
271 339 1.0
271 349 36.0
271 353 12.0
271 378 56.0
271 383 56.0
271 461 51.0
271 464 49.0
271 465 33.0
271 470 11.0
271 472 45.0
271 584 18.0
271 608 42.0
271 610 5.0
271 617 1.0
271 625 1.0
271 657 288.0
271 658 48.0
271 664 7.0
271 673 72.0
271 676 28.0
271 685 18.0
271 686 23.0
271 720 2.0
271 735 80.0
271 792 264.0
271 799 2.0
271 860 2.0
271 882 57.0
272 307 29263.0
272 316 834755.0
272 321 8703.0
272 337 318.0
272 347 208.0
272 349 44.0
272 354 357187.0
272 423 335.0
272 556 34317.0
272 579 3429.0
272 581 9913.0
272 584 274.0
272 592 60522.0
272 599 1455.0
272 607 16.0
272 614 31586.0
272 639 58578.0
272 655 13608.0
272 660 14338.0
272 663 102369.0
272 664 104537.0
272 668 311.0
272 672 185408.0
272 673 171962.0
272 677 49312.0
272 680 46.0
272 691 323.0
272 721 10960.0
272 736 298.0
272 896 1.0
272 1025 15833.0
272 1056 1.0
272 1064 33009.0
272 1075 18359.0
272 1091 182122.0
272 1179 7.0
272 1307 7.0
272 1347 9660.0
272 1362 34017.0
272 1427 17353.0
272 1433 8583.0
272 1448 27747.0
272 1449 95.0
272 1451 1.0
272 1477 420.0
272 1516 4270.0
272 1531 87.0
273 275 3.0
273 314 106.0
273 349 2.0
273 353 153.0
273 375 14.0
273 459 9.0
273 462 162.0
273 463 98.0
273 465 1.0
273 466 24.0
273 470 4.0
273 472 10.0
273 475 3.0
273 571 210.0
273 578 23.0
273 580 94.0
273 587 158.0
273 589 2.0
273 601 40.0
273 608 55.0
273 610 35.0
273 618 39.0
273 634 1.0
273 664 94.0
273 686 105.0
273 705 493.0
273 720 52.0
273 945 94.0
273 1240 3.0
274 313 50.0
274 337 193.0
274 348 1639.0
274 349 8.0
274 353 275.0
274 361 72.0
274 362 252.0
274 372 265.0
274 383 65.0
274 618 13.0
274 625 12.0
274 792 2.0
274 1073 2.0
275 353 77.0
275 362 411.0
275 374 4.0
275 378 22.0
275 463 29.0
275 464 28.0
275 472 17.0
275 596 251.0
275 658 9.0
275 839 2.0
276 574 1.0
276 652 3.0
276 747 2.0
276 751 8.0
276 897 4.0
276 901 1.0
276 1004 4.0
276 1260 13.0
276 1407 4.0
276 1435 52.0
277 361 82.0
277 362 771.0
277 476 40.0
277 544 66.0
277 545 193.0
277 691 253.0
277 791 50.0
277 806 72.0
277 838 126.0
277 936 520.0
277 965 216.0
278 312 56.0
278 355 232.0
278 475 229.0
278 477 236.0
278 561 3.0
278 584 106.0
278 618 234.0
278 658 99.0
278 885 27.0
280 291 4.0
282 283 7.0
282 296 24.0
282 302 8.0
282 303 153.0
282 304 6.0
283 303 2.0
283 306 9.0
285 560 14.0
285 575 3.0
287 292 95.0
287 365 1646.0
287 449 53.0
287 531 2.0
287 538 254.0
288 304 12.0
289 291 114.0
289 292 58.0
289 294 1.0
289 305 10.0
289 309 3531.0
289 396 710.0
289 397 1.0
289 399 25.0
289 400 1.0
289 402 3.0
289 407 19.0
289 419 70.0
289 424 13.0
289 425 234.0
289 427 10.0
289 428 318.0
289 429 676.0
289 431 59.0
289 432 1794.0
289 433 14.0
289 434 1048.0
289 435 1.0
289 438 13.0
289 442 27.0
289 444 8.0
289 448 58.0
289 505 20.0
289 513 29.0
289 520 19.0
289 527 1.0
289 550 16.0
289 754 3.0
289 755 14.0
289 760 459.0
289 979 856.0
289 1057 12.0
291 393 585.0
291 394 217.0
291 419 292.0
291 448 210.0
291 488 6.0
291 513 1.0
291 527 15.0
291 550 36.0
291 1076 6.0
291 1077 2382.0
292 335 47.0
292 365 17.0
292 396 27.0
292 425 71.0
292 429 2.0
292 434 7.0
292 444 1.0
292 449 1.0
292 507 29.0
292 513 26.0
292 515 6.0
293 335 22.0
293 455 5.0
293 494 17.0
293 565 14.0
293 566 3.0
293 567 4.0
293 568 81.0
293 569 18.0
293 703 2.0
293 963 23.0
293 1133 3.0
294 305 28.0
294 426 86.0
294 427 95.0
294 431 6.0
294 435 180.0
294 448 4.0
294 535 2.0
296 302 67.0
296 303 8.0
296 304 35.0
297 298 1.0
297 303 2.0
303 304 10.0
303 434 1.0
303 448 14.0
305 424 9.0
305 425 10.0
305 426 83.0
305 427 140.0
305 431 18.0
305 433 16.0
305 435 84.0
305 438 3.0
305 445 2.0
305 452 1.0
305 511 2.0
309 396 252.0
309 398 73.0
309 399 5.0
309 402 54.0
309 403 4.0
309 406 2.0
309 413 92.0
309 425 8.0
309 428 1.0
309 432 117.0
309 434 19.0
309 502 9.0
309 505 23.0
309 549 2.0
309 688 12.0
309 699 9.0
309 701 26.0
309 756 4.0
309 760 24.0
312 313 23.0
312 314 85.0
312 315 98.0
312 316 112.0
312 317 358.0
312 318 72.0
312 319 76.0
312 320 35.0
312 321 105.0
312 322 316.0
312 717 31.0
312 836 55.0
312 1071 44.0
312 1447 77.0
312 1489 90.0
313 349 68.0
313 355 1.0
313 371 6.0
313 461 8.0
313 464 17.0
313 466 2.0
313 471 11.0
313 472 11.0
313 584 3.0
313 590 2.0
313 596 1.0
313 691 6.0
313 712 66.0
313 717 26.0
313 718 13.0
313 719 10.0
313 720 47.0
313 799 2.0
313 980 30.0
314 338 819.0
314 348 109.0
314 365 6.0
314 367 116.0
314 417 110.0
314 459 8.0
314 503 28.0
314 545 48.0
314 570 1.0
314 612 4.0
314 632 4.0
314 697 1.0
314 730 200.0
314 731 140.0
314 732 101.0
314 749 26.0
314 770 19186.0
314 771 85.0
314 772 5418.0
314 773 12129.0
314 774 29.0
314 775 36.0
314 776 5.0
314 777 47.0
314 778 4.0
314 779 4.0
314 780 27.0
314 781 19.0
314 782 12.0
314 783 233.0
314 784 4.0
314 1042 6.0
314 1199 6.0
314 1371 7.0
314 1382 3.0
314 1422 4.0
314 1564 15.0
315 316 47.0
315 318 30.0
315 571 102.0
315 836 47.0
316 317 118.0
316 321 92950.0
316 322 3486.0
316 323 977.0
316 337 2257.0
316 339 420189.0
316 340 1029.0
316 345 295422.0
316 346 191524.0
316 347 255556.0
316 349 16.0
316 351 168002.0
316 352 234062.0
316 354 441054.0
316 356 97337.0
316 361 89.0
316 362 729.0
316 371 12560.0
316 373 691.0
316 423 19228.0
316 463 428.0
316 464 63.0
316 470 42451.0
316 484 1906.0
316 496 208157.0
316 544 37.0
316 545 406.0
316 556 81405.0
316 559 10.0
316 571 8.0
316 572 14.0
316 575 13.0
316 577 14.0
316 578 229192.0
316 579 14729.0
316 580 72164.0
316 581 204303.0
316 583 33.0
316 586 89.0
316 587 881.0
316 588 12387.0
316 589 116343.0
316 592 671880.0
316 593 399255.0
316 598 673.0
316 599 235486.0
316 601 47.0
316 605 159366.0
316 607 22035.0
316 610 200604.0
316 611 552284.0
316 613 144957.0
316 614 1114.0
316 617 107145.0
316 620 24222.0
316 621 304729.0
316 622 722949.0
316 623 130.0
316 624 148.0
316 632 797365.0
316 633 533303.0
316 634 78651.0
316 639 381686.0
316 641 118404.0
316 643 313567.0
316 646 130.0
316 649 10640.0
316 650 46610.0
316 651 29790.0
316 652 11.0
316 655 439918.0
316 660 316910.0
316 661 629.0
316 662 39.0
316 663 500154.0
316 664 242088.0
316 666 162.0
316 667 304340.0
316 672 228855.0
316 673 80504.0
316 675 3.0
316 677 153773.0
316 680 341994.0
316 681 115076.0
316 686 2.0
316 705 91.0
316 721 28.0
316 722 1397.0
316 725 20.0
316 736 483.0
316 741 77362.0
316 748 3.0
316 751 34.0
316 789 4409.0
316 856 103347.0
316 927 387897.0
316 949 3840.0
316 978 161190.0
316 982 29.0
316 984 35108.0
316 986 68821.0
316 1004 55187.0
316 1005 145.0
316 1007 3307.0
316 1014 2525.0
316 1025 33267.0
316 1060 784.0
316 1075 117060.0
316 1092 106.0
316 1096 25922.0
316 1109 3.0
316 1110 10.0
316 1111 289.0
316 1116 19536.0
316 1122 9136.0
316 1155 1771.0
316 1157 226950.0
316 1158 29100.0
316 1159 275.0
316 1160 650.0
316 1161 1920.0
316 1162 24204.0
316 1164 507.0
316 1166 11478.0
316 1167 631.0
316 1172 5.0
316 1239 4764.0
316 1254 2.0
316 1262 38036.0
316 1307 127057.0
316 1308 50.0
316 1309 11824.0
316 1316 792.0
316 1318 260.0
316 1331 257.0
316 1344 305.0
316 1346 63.0
316 1348 313.0
316 1350 60.0
316 1355 377.0
316 1390 7.0
316 1426 68218.0
316 1427 19103.0
316 1443 217.0
316 1444 427.0
316 1445 84097.0
316 1446 410.0
316 1447 55.0
316 1448 16891.0
316 1449 52273.0
316 1450 18178.0
316 1451 41065.0
316 1452 5819.0
316 1453 685.0
316 1454 125.0
316 1494 2.0
317 1476 638.0
318 806 189.0
318 853 79.0
318 918 97.0
318 1357 74.0
318 1414 44.0
318 1476 262.0
320 337 1475.0
320 655 660.0
320 735 135.0
320 806 182.0
320 1417 55.0
322 571 17.0
322 624 2.0
324 325 119.0
324 326 105.0
324 327 7.0
324 328 1.0
324 329 80.0
324 330 137.0
324 331 24.0
324 332 33.0
324 333 55.0
324 334 11.0
324 335 17.0
324 336 57.0
325 326 505.0
325 327 18.0
325 329 34.0
325 335 7.0
325 387 96.0
325 389 157.0
325 390 205.0
325 392 57.0
325 453 5.0
325 454 3.0
325 455 1.0
325 456 2.0
326 327 21.0
326 328 4.0
326 335 11.0
326 388 4.0
326 389 9.0
326 391 4.0
326 454 3.0
326 494 2.0
326 498 2.0
326 507 1.0
326 515 46.0
326 534 1.0
326 565 2.0
326 568 5.0
326 1068 4.0
327 453 1.0
327 456 1.0
327 565 4.0
328 329 996.0
328 330 11.0
328 331 1711.0
328 332 50.0
328 333 2885.0
328 334 327.0
328 335 60.0
328 336 99.0
328 391 10.0
328 396 91.0
328 398 41.0
328 409 7.0
328 487 24.0
328 500 28.0
328 507 5.0
328 513 165.0
328 515 16.0
328 524 3.0
328 525 18.0
328 534 28.0
328 549 24.0
328 550 14.0
328 702 34.0
328 703 11.0
328 825 11.0
328 826 10.0
328 1027 4.0
328 1104 38.0
328 1105 528.0
328 1141 1.0
328 1145 32.0
328 1189 6.0
329 330 280.0
329 331 56.0
329 332 9.0
329 333 102.0
329 334 3.0
329 335 3.0
329 336 82.0
329 453 5.0
329 507 23.0
329 515 71.0
329 534 2.0
329 759 1.0
329 1027 13.0
329 1104 33.0
329 1105 42.0
330 333 2.0
330 336 74.0
330 453 6.0
330 565 1.0
330 1138 3.0
331 333 965.0
331 334 60.0
331 336 4.0
331 495 1.0
331 500 37.0
331 507 9.0
331 524 6.0
331 525 5.0
331 534 126.0
331 702 8.0
331 1104 2.0
331 1105 56.0
332 333 4.0
332 335 9.0
332 453 1.0
332 507 16.0
332 510 12.0
332 568 34.0
332 1104 14.0
332 1105 2.0
332 1138 8.0
332 1145 25.0
333 334 66.0
333 336 7.0
333 396 11.0
333 453 2.0
333 487 2.0
333 500 3.0
333 507 9.0
333 513 2.0
333 523 1.0
333 525 1.0
333 534 36.0
333 549 31.0
333 826 4.0
333 1104 11.0
333 1105 86.0
334 336 71.0
334 507 25.0
334 534 5.0
334 1104 1.0
334 1105 28.0
334 1141 1.0
334 1145 16.0
335 336 16.0
335 453 9.0
335 455 150.0
335 499 3.0
335 507 45.0
335 515 113.0
335 568 79.0
335 569 9.0
335 1138 1.0
336 453 7.0
336 510 20.0
336 513 15.0
336 702 16.0
336 1104 7.0
336 1105 3.0
336 1137 1.0
336 1138 14.0
336 1145 16.0
337 338 436.0
337 339 1019.0
337 340 1035.0
337 341 766.0
337 342 214.0
337 343 123.0
337 344 264.0
337 345 2634.0
337 346 632.0
337 347 607.0
337 348 1904.0
337 349 2905.0
337 350 139.0
337 351 881.0
337 352 410.0
337 353 2.0
337 354 1257.0
337 355 6.0
337 356 1802.0
337 378 44.0
337 470 2.0
337 596 6.0
337 660 20.0
337 1315 1.0
338 340 16.0
338 344 29402.0
338 345 6246.0
338 351 2564.0
338 352 948.0
338 353 17079.0
338 355 33288.0
338 375 3277.0
338 417 385.0
338 475 54436.0
338 514 53.0
338 590 4194.0
338 618 53783.0
338 658 42355.0
338 690 34576.0
338 725 36606.0
338 726 131.0
338 727 6870.0
338 728 276.0
338 729 29332.0
338 730 28245.0
338 731 41096.0
338 732 28061.0
338 733 38415.0
338 734 215.0
338 735 8.0
338 1306 1.0
340 345 375.0
340 348 861.0
340 349 140.0
340 351 191.0
340 352 532.0
340 375 205.0
340 379 42.0
340 615 28.0
340 664 5.0
340 683 116.0
341 539 142.0
341 767 9.0
341 769 6.0
341 810 34.0
341 815 2.0
341 1016 348.0
341 1017 56.0
341 1032 27.0
341 1034 12.0
341 1036 2.0
343 603 109.0
343 806 98.0
343 853 98.0
344 353 72.0
344 375 6.0
344 471 18.0
344 472 5.0
344 475 2.0
344 571 68.0
344 618 3.0
344 659 113.0
344 690 3.0
344 704 106.0
344 720 1.0
344 731 220.0
344 786 211.0
344 841 64.0
344 846 247.0
348 349 686.0
348 352 109.0
348 356 140.0
348 376 11.0
348 882 4.0
348 901 68.0
348 1051 25.0
348 1312 9.0
349 353 5.0
349 371 16.0
349 372 5.0
349 374 51.0
349 375 13.0
349 378 62.0
349 462 65.0
349 464 12.0
349 466 8.0
349 468 25.0
349 470 96.0
349 472 4.0
349 571 78.0
349 601 4.0
349 608 8.0
349 630 23.0
349 656 43.0
349 664 8.0
349 673 8.0
349 691 42.0
349 799 8.0
349 936 18.0
350 806 103.0
350 992 246.0
350 1159 126.0
350 1241 1257.0
350 1496 520.0
353 355 3.0
353 461 42.0
353 462 222.0
353 463 13.0
353 471 4.0
353 545 292.0
353 571 6.0
353 596 33.0
353 608 4.0
353 618 44.0
353 676 2.0
353 686 12.0
353 705 157.0
353 714 111.0
353 799 5.0
353 839 14.0
353 842 13.0
353 1290 8.0
354 876 3.0
354 1347 356.0
355 371 4.0
355 372 9.0
355 374 3.0
355 375 52.0
355 378 8.0
355 463 7.0
355 464 4.0
355 465 1.0
355 468 53.0
355 472 21.0
355 475 218.0
355 477 82.0
355 584 76.0
355 608 20.0
355 656 5.0
355 694 26.0
355 732 2.0
355 1024 6.0
355 1414 58.0
358 359 3.0
358 464 1.0
358 753 1.0
359 464 1.0
359 474 4.0
359 753 1.0
360 361 180.0
360 362 1737.0
360 791 30.0
361 461 139.0
361 485 153.0
361 708 83.0
361 839 83.0
361 1019 170.0
362 461 703.0
362 485 729.0
362 839 552.0
362 997 629.0
362 1019 1117.0
362 1159 815.0
362 1203 47.0
364 365 3036.0
364 366 5.0
364 367 23.0
364 368 8.0
365 366 2717.0
365 367 40195.0
365 368 1234.0
365 503 32609.0
365 519 18262.0
365 537 6091.0
365 538 7552.0
365 541 80.0
365 543 345.0
365 1015 13.0
365 1101 598.0
365 1102 17240.0
365 1103 1320.0
365 1128 73.0
365 1132 15620.0
365 1173 41.0
365 1207 19966.0
365 1208 50.0
365 1209 12502.0
365 1236 40.0
365 1361 1.0
366 957 2.0
366 1207 26.0
367 368 2.0
367 493 2.0
367 503 7411.0
367 513 5.0
367 1102 99.0
367 1103 2.0
367 1132 5.0
367 1207 108.0
367 1208 4.0
367 1248 30.0
367 1361 282.0
368 1103 4.0
370 378 7.0
370 545 209.0
370 657 1.0
371 375 59.0
371 377 124.0
371 378 402.0
371 379 77.0
371 380 287.0
371 383 370.0
371 466 80.0
371 468 2.0
371 608 4.0
371 797 318.0
372 375 160.0
372 378 286.0
372 457 114.0
372 464 4.0
372 470 63.0
372 608 3.0
372 630 258.0
373 378 4.0
373 417 1745664.0
373 512 5.0
373 892 107234.0
373 960 1049947.0
373 965 8717.0
373 1006 277351.0
373 1226 3709.0
374 375 3.0
374 582 1456.0
374 608 23.0
374 630 22.0
374 882 12.0
374 996 2.0
374 1099 126.0
375 378 77.0
375 380 243.0
375 383 284.0
375 463 35.0
375 465 9.0
375 468 2.0
375 471 14.0
375 608 1.0
375 618 11.0
375 649 15.0
375 656 19.0
375 690 7.0
375 694 4.0
375 711 40.0
375 790 1.0
375 846 77.0
375 961 12.0
377 378 61.0
377 379 68.0
377 380 86.0
377 381 6.0
377 382 89.0
377 383 62.0
378 379 396.0
378 380 341.0
378 383 362.0
378 584 1.0
378 593 2.0
378 596 52.0
378 608 24.0
378 609 10.0
378 624 161.0
378 637 2.0
378 656 2.0
378 705 308.0
378 882 1.0
379 380 78.0
379 383 272.0
380 647 19.0
380 924 70.0
380 932 137.0
381 382 4.0
382 654 26.0
383 617 68.0
383 691 222.0
383 965 72.0
384 385 23.0
384 386 30.0
385 767 36.0
385 768 339.0
385 769 24.0
386 944 1.0
386 1036 55.0
386 1040 5.0
387 388 488.0
387 389 17.0
387 390 57.0
387 391 131.0
387 392 134.0
388 389 79.0
388 390 65.0
388 391 1.0
388 392 61.0
389 390 156.0
389 391 47.0
389 392 32.0
389 513 17.0
389 565 13.0
390 392 43.0
390 454 11.0
391 392 212.0
391 413 38.0
391 506 11.0
391 513 72.0
391 529 25.0
391 536 38.0
391 825 3.0
391 1068 458.0
392 1068 1.0
393 394 8.0
394 511 3.0
395 396 3028.0
395 397 3.0
395 398 10.0
395 399 11.0
395 400 196.0
395 401 42.0
395 402 6.0
395 403 11.0
395 404 86.0
395 405 10.0
395 406 6.0
395 407 5.0
395 408 13.0
395 409 36.0
395 410 19.0
395 411 25.0
395 412 156.0
395 413 18.0
395 414 13.0
395 415 2.0
396 397 4661.0
396 398 9084.0
396 399 1815.0
396 400 4566.0
396 401 3191.0
396 402 8806.0
396 403 6823.0
396 404 5373.0
396 405 4737.0
396 406 5105.0
396 407 6432.0
396 408 2698.0
396 409 4858.0
396 410 2987.0
396 411 471.0
396 412 4497.0
396 413 9157.0
396 414 3224.0
396 415 5720.0
396 421 51.0
396 425 18.0
396 428 9.0
396 429 3.0
396 430 6960.0
396 432 1.0
396 434 38.0
396 487 35.0
396 489 1.0
396 491 276.0
396 500 40.0
396 502 2010.0
396 505 9479.0
396 507 53.0
396 508 2827.0
396 510 1.0
396 513 304.0
396 520 1742.0
396 522 11.0
396 524 18.0
396 526 12.0
396 529 2.0
396 532 2.0
396 534 18.0
396 547 62.0
396 548 28.0
396 549 77.0
396 550 8290.0
396 551 4.0
396 552 4.0
396 553 56.0
396 688 3749.0
396 689 3646.0
396 699 1387.0
396 700 5633.0
396 701 5526.0
396 702 6.0
396 703 15.0
396 754 5017.0
396 755 289.0
396 756 5117.0
396 757 2867.0
396 758 1.0
396 759 3130.0
396 760 19.0
396 761 1.0
396 762 21.0
396 1104 11.0
396 1169 2.0
397 399 177.0
397 402 48.0
397 403 41.0
397 404 1.0
397 406 1.0
397 407 20.0
397 408 14.0
397 410 1.0
397 414 55.0
397 415 189.0
397 430 12.0
397 505 1365.0
397 520 72.0
397 688 24.0
397 756 21.0
397 757 10.0
397 759 17.0
398 403 1.0
398 404 1.0
398 405 104.0
398 407 4.0
398 409 42.0
398 410 52.0
398 411 1308.0
398 412 13.0
398 413 97.0
398 414 1.0
398 421 5.0
398 500 6.0
398 502 2568.0
398 505 2.0
398 507 2.0
398 508 3.0
398 513 94.0
398 534 53.0
398 550 232.0
398 688 2.0
398 689 7.0
398 699 2943.0
398 700 498.0
398 701 371.0
398 702 135.0
398 703 58.0
398 756 2.0
399 400 6.0
399 402 26.0
399 403 38.0
399 404 22.0
399 407 21.0
399 408 28.0
399 413 2.0
399 414 2.0
399 415 50.0
399 430 39.0
399 434 27.0
399 505 683.0
399 508 5.0
399 520 236.0
399 550 4.0
399 688 12.0
399 689 5.0
399 701 2.0
399 754 2.0
399 756 28.0
399 757 5.0
399 759 4.0
400 401 15.0
400 402 1.0
400 403 63.0
400 404 168.0
400 405 95.0
400 406 16.0
400 407 24.0
400 408 142.0
400 410 32.0
400 412 274.0
400 413 10.0
400 414 4.0
400 415 22.0
400 430 10.0
400 432 6.0
400 505 40.0
400 549 1.0
400 688 32.0
400 699 44.0
400 700 1.0
400 754 1.0
400 756 12.0
401 403 8.0
401 404 5.0
401 405 47.0
401 410 542.0
401 412 21.0
401 421 3.0
401 434 33.0
401 487 8.0
401 500 3.0
401 507 22.0
401 520 4.0
401 524 3.0
401 526 6.0
401 534 8.0
401 547 15.0
401 548 1.0
401 549 18.0
401 550 19.0
401 553 6.0
401 688 8.0
401 700 1.0
402 403 218.0
402 406 17.0
402 407 124.0
402 408 52.0
402 409 36.0
402 411 2.0
402 413 10.0
402 414 31.0
402 415 204.0
402 430 400.0
402 502 18.0
402 505 67.0
402 520 3.0
402 550 1.0
402 688 5.0
402 689 55.0
402 699 4.0
402 700 18.0
402 754 533.0
402 756 1009.0
402 757 38.0
402 759 43.0
403 404 266.0
403 405 5.0
403 406 27.0
403 407 90.0
403 408 188.0
403 410 2.0
403 412 1.0
403 413 1.0
403 414 56.0
403 415 35.0
403 430 47.0
403 487 1.0
403 500 1.0
403 502 1.0
403 505 46.0
403 508 1.0
403 524 2.0
403 550 2.0
403 688 82.0
403 689 19.0
403 700 3.0
403 701 2.0
403 754 29.0
403 756 142.0
403 757 16.0
403 759 39.0
404 405 17.0
404 406 13.0
404 407 25.0
404 408 230.0
404 409 8.0
404 410 6.0
404 412 50.0
404 414 16.0
404 415 40.0
404 421 3.0
404 505 26.0
404 526 3.0
404 547 7.0
404 688 81.0
404 701 19.0
405 407 12.0
405 408 4.0
405 409 154.0
405 410 481.0
405 411 18.0
405 413 2.0
405 415 12.0
405 421 16.0
405 487 2.0
405 502 56.0
405 534 1.0
405 547 3.0
405 550 75.0
405 699 28.0
405 700 325.0
405 701 60.0
405 702 1.0
406 407 21.0
406 408 9.0
406 409 1.0
406 412 7.0
406 414 27.0
406 415 111.0
406 430 35.0
406 505 1.0
406 688 62.0
406 689 66.0
406 701 4.0
406 754 37.0
406 759 9.0
407 408 22.0
407 409 18.0
407 410 1.0
407 413 49.0
407 414 4.0
407 421 6.0
407 430 44.0
407 505 15.0
407 508 215.0
407 520 13.0
407 550 3.0
407 688 25.0
407 689 692.0
407 700 1.0
407 701 7.0
407 754 735.0
407 756 53.0
407 757 499.0
407 759 391.0
408 412 3.0
408 414 43.0
408 415 19.0
408 421 4.0
408 430 25.0
408 505 68.0
408 508 4.0
408 520 14.0
408 688 55.0
408 689 1.0
408 754 14.0
408 756 22.0
408 757 10.0
408 759 2.0
409 410 235.0
409 411 25.0
409 413 77.0
409 414 2.0
409 487 1.0
409 502 87.0
409 526 1.0
409 549 2.0
409 550 161.0
409 699 14.0
409 700 305.0
409 701 123.0
409 702 15.0
410 411 20.0
410 412 12.0
410 413 48.0
410 502 92.0
410 524 4.0
410 547 2.0
410 549 10.0
410 550 72.0
410 699 32.0
410 700 317.0
410 701 13.0
411 412 2.0
411 413 9.0
411 502 85.0
411 534 10.0
411 550 24.0
411 699 187.0
411 700 189.0
411 701 88.0
411 702 19.0
412 421 4.0
412 430 5.0
412 508 2.0
412 548 15.0
412 550 4.0
412 688 2.0
412 699 2.0
412 700 2.0
413 432 1.0
413 502 49.0
413 505 34.0
413 507 55.0
413 513 38.0
413 520 39.0
413 525 12.0
413 529 6.0
413 534 48.0
413 550 842.0
413 689 54.0
413 699 5.0
413 700 86.0
413 701 306.0
413 702 8.0
413 703 36.0
413 754 6.0
413 756 1.0
413 757 32.0
413 759 17.0
413 826 18.0
413 1190 18.0
414 415 29.0
414 430 16.0
414 505 46.0
414 520 27.0
414 688 18.0
414 701 1.0
414 754 2.0
414 756 33.0
415 430 237.0
415 505 276.0
415 520 4.0
415 688 12.0
415 689 4.0
415 754 95.0
415 756 301.0
416 417 46332.0
417 497 6926.0
417 501 477541.0
417 509 235453.0
417 512 1980551.0
417 516 1389.0
417 533 48590.0
417 564 3012.0
417 593 10.0
417 626 728.0
417 627 216168.0
417 632 3976.0
417 646 158884.0
417 678 236363.0
417 735 180.0
417 783 4889.0
417 846 234.0
417 861 2022.0
417 891 5.0
417 892 1254329.0
417 894 1491574.0
417 960 163802.0
417 1005 6032.0
417 1013 961.0
417 1150 43292.0
417 1212 928.0
417 1213 66818.0
417 1214 432.0
417 1216 807.0
417 1217 2278.0
417 1218 8011.0
417 1219 11184.0
417 1222 16373.0
417 1224 6056.0
417 1225 184.0
417 1228 1027.0
417 1229 472.0
417 1230 3830.0
417 1231 390.0
417 1245 448.0
417 1249 1163341.0
417 1250 78247.0
417 1251 347.0
417 1252 702.0
417 1253 1134.0
417 1254 93.0
417 1255 85220.0
417 1256 1084.0
417 1257 271.0
417 1258 143411.0
417 1259 314.0
417 1260 15605.0
419 425 2.0
419 436 5346.0
419 445 157.0
419 448 515.0
419 511 780.0
419 942 615.0
421 500 1.0
421 522 10.0
421 526 33.0
421 547 60.0
421 549 14.0
421 553 23.0
421 700 1.0
422 437 1679.0
424 425 201.0
424 427 4.0
424 431 76.0
424 433 49.0
424 438 8.0
424 444 4.0
424 447 14.0
424 507 2.0
425 426 1.0
425 427 30.0
425 428 11.0
425 429 173.0
425 431 95.0
425 432 41.0
425 433 761.0
425 434 212.0
425 435 2.0
425 436 18.0
425 438 449.0
425 442 5.0
425 444 131.0
425 446 183.0
425 448 36.0
425 452 3.0
425 507 20.0
425 520 2.0
425 535 23.0
425 840 4.0
425 920 2.0
425 1057 2.0
425 1323 24.0
426 427 88.0
426 431 7.0
426 435 62.0
426 436 7.0
426 452 1.0
426 511 2.0
426 535 3.0
426 1077 1.0
427 429 13.0
427 431 16.0
427 433 9.0
427 435 198.0
427 438 9.0
427 444 6.0
427 446 6.0
427 535 1.0
428 429 46.0
428 434 8.0
428 447 18.0
429 431 2.0
429 432 12.0
429 434 136.0
429 526 2.0
429 760 1.0
430 505 152.0
430 520 31.0
430 688 31.0
430 689 2.0
430 754 179.0
430 756 392.0
430 757 15.0
430 759 43.0
431 433 39.0
431 435 15.0
431 438 26.0
431 446 1.0
431 520 2.0
431 826 3.0
432 433 18.0
432 505 1.0
432 760 14.0
432 979 3.0
432 1057 1.0
433 438 35.0
433 444 31.0
433 535 6.0
433 1323 1.0
434 550 9.0
435 444 3.0
435 535 3.0
436 445 6.0
436 448 109.0
436 511 8.0
436 942 23.0
437 447 739.0
438 444 23.0
438 446 64.0
444 446 23.0
445 511 5.0
448 511 22.0
448 527 38.0
448 942 6.0
453 568 3.0
453 1105 1.0
453 1133 3.0
454 498 5.0
454 1518 4.0
455 515 15.0
455 565 9.0
455 567 4.0
455 568 185.0
455 569 59.0
455 946 16.0
455 1133 8.0
455 1137 1.0
455 1138 8.0
456 568 3.0
458 459 7.0
459 731 8.0
459 896 10.0
459 962 2.0
459 1440 4.0
459 1559 5.0
459 1568 3.0
461 584 3.0
461 617 13.0
461 618 7.0
461 720 5.0
461 1159 34.0
462 465 54.0
462 471 4.0
462 472 16.0
462 545 4.0
462 571 48.0
462 608 24.0
462 676 32.0
462 719 34.0
462 720 12.0
462 806 43.0
462 841 6.0
462 863 6.0
462 1291 1.0
463 464 1.0
463 544 34.0
463 545 381.0
463 714 111.0
463 962 5.0
464 468 8.0
464 470 48.0
464 472 10.0
464 480 29.0
464 571 7.0
464 596 7.0
464 603 41.0
464 609 41.0
464 691 18.0
464 715 79.0
464 841 28.0
464 1286 1.0
465 471 2.0
465 584 2.0
465 608 8.0
465 618 10.0
465 658 2.0
465 676 31.0
465 686 26.0
465 690 7.0
465 691 7.0
465 1418 8995.0
466 468 17.0
466 584 61.0
466 617 12.0
466 657 86.0
466 791 5989.0
468 470 1.0
468 642 5.0
468 1100 78.0
470 610 9.0
470 657 49.0
470 664 3.0
470 882 47.0
471 472 15.0
471 475 1.0
471 584 12.0
471 652 13.0
471 667 5.0
471 676 12.0
471 690 6.0
471 725 7.0
471 748 4.0
471 790 60.0
471 839 6.0
471 842 3.0
471 906 9.0
471 1110 6.0
471 1121 4.0
472 475 4.0
472 571 6.0
472 584 16.0
472 608 5.0
472 618 63.0
472 674 95.0
472 676 19.0
472 686 1.0
472 719 3.0
472 720 19.0
472 725 38.0
472 839 12.0
472 842 262.0
473 545 65.0
474 880 6.0
475 476 215.0
475 477 283.0
475 539 4.0
475 574 1.0
475 584 109.0
475 590 443.0
475 612 3.0
475 618 38.0
475 632 10.0
475 640 2.0
475 652 2.0
475 658 104.0
475 686 7.0
475 704 107.0
475 725 403.0
475 748 12.0
475 819 7.0
475 850 2.0
475 1060 9.0
475 1078 17.0
475 1144 328.0
476 618 294.0
477 618 291.0
477 658 50.0
478 947 7.0
480 691 54.0
480 725 82.0
480 735 90.0
480 819 22.0
480 882 60.0
480 1016 1012.0
480 1159 326.0
482 483 23750.0
485 486 36.0
485 936 115.0
487 500 47.0
487 507 37.0
487 524 50.0
487 526 2.0
487 534 1.0
487 549 98.0
489 507 8.0
490 920 4489.0
490 921 1.0
491 754 4.0
491 755 11.0
493 513 317.0
494 568 2.0
494 963 2.0
495 504 32.0
495 513 3212.0
495 525 306.0
495 534 502.0
495 536 10.0
495 702 25.0
495 703 41.0
495 826 425.0
495 827 8.0
495 1097 25.0
495 1098 89.0
496 571 5.0
496 674 5.0
496 737 1.0
497 960 66213.0
498 1518 3.0
499 1197 120.0
499 1198 23.0
500 507 99.0
500 513 7.0
500 515 4.0
500 524 134.0
500 534 19.0
500 549 144.0
500 552 2.0
500 699 3.0
500 703 1.0
500 758 2.0
501 960 409848.0
501 1006 23874.0
502 513 11.0
502 534 164.0
502 550 143.0
502 699 180.0
502 700 302.0
502 701 162.0
502 702 104.0
502 703 201.0
502 757 1.0
503 519 3467.0
503 537 3577.0
503 712 2.0
503 951 1670.0
503 954 1145.0
503 956 634.0
503 957 10.0
503 958 1.0
503 1102 4.0
503 1238 17.0
503 1297 23.0
503 1298 942.0
503 1300 29.0
503 1366 5.0
503 1388 1411.0
503 1389 41.0
504 513 3322.0
504 525 24.0
504 529 5.0
504 534 77.0
504 536 111.0
504 702 13.0
504 703 4.0
504 826 3.0
504 827 323.0
504 1055 19.0
504 1097 33.0
504 1098 29.0
504 1190 13.0
504 1385 12.0
505 508 6.0
505 520 434.0
505 524 1.0
505 550 30.0
505 688 6.0
505 689 4.0
505 701 3.0
505 754 13.0
505 756 184.0
505 757 6.0
505 759 2.0
505 760 7.0
506 513 10.0
506 1430 18.0
507 510 602.0
507 515 5.0
507 522 9.0
507 523 64.0
507 524 70.0
507 526 5.0
507 532 164.0
507 534 21.0
507 549 120.0
507 550 65.0
507 552 7.0
507 553 16.0
507 554 8.0
507 700 10.0
507 701 7.0
507 758 346.0
507 971 1.0
507 1090 4.0
507 1129 12.0
507 1145 16.0
507 1169 3.0
507 1436 6.0
507 1437 3.0
508 520 3.0
508 689 2.0
508 757 11.0
508 759 2.0
509 960 219367.0
509 1006 44718.0
510 523 28.0
510 548 1.0
510 758 6.0
510 920 3.0
511 942 8.0
512 539 1666.0
512 892 200493.0
512 894 88945.0
512 1213 6.0
512 1249 67150.0
512 1255 24.0
512 1256 168.0
512 1258 30762.0
512 1261 222.0
512 1472 54.0
513 515 5.0
513 525 1511.0
513 529 6282.0
513 534 4019.0
513 536 2046.0
513 550 74.0
513 699 4.0
513 702 2229.0
513 703 2893.0
513 825 50.0
513 826 2521.0
513 827 5099.0
513 920 6.0
513 943 1.0
513 1055 472.0
513 1097 1757.0
513 1098 2261.0
513 1190 5745.0
513 1200 16.0
513 1385 232.0
513 1430 361.0
513 1459 8.0
513 1492 12.0
513 1493 132.0
514 770 5.0
514 890 4.0
514 1080 5.0
515 568 44.0
515 569 16.0
515 971 3.0
515 1145 4.0
516 960 669.0
519 537 743.0
519 951 10.0
519 956 10.0
519 957 13.0
519 1102 6.0
520 550 14.0
520 689 7.0
520 699 1.0
520 700 1.0
520 701 5.0
520 754 1.0
520 756 3.0
520 757 2.0
520 759 2.0
522 526 14.0
522 547 5.0
522 553 3.0
523 526 22.0
523 920 14.0
524 549 108.0
524 758 2.0
525 534 1742.0
525 702 3.0
525 703 5.0
525 826 391.0
525 827 2.0
525 1098 50.0
525 1105 15.0
526 547 40.0
526 549 8.0
526 553 45.0
526 554 14.0
526 701 1.0
527 528 266.0
529 534 254.0
529 536 36.0
529 702 20.0
529 703 19.0
529 826 8.0
529 827 36.0
529 1098 5.0
529 1190 1622.0
532 1090 2.0
533 960 67415.0
534 536 26.0
534 699 11.0
534 700 31.0
534 702 1946.0
534 703 1705.0
534 826 944.0
534 827 188.0
534 1097 57.0
534 1098 220.0
534 1105 2.0
534 1190 121.0
534 1200 2.0
534 1459 2.0
536 825 2.0
536 826 3.0
536 827 156.0
536 1055 50.0
536 1097 145.0
536 1430 2.0
539 575 5.0
539 612 59.0
539 674 91.0
539 735 261.0
543 1180 164.0
544 545 62.0
545 577 8.0
545 583 457.0
545 607 4.0
545 662 296.0
545 674 67.0
545 677 2.0
545 686 170.0
545 717 12.0
545 748 7.0
545 750 1.0
545 751 4.0
545 853 83.0
545 1108 2.0
546 554 2.0
547 549 1.0
547 551 4.0
547 553 37.0
547 554 1.0
549 552 2.0
549 553 1.0
550 689 13.0
550 699 101.0
550 700 334.0
550 701 1208.0
550 702 10.0
550 757 12.0
550 943 1.0
552 553 5.0
556 673 1.0
558 559 2.0
559 587 2.0
559 662 14.0
559 820 6.0
559 821 3.0
559 822 4.0
559 912 4.0
562 563 32.0
563 936 4.0
565 566 6.0
565 567 4.0
565 568 496.0
565 569 373.0
566 567 1.0
567 568 550.0
567 569 2.0
567 1133 2.0
568 569 846.0
568 703 2.0
568 963 2.0
568 1133 130.0
568 1145 15.0
568 1187 13.0
569 1133 10.0
569 1138 2.0
570 571 4.0
571 591 5.0
571 593 213.0
571 604 8.0
571 605 2.0
571 632 9.0
571 651 2.0
571 657 246.0
571 661 2.0
571 670 78.0
571 676 29.0
571 695 6.0
571 719 39.0
571 748 2.0
571 791 26.0
571 792 184.0
571 793 231.0
571 794 10.0
571 795 15.0
571 1041 129.0
571 1085 6.0
571 1110 4.0
571 1121 91.0
571 1168 4.0
571 1204 3.0
571 1339 4.0
571 1530 5.0
571 1539 10.0
571 1541 4.0
572 573 113.0
574 575 1.0
574 1458 5.0
575 632 2.0
575 911 2.0
580 673 4.0
583 662 32.0
583 751 6.0
583 829 2.0
584 610 10.0
584 618 220.0
584 657 36.0
584 676 17.0
584 691 18.0
584 839 2.0
589 806 74.0
589 876 9.0
590 618 32.0
590 727 69.0
590 809 118.0
590 1033 12.0
590 1506 24.0
594 608 14.0
596 615 1.0
596 630 45.0
596 645 9.0
596 707 600.0
596 742 1.0
596 743 1.0
596 918 2.0
596 961 6.0
596 1357 2.0
597 711 232.0
597 996 1.0
603 728 274.0
607 708 7.0
607 832 2.0
607 1269 5.0
608 676 25.0
608 706 40.0
608 790 5.0
608 839 5.0
609 747 2.0
610 676 6.0
612 618 1.0
612 710 13.0
612 731 161.0
618 690 241.0
618 691 2.0
618 720 2.0
618 725 19.0
618 790 4.0
618 792 301.0
618 839 13.0
618 973 1.0
619 925 77.0
620 1179 6.0
626 960 16706.0
627 960 253172.0
627 1006 229953.0
630 924 133.0
630 966 258.0
630 1159 278.0
632 1058 1.0
632 1473 7.0
638 883 305.0
644 658 1.0
645 846 222.0
645 924 103.0
645 1099 121.0
646 960 180402.0
655 896 117.0
655 1417 186.0
657 739 236.0
657 806 261.0
657 928 35.0
657 1357 5.0
658 676 3.0
658 686 6.0
658 690 5.0
658 694 7.0
658 799 3.0
658 839 23.0
658 1026 35.0
659 809 190.0
662 671 5.0
662 691 56.0
662 708 103.0
662 936 45.0
662 1168 5.0
664 962 2.0
664 1347 974.0
669 965 12788.0
670 806 195.0
672 673 65481.0
672 677 3.0
672 751 7.0
672 962 6.0
672 1001 27573.0
672 1362 354.0
672 1516 15.0
673 1000 501.0
673 1001 19393.0
673 1362 8022.0
673 1448 48.0
673 1516 28.0
674 686 44.0
674 1504 4.0
683 939 260.0
684 806 100.0
686 720 1.0
686 735 2608.0
688 689 9.0
688 756 4.0
689 700 15.0
689 701 4.0
689 754 85.0
689 756 4.0
689 757 209.0
689 759 381.0
690 707 12.0
690 712 79.0
690 720 1.0
690 725 135.0
690 730 100.0
690 810 441.0
691 799 2.0
691 838 188.0
691 936 403.0
691 965 232.0
692 786 212.0
694 711 1.0
695 696 41.0
695 697 4.0
696 796 2.0
697 1176 3.0
699 700 293.0
699 701 90.0
699 702 2.0
699 703 10.0
699 759 1.0
700 701 320.0
700 702 17.0
700 703 3.0
702 703 15.0
702 757 1.0
702 826 14.0
702 827 1.0
702 1098 10.0
702 1145 16.0
702 1190 11.0
703 757 2.0
703 826 9.0
703 827 49.0
703 1097 39.0
703 1098 33.0
703 1190 8.0
705 714 28.0
705 763 53.0
705 839 867.0
705 969 30.0
706 985 20.0
707 712 61.0
707 730 36.0
710 745 5.0
711 936 1.0
712 806 307.0
712 906 187.0
712 1244 71.0
712 1469 80.0
714 751 1.0
714 906 1.0
715 806 105.0
717 945 1.0
718 936 3.0
719 1048 36.0
720 725 9.0
725 819 74.0
727 731 245.0
727 846 249.0
727 901 230.0
727 1267 134.0
729 888 7.0
729 1033 30.0
730 732 55.0
731 786 237.0
731 809 231.0
733 1439 564.0
733 1509 18.0
735 771 287.0
735 836 79.0
735 1050 129.0
735 1084 93.0
735 1241 140.0
735 1414 310.0
735 1438 75.0
737 738 161.0
737 1429 149.0
738 1246 197.0
738 1429 179.0
742 743 1.0
744 745 12.0
744 746 34.0
745 746 44.0
745 830 93193.0
745 831 20.0
745 832 52778.0
745 833 4.0
745 834 23.0
745 1192 8.0
745 1398 32.0
746 830 9.0
746 832 5716.0
746 948 109.0
746 1067 210.0
746 1170 4.0
746 1192 180.0
746 1193 2796.0
746 1501 80.0
746 1529 18.0
747 889 3.0
747 1121 15.0
748 1058 1.0
748 1176 6.0
750 875 9.0
751 896 2.0
751 1176 6.0
753 1065 2.0
754 756 149.0
754 757 219.0
754 759 162.0
755 1090 2.0
756 757 4.0
756 759 7.0
757 759 131.0
763 764 5.0
763 765 3.0
763 766 205.0
764 765 289.0
764 766 5.0
765 766 2.0
767 810 12.0
767 813 3.0
767 817 67.0
767 944 176.0
767 1032 144.0
768 1034 3.0
769 810 8.0
769 811 1.0
769 813 3.0
769 817 15.0
769 944 1.0
769 1032 170.0
770 772 4.0
770 975 12.0
770 976 93.0
770 977 8.0
771 1059 240.0
771 1084 88.0
772 1107 449.0
773 776 12.0
773 783 12.0
773 975 1058.0
773 976 8926.0
773 977 21.0
773 1011 2.0
773 1107 853.0
773 1181 12.0
773 1182 3.0
773 1372 5.0
774 776 6.0
774 975 98.0
774 976 1712.0
776 777 1.0
776 975 10.0
776 976 396.0
776 1012 2.0
776 1421 2.0
776 1491 48.0
777 783 10.0
777 975 793.0
777 976 4865.0
777 977 18.0
777 1011 2.0
777 1421 8.0
777 1491 2.0
778 976 30.0
778 1421 29.0
779 976 10.0
780 975 39.0
780 976 100.0
781 1422 8.0
783 962 4.0
783 975 132.0
783 976 890.0
783 1182 4.0
783 1491 4.0
784 975 532.0
784 976 59.0
790 1330 5.0
791 857 429.0
791 1124 161.0
792 806 233.0
792 1322 2.0
793 1414 297.0
802 803 2.0
802 804 21157.0
805 806 241.0
805 1084 69.0
806 853 2239.0
806 926 88.0
806 994 58.0
806 1009 46.0
806 1205 80.0
806 1241 281.0
806 1357 308.0
806 1414 331.0
807 1414 72.0
807 1532 1491.0
809 1044 151.0
810 811 8.0
810 812 10.0
810 814 1.0
810 815 29.0
810 817 4.0
810 1016 1117.0
811 816 2.0
812 815 1.0
812 816 9.0
813 814 3.0
813 816 3.0
813 1046 51.0
814 817 1.0
814 1017 20.0
814 1046 8.0
815 817 20.0
817 863 7.0
817 1046 8.0
819 1016 15.0
823 1058 10.0
823 1078 3.0
823 1079 2.0
825 827 17.0
825 1068 7.0
826 827 29.0
826 1055 15.0
826 1097 9.0
826 1098 98.0
826 1190 15.0
826 1200 4.0
827 1068 18.0
827 1097 215.0
827 1098 9.0
829 859 1.0
830 832 27.0
830 1066 17.0
830 1398 17.0
832 833 5.0
832 994 68.0
832 1066 19.0
832 1067 17.0
832 1192 11.0
832 1193 224.0
832 1441 16.0
835 917 3.0
836 993 47.0
841 922 4.0
841 1010 28.0
846 848 202.0
846 880 230.0
846 1099 113.0
850 901 1.0
853 980 12.0
853 1336 6803.0
854 863 11.0
861 960 605.0
863 1177 4.0
882 996 1.0
890 898 4.0
891 1201 5.0
892 894 4816.0
892 1249 1.0
892 1258 1047.0
894 1249 335.0
896 897 6.0
896 1096 10.0
896 1494 3.0
898 1497 56.0
898 1553 2.0
899 1499 1.0
900 906 2.0
903 1096 12.0
906 1267 153.0
915 1396 7.0
917 1080 43.0
920 921 5930.0
920 1463 4.0
920 1464 216.0
920 1465 271.0
922 923 2.0
925 936 493.0
926 1481 90.0
930 1425 1.0
936 966 275.0
944 1032 9.0
947 948 7.0
948 1038 480.0
948 1044 502.0
948 1170 1.0
951 952 37.0
951 953 5.0
951 954 5.0
951 955 21.0
951 956 2.0
951 957 7616.0
951 958 1.0
951 1083 4.0
952 954 3.0
952 957 189.0
952 1082 15.0
952 1083 6.0
953 955 2.0
953 957 7.0
954 955 4.0
954 957 4085.0
954 1083 8.0
954 1298 6.0
954 1361 12.0
954 1387 4.0
954 1560 3.0
955 957 172.0
955 1297 2.0
955 1298 1.0
956 957 7464.0
957 958 1379.0
957 1062 63.0
957 1082 78.0
957 1083 161.0
957 1238 92.0
957 1297 52.0
957 1298 3395.0
957 1299 37.0
957 1300 248.0
957 1365 8.0
957 1366 184.0
957 1387 298.0
957 1388 878.0
957 1389 7.0
957 1560 189.0
957 1561 195.0
957 1562 44.0
957 1563 723.0
958 1298 1.0
959 960 28.0
960 968 107.0
960 987 34169.0
960 1005 26097.0
960 1006 108134.0
960 1211 108.0
960 1212 16674.0
960 1213 14679.0
960 1214 541.0
960 1215 495.0
960 1216 13969.0
960 1217 2481.0
960 1218 1629.0
960 1219 7384.0
960 1220 223.0
960 1221 258.0
960 1222 12595.0
960 1223 15942.0
960 1224 19525.0
960 1225 3845.0
960 1226 17025.0
960 1227 57798.0
960 1228 24102.0
960 1229 474.0
960 1230 20479.0
960 1231 1314.0
960 1232 11992.0
961 1048 6.0
962 1158 1.0
962 1186 2.0
965 966 123.0
967 1174 305.0
970 971 19.0
971 1018 94.0
971 1131 2.0
975 976 76.0
975 977 2205.0
975 1011 13.0
975 1012 162.0
975 1182 250.0
975 1368 22.0
975 1369 10.0
975 1370 3.0
975 1371 335.0
975 1372 675.0
975 1373 544.0
975 1374 61.0
975 1375 46.0
975 1376 1085.0
975 1377 68.0
975 1378 633.0
975 1379 666.0
975 1380 486.0
975 1381 320.0
975 1382 32.0
975 1383 2.0
975 1384 4.0
976 977 16077.0
976 1011 65.0
976 1012 1446.0
976 1107 4.0
976 1181 38.0
976 1182 3505.0
976 1370 50.0
976 1372 20.0
976 1373 7.0
976 1375 5.0
976 1376 70.0
976 1377 4.0
976 1378 222.0
976 1379 347.0
976 1419 6.0
976 1420 12.0
976 1421 34.0
976 1422 15.0
976 1423 8.0
976 1424 23.0
977 1012 2.0
977 1107 6.0
977 1182 19.0
985 1537 2.0
988 989 13.0
988 1047 7.0
991 1080 3.0
992 1241 267.0
994 1059 67.0
994 1479 115.0
999 1000 1873.0
999 1001 1627.0
1000 1362 19789.0
1001 1362 28481.0
1005 1006 708.0
1006 1212 1173.0
1006 1213 879.0
1006 1216 272.0
1006 1225 33302.0
1006 1226 23119.0
1006 1538 38740.0
1010 1081 47.0
1011 1012 4.0
1017 1046 2.0
1020 1021 59.0
1021 1219 59.0
1028 1029 31.0
1028 1030 31.0
1028 1039 6.0
1029 1030 3.0
1029 1037 8.0
1030 1039 15.0
1036 1040 20.0
1038 1396 3.0
1042 1474 2.0
1042 1564 26.0
1048 1290 1.0
1050 1153 32.0
1055 1098 7.0
1067 1529 4.0
1072 1073 326.0
1078 1079 161.0
1081 1334 103.0
1083 1299 2.0
1086 1087 81.0
1089 1571 8.0
1097 1098 45.0
1097 1190 38.0
1097 1385 24.0
1098 1190 3.0
1100 1329 299.0
1100 1570 65.0
1101 1102 8.0
1101 1103 7.0
1102 1128 1.0
1102 1132 246.0
1102 1207 238.0
1102 1208 4.0
1102 1209 248.0
1103 1207 2.0
1104 1105 2.0
1104 1137 3.0
1107 1373 4.0
1108 1109 20.0
1128 1207 2.0
1132 1207 19.0
1132 1209 3491.0
1139 1142 94.0
1146 1147 167.0
1147 1244 263.0
1147 1417 297.0
1149 1150 45448.0
1151 1152 15.0
1171 1172 8.0
1176 1177 8.0
1176 1178 16.0
1181 1511 9.0
1182 1372 4.0
1184 1510 3.0
1185 1491 3.0
1203 1241 86.0
1207 1209 25.0
1207 1248 4.0
1219 1432 59.0
1226 1228 134.0
1241 1480 169.0
1242 1243 151.0
1244 1557 100.0
1249 1258 9.0
1250 1255 30.0
1250 1258 1083.0
1255 1258 2412.0
1256 1258 527.0
1258 1261 1.0
1263 1264 793.0
1267 1363 1207.0
1298 1299 2.0
1298 1300 4.0
1358 1359 2.0
1376 1420 8.0
1379 1421 36.0
1421 1423 47.0
1478 1479 107.0
1536 1537 95518.0
