0 386 454.0
0 395 497.0
0 451 156.0
1 3553 459.0
1 3586 803.0
1 3587 131.0
1 3637 787.0
2 3583 876.0
3 4930 45.0
4 88 921.0
5 13 616.0
5 120 50.0
6 8 972.0
7 8 279.0
8 9 965.0
9 10 8.0
9 61 161.0
9 75 613.0
9 205 224.0
9 208 982.0
10 50 954.0
11 94 371.0
11 125 776.0
12 13 30.0
13 14 468.0
13 15 983.0
13 83 328.0
14 16 237.0
14 17 593.0
14 29 869.0
14 147 726.0
18 19 513.0
18 190 537.0
19 20 265.0
19 130 830.0
20 199 952.0
21 51 37.0
21 176 996.0
22 4445 266.0
23 4446 872.0
24 53 373.0
24 4461 571.0
25 58 156.0
25 136 535.0
26 94 217.0
26 131 234.0
26 139 590.0
26 203 623.0
27 161 533.0
27 166 869.0
28 98 117.0
29 130 426.0
29 160 234.0
30 123 104.0
30 140 744.0
31 62 292.0
31 104 768.0
32 155 40.0
32 174 936.0
33 34 820.0
34 35 413.0
34 97 151.0
35 36 194.0
35 69 421.0
35 141 773.0
35 142 505.0
36 37 866.0
36 38 492.0
36 39 24.0
36 47 636.0
36 157 298.0
40 97 673.0
40 202 953.0
41 42 565.0
41 58 556.0
41 167 21.0
41 218 851.0
41 232 563.0
42 98 927.0
42 181 704.0
43 94 135.0
43 163 269.0
44 47 200.0
45 47 291.0
46 47 599.0
46 184 196.0
47 171 924.0
48 75 162.0
48 101 456.0
48 106 208.0
49 4448 665.0
50 139 139.0
50 205 221.0
51 120 46.0
51 194 816.0
52 111 73.0
52 119 429.0
52 172 806.0
53 231 401.0
54 109 899.0
54 147 947.0
55 88 45.0
55 107 700.0
56 119 788.0
56 149 592.0
56 152 297.0
56 175 213.0
56 198 806.0
57 98 218.0
57 2562 832.0
58 59 739.0
58 167 857.0
59 60 540.0
60 154 693.0
61 188 538.0
61 209 161.0
62 154 833.0
63 68 22.0
64 68 723.0
65 68 799.0
66 69 312.0
67 70 712.0
68 69 326.0
68 979 539.0
68 4893 379.0
69 70 13.0
69 1030 297.0
69 1052 494.0
69 2344 552.0
70 108 230.0
71 86 732.0
71 224 101.0
72 73 629.0
72 112 32.0
72 215 774.0
73 91 353.0
73 231 157.0
74 98 490.0
76 77 790.0
76 86 396.0
76 110 238.0
76 185 793.0
77 170 784.0
77 191 632.0
78 79 503.0
78 109 400.0
79 80 596.0
80 184 199.0
80 199 326.0
80 989 579.0
81 82 535.0
81 2562 640.0
82 98 138.0
83 218 250.0
83 221 42.0
84 4446 277.0
84 4461 631.0
85 151 555.0
85 4448 752.0
86 110 903.0
87 88 279.0
87 89 315.0
88 90 282.0
88 172 161.0
88 178 805.0
88 195 703.0
88 198 343.0
91 496 991.0
91 4446 839.0
92 94 169.0
92 123 713.0
92 174 523.0
93 94 329.0
94 95 410.0
94 131 152.0
95 129 392.0
95 171 479.0
96 144 684.0
96 148 268.0
98 100 190.0
98 125 718.0
98 135 783.0
98 205 783.0
99 100 961.0
99 4459 941.0
101 123 67.0
101 210 650.0
102 140 300.0
103 145 913.0
103 153 176.0
103 190 532.0
104 174 211.0
104 222 582.0
105 184 280.0
105 1030 311.0
105 1055 773.0
106 186 848.0
107 178 769.0
108 116 404.0
108 207 67.0
108 4120 148.0
111 148 517.0
111 192 708.0
111 204 654.0
112 113 822.0
112 215 833.0
113 129 661.0
113 3770 163.0
114 115 736.0
115 205 272.0
116 117 787.0
116 118 7.0
116 207 204.0
116 522 307.0
119 148 52.0
119 175 540.0
121 122 959.0
122 123 139.0
123 140 477.0
124 153 145.0
124 173 538.0
124 194 313.0
124 232 756.0
125 208 484.0
126 129 120.0
127 129 870.0
128 129 478.0
129 207 851.0
129 235 968.0
129 4112 595.0
131 139 662.0
132 4461 674.0
133 2562 654.0
134 222 598.0
134 236 519.0
135 236 349.0
136 146 115.0
137 223 77.0
137 224 339.0
137 229 176.0
138 139 806.0
138 140 810.0
138 143 378.0
138 150 882.0
138 205 987.0
138 4882 207.0
139 140 158.0
140 141 73.0
140 186 705.0
141 142 82.0
143 151 140.0
143 202 66.0
143 234 458.0
144 192 520.0
145 194 804.0
145 196 348.0
146 153 524.0
149 198 298.0
150 181 411.0
150 191 720.0
152 198 893.0
153 154 449.0
153 156 423.0
153 157 791.0
153 158 501.0
154 155 126.0
154 157 951.0
154 159 624.0
154 173 393.0
156 189 518.0
157 193 207.0
161 196 751.0
162 163 148.0
162 165 964.0
163 164 294.0
163 191 203.0
166 176 248.0
168 170 97.0
168 229 512.0
169 170 568.0
169 187 721.0
169 227 771.0
170 171 817.0
174 189 185.0
177 178 203.0
177 179 968.0
177 180 500.0
179 199 741.0
179 206 308.0
182 184 699.0
183 184 529.0
184 200 230.0
184 997 761.0
185 187 553.0
187 228 116.0
187 230 821.0
188 205 123.0
192 193 628.0
195 204 39.0
197 201 984.0
198 200 677.0
198 201 380.0
199 201 327.0
205 207 821.0
206 207 594.0
210 211 580.0
210 212 157.0
210 213 854.0
214 215 610.0
214 499 329.0
216 225 168.0
216 228 650.0
217 218 864.0
219 224 253.0
220 221 548.0
221 225 955.0
223 227 192.0
226 229 897.0
226 230 165.0
233 234 236.0
236 237 436.0
238 252 229.0
238 318 129.0
238 4423 226.0
239 240 573.0
239 333 905.0
239 354 187.0
240 316 771.0
240 327 76.0
240 337 219.0
241 242 755.0
241 351 622.0
242 284 574.0
242 363 202.0
242 364 542.0
242 365 163.0
242 366 245.0
243 342 540.0
243 355 990.0
244 335 779.0
244 361 171.0
245 247 491.0
246 247 816.0
246 257 27.0
246 298 411.0
246 371 597.0
246 378 197.0
247 330 135.0
248 250 437.0
249 250 766.0
249 280 557.0
249 305 253.0
249 312 473.0
249 313 953.0
249 360 398.0
251 252 898.0
251 289 432.0
251 319 479.0
251 367 506.0
251 370 250.0
252 253 299.0
252 289 45.0
252 322 600.0
252 376 670.0
253 337 899.0
253 4362 717.0
254 255 558.0
254 284 892.0
254 329 651.0
255 285 301.0
255 299 883.0
256 259 847.0
257 259 75.0
257 310 28.0
257 360 965.0
257 368 573.0
257 381 537.0
258 299 44.0
258 306 739.0
258 311 427.0
260 261 854.0
260 287 834.0
260 350 288.0
260 369 389.0
260 382 77.0
261 262 195.0
261 267 378.0
261 334 836.0
262 344 886.0
262 345 247.0
263 321 476.0
263 4415 355.0
264 281 321.0
264 334 693.0
265 308 113.0
266 267 167.0
266 350 798.0
268 269 404.0
269 346 433.0
269 362 630.0
270 274 983.0
271 274 245.0
272 274 586.0
272 372 166.0
273 274 821.0
274 275 720.0
274 325 176.0
274 362 81.0
276 286 59.0
276 351 545.0
277 314 9.0
277 342 765.0
278 298 862.0
278 335 218.0
278 378 880.0
279 280 573.0
279 282 849.0
279 295 119.0
279 302 483.0
279 313 208.0
280 305 453.0
280 312 888.0
280 313 819.0
280 360 257.0
281 334 687.0
282 284 689.0
282 295 880.0
282 302 41.0
282 313 395.0
283 284 329.0
284 285 557.0
284 296 312.0
284 305 325.0
284 366 195.0
285 306 815.0
285 316 391.0
285 1178 131.0
287 351 139.0
288 290 849.0
290 336 919.0
290 4435 170.0
291 292 369.0
292 325 368.0
292 362 517.0
293 298 385.0
294 300 246.0
295 296 491.0
295 302 493.0
295 313 494.0
296 365 573.0
297 300 782.0
297 308 114.0
297 340 578.0
298 299 159.0
298 335 506.0
298 343 615.0
299 316 794.0
299 362 951.0
301 302 877.0
302 313 354.0
303 307 1000.0
303 316 565.0
304 305 602.0
305 306 795.0
305 313 949.0
306 316 459.0
308 323 877.0
308 340 826.0
309 353 166.0
309 358 473.0
309 4431 394.0
310 311 416.0
310 368 715.0
311 344 325.0
311 345 743.0
312 313 253.0
314 315 545.0
314 326 739.0
315 316 167.0
315 356 27.0
316 337 684.0
317 318 791.0
317 1119 372.0
318 336 184.0
319 320 868.0
319 322 967.0
319 370 221.0
320 321 998.0
321 4341 450.0
324 325 598.0
326 4428 256.0
327 328 940.0
327 379 331.0
329 330 26.0
330 357 79.0
331 340 115.0
331 380 940.0
332 333 995.0
332 353 346.0
332 355 114.0
334 352 25.0
335 373 684.0
336 337 735.0
336 338 965.0
338 339 717.0
340 341 758.0
341 346 872.0
342 343 953.0
342 355 226.0
347 352 129.0
348 352 376.0
349 350 681.0
350 369 505.0
351 352 567.0
353 354 93.0
353 355 295.0
353 374 303.0
353 4425 196.0
354 4426 673.0
355 356 370.0
357 377 250.0
359 361 952.0
360 381 463.0
361 362 682.0
367 370 886.0
371 378 690.0
375 378 544.0
383 384 655.0
383 429 210.0
383 445 385.0
383 454 205.0
383 455 205.0
383 462 460.0
384 393 632.0
384 426 516.0
384 447 122.0
385 386 539.0
386 387 456.0
386 445 351.0
386 446 569.0
386 2307 840.0
388 430 841.0
389 437 860.0
389 2282 165.0
390 391 300.0
391 392 202.0
391 394 702.0
391 409 504.0
391 423 177.0
392 402 705.0
392 406 963.0
392 425 639.0
392 436 933.0
393 395 596.0
393 396 472.0
393 447 40.0
393 2223 768.0
394 442 567.0
394 457 90.0
395 419 827.0
395 2213 767.0
395 2393 696.0
396 397 860.0
396 398 611.0
396 399 389.0
396 400 363.0
396 420 822.0
396 2231 318.0
396 2283 641.0
401 402 504.0
402 403 314.0
402 411 339.0
402 435 132.0
402 436 426.0
402 439 205.0
404 405 165.0
405 406 505.0
405 431 860.0
405 457 688.0
405 460 224.0
407 408 243.0
408 437 812.0
408 451 510.0
408 456 140.0
409 431 58.0
410 411 756.0
411 1216 774.0
412 473 78.0
412 1248 879.0
413 414 20.0
413 415 701.0
413 452 260.0
413 459 619.0
413 462 969.0
413 464 638.0
413 468 485.0
414 425 181.0
416 417 336.0
416 430 607.0
416 444 261.0
416 450 56.0
416 469 598.0
418 421 103.0
419 421 967.0
419 456 805.0
420 421 804.0
420 426 316.0
420 2283 850.0
422 439 220.0
422 1424 751.0
422 1784 198.0
423 430 324.0
424 425 933.0
424 443 554.0
424 444 311.0
425 426 263.0
426 427 287.0
426 447 153.0
426 3987 954.0
427 1125 214.0
428 452 563.0
428 459 379.0
429 446 202.0
429 470 568.0
430 441 983.0
430 469 301.0
431 432 524.0
431 433 742.0
431 472 705.0
432 436 860.0
434 435 422.0
435 461 94.0
435 1297 93.0
438 439 274.0
438 472 334.0
438 473 836.0
440 441 399.0
441 442 73.0
442 466 388.0
443 464 271.0
443 468 91.0
448 449 52.0
449 465 195.0
449 467 755.0
450 468 107.0
451 453 812.0
453 463 122.0
454 455 995.0
454 470 622.0
455 459 494.0
456 465 805.0
457 460 80.0
458 461 741.0
463 467 274.0
464 469 193.0
471 472 269.0
474 481 936.0
474 4173 803.0
475 4113 522.0
475 4446 928.0
476 477 67.0
477 480 815.0
477 484 355.0
478 479 652.0
478 492 719.0
478 498 880.0
479 480 665.0
479 481 119.0
480 493 964.0
481 491 972.0
481 4111 2.0
482 485 282.0
482 489 258.0
482 494 377.0
482 495 728.0
483 484 215.0
483 3769 161.0
484 485 693.0
484 493 920.0
484 496 732.0
485 486 77.0
485 489 459.0
485 497 772.0
485 498 859.0
486 494 142.0
487 491 903.0
488 1183 340.0
488 1201 119.0
490 2426 392.0
490 2542 255.0
490 2543 707.0
490 2548 433.0
490 2680 555.0
490 2799 511.0
490 2832 540.0
490 2834 453.0
490 2835 587.0
490 2836 364.0
490 2949 499.0
492 493 365.0
492 497 695.0
493 4446 473.0
495 496 331.0
496 499 598.0
500 501 128.0
501 549 882.0
501 570 930.0
501 573 903.0
502 504 939.0
503 504 326.0
504 523 569.0
504 556 798.0
504 564 528.0
505 548 248.0
505 551 346.0
506 539 906.0
506 546 806.0
506 565 388.0
507 539 354.0
507 546 74.0
507 566 242.0
508 565 783.0
508 566 53.0
509 545 342.0
509 571 304.0
509 572 195.0
510 561 27.0
511 512 826.0
511 513 216.0
511 534 831.0
511 538 710.0
511 550 683.0
511 551 139.0
514 4458 766.0
515 519 190.0
516 520 745.0
517 520 309.0
518 520 928.0
518 3982 852.0
519 520 30.0
520 2312 923.0
521 522 397.0
521 828 857.0
521 832 651.0
521 4448 4.0
521 4458 940.0
522 570 637.0
522 4120 465.0
523 524 39.0
523 525 499.0
523 532 214.0
524 528 79.0
525 530 766.0
526 527 478.0
526 532 145.0
526 4145 37.0
528 529 901.0
528 530 516.0
530 531 307.0
532 533 212.0
532 548 820.0
532 556 780.0
532 564 998.0
532 568 205.0
532 573 563.0
533 570 456.0
534 538 169.0
534 550 839.0
535 536 903.0
535 559 946.0
535 574 372.0
536 537 723.0
536 557 803.0
538 551 435.0
539 540 688.0
539 541 692.0
539 542 505.0
539 543 815.0
539 544 746.0
540 569 247.0
541 569 492.0
542 550 480.0
543 545 134.0
543 561 435.0
543 565 755.0
544 545 700.0
544 561 734.0
544 566 711.0
546 553 172.0
546 554 601.0
546 558 19.0
546 559 729.0
547 548 217.0
547 555 877.0
548 549 518.0
548 551 384.0
548 552 240.0
548 568 640.0
550 551 854.0
552 555 46.0
553 555 200.0
554 555 303.0
556 563 815.0
557 558 487.0
557 563 796.0
558 562 736.0
560 561 151.0
562 563 609.0
564 1481 189.0
564 1482 794.0
564 4211 412.0
567 568 276.0
569 570 237.0
569 4458 149.0
570 4164 275.0
575 657 472.0
575 659 235.0
575 660 761.0
575 730 669.0
576 582 792.0
576 625 1000.0
576 640 959.0
577 578 444.0
578 594 960.0
578 610 818.0
579 664 675.0
579 702 649.0
580 720 510.0
580 725 17.0
581 585 659.0
581 626 760.0
582 583 465.0
582 584 759.0
582 612 632.0
582 645 801.0
584 585 521.0
584 652 444.0
584 667 938.0
584 672 174.0
584 680 813.0
585 614 136.0
586 587 144.0
587 618 804.0
587 624 681.0
587 669 852.0
587 679 528.0
587 703 67.0
588 597 384.0
589 590 484.0
589 591 756.0
589 594 69.0
589 692 23.0
592 593 341.0
592 597 516.0
592 630 194.0
594 595 544.0
594 596 706.0
594 628 416.0
594 705 56.0
597 598 660.0
597 599 484.0
597 600 831.0
597 601 704.0
597 602 338.0
597 620 472.0
597 657 202.0
603 604 495.0
604 605 359.0
604 606 626.0
604 657 239.0
604 691 574.0
605 658 543.0
605 666 185.0
607 610 490.0
608 609 159.0
609 610 192.0
609 611 124.0
609 657 818.0
609 662 185.0
610 722 229.0
612 613 579.0
612 640 171.0
612 700 631.0
613 614 22.0
614 619 863.0
614 636 58.0
614 676 704.0
615 616 427.0
616 639 76.0
616 725 362.0
617 618 687.0
618 668 820.0
619 626 246.0
621 622 312.0
622 653 935.0
622 736 794.0
623 624 450.0
624 655 908.0
624 668 464.0
624 708 772.0
627 628 468.0
628 658 41.0
629 630 759.0
630 696 839.0
631 632 113.0
632 634 740.0
632 639 482.0
632 668 669.0
632 689 369.0
632 718 898.0
633 634 503.0
634 725 613.0
635 636 806.0
636 648 827.0
637 671 220.0
637 709 134.0
637 713 602.0
637 728 796.0
638 639 495.0
639 653 474.0
639 681 327.0
639 685 79.0
639 725 844.0
640 641 372.0
642 658 31.0
643 644 597.0
644 648 924.0
644 687 982.0
645 646 928.0
645 704 812.0
647 648 607.0
649 650 274.0
650 725 522.0
651 653 723.0
652 653 351.0
652 680 218.0
652 726 17.0
653 685 413.0
653 725 641.0
654 655 763.0
655 669 705.0
655 689 778.0
656 658 220.0
657 658 894.0
657 696 979.0
658 712 902.0
658 738 534.0
661 662 696.0
662 691 654.0
663 664 107.0
665 666 338.0
666 692 331.0
667 668 343.0
667 680 452.0
667 726 871.0
668 718 744.0
670 704 399.0
671 672 408.0
671 713 133.0
672 673 574.0
672 674 555.0
675 676 956.0
675 702 445.0
677 720 928.0
677 725 220.0
678 679 624.0
679 681 568.0
680 681 313.0
680 682 171.0
680 683 811.0
680 693 671.0
680 726 276.0
681 685 530.0
681 687 770.0
681 702 314.0
681 708 28.0
684 685 101.0
686 687 626.0
688 689 316.0
689 732 7.0
690 691 988.0
692 694 345.0
692 726 991.0
692 738 374.0
692 3769 650.0
694 695 609.0
694 726 617.0
696 697 520.0
698 699 662.0
698 728 393.0
700 702 198.0
701 702 610.0
702 734 131.0
704 713 499.0
706 707 79.0
706 709 44.0
709 710 717.0
711 712 861.0
712 722 264.0
713 714 667.0
715 716 758.0
716 720 239.0
717 718 636.0
719 720 713.0
720 725 356.0
720 727 133.0
721 722 394.0
722 723 528.0
724 725 251.0
725 726 531.0
726 3781 783.0
728 729 827.0
731 732 57.0
733 734 961.0
734 736 789.0
735 736 100.0
737 738 829.0
739 740 234.0
739 749 547.0
739 763 254.0
740 748 527.0
740 750 174.0
740 757 274.0
740 815 545.0
741 744 139.0
742 743 132.0
742 759 351.0
742 762 721.0
742 779 375.0
743 744 336.0
743 745 99.0
743 760 587.0
743 777 539.0
743 804 585.0
744 746 268.0
744 802 718.0
744 815 784.0
744 1230 485.0
747 780 567.0
748 750 920.0
748 751 576.0
748 775 864.0
748 805 983.0
749 752 703.0
749 805 824.0
750 753 69.0
750 757 649.0
750 776 464.0
752 2413 443.0
753 2414 781.0
754 764 686.0
754 783 660.0
754 803 528.0
755 757 380.0
756 757 823.0
756 787 308.0
757 758 856.0
757 791 616.0
758 812 925.0
758 813 856.0
758 823 939.0
758 824 405.0
759 760 240.0
759 762 699.0
759 778 179.0
760 814 582.0
761 762 117.0
762 778 832.0
762 780 254.0
762 789 127.0
763 777 314.0
763 814 767.0
763 815 394.0
764 774 375.0
764 820 959.0
765 766 246.0
766 803 228.0
767 771 264.0
768 772 709.0
769 772 907.0
770 771 949.0
770 785 226.0
770 797 53.0
771 772 25.0
771 773 913.0
771 786 645.0
772 823 708.0
772 824 423.0
774 781 510.0
774 817 98.0
776 786 241.0
776 4928 485.0
777 2417 104.0
778 814 530.0
779 789 468.0
779 795 945.0
780 781 993.0
780 783 781.0
780 784 952.0
780 789 60.0
780 799 715.0
780 803 27.0
782 803 426.0
782 4934 617.0
783 791 544.0
783 800 937.0
785 786 554.0
787 791 603.0
787 803 725.0
788 789 19.0
790 2304 432.0
790 2417 528.0
791 803 395.0
792 793 139.0
793 794 884.0
793 811 834.0
793 1214 765.0
794 804 152.0
795 796 512.0
795 804 589.0
795 808 483.0
798 799 800.0
800 801 342.0
800 1230 742.0
800 1257 677.0
802 2207 428.0
803 807 94.0
803 821 214.0
804 1402 750.0
806 807 171.0
808 809 870.0
809 822 59.0
810 811 443.0
811 822 816.0
811 1124 740.0
812 1227 46.0
813 1228 769.0
815 816 837.0
817 818 389.0
818 819 956.0
819 820 189.0
819 4940 863.0
822 1124 125.0
825 826 201.0
825 844 533.0
826 829 382.0
826 4462 246.0
827 828 192.0
827 845 25.0
827 858 779.0
827 877 951.0
828 837 696.0
829 834 187.0
829 836 26.0
829 4458 640.0
830 4444 643.0
831 832 520.0
831 855 315.0
831 867 933.0
831 868 420.0
831 869 677.0
831 895 849.0
831 903 949.0
831 904 400.0
831 905 123.0
831 906 542.0
831 910 451.0
831 919 36.0
831 920 57.0
831 932 83.0
833 834 180.0
833 854 932.0
833 862 195.0
833 866 679.0
833 874 741.0
833 891 93.0
835 836 766.0
835 892 42.0
835 896 473.0
837 853 145.0
837 871 542.0
837 872 265.0
837 4458 968.0
838 839 723.0
838 853 486.0
839 840 463.0
840 2351 39.0
841 842 334.0
842 4179 629.0
843 861 136.0
843 862 722.0
843 863 117.0
843 4457 223.0
844 846 452.0
844 865 136.0
845 877 664.0
845 903 165.0
846 847 482.0
846 860 608.0
846 870 268.0
846 880 744.0
846 884 126.0
846 894 294.0
846 900 748.0
846 912 960.0
847 848 25.0
847 911 530.0
848 879 421.0
848 886 318.0
848 887 328.0
848 888 789.0
848 889 345.0
849 855 520.0
849 907 900.0
849 908 476.0
849 909 987.0
850 854 560.0
850 898 753.0
851 854 789.0
852 853 931.0
852 865 420.0
852 873 202.0
852 900 249.0
852 902 782.0
854 855 442.0
854 859 178.0
854 861 498.0
854 863 892.0
854 864 791.0
854 891 896.0
855 856 340.0
855 860 339.0
856 4458 742.0
857 882 445.0
857 893 583.0
857 902 329.0
858 885 474.0
859 860 982.0
859 864 339.0
859 881 399.0
859 883 638.0
864 883 647.0
864 921 447.0
869 895 150.0
869 899 342.0
871 885 419.0
871 928 465.0
872 929 492.0
873 930 744.0
874 885 614.0
874 897 757.0
874 901 122.0
875 876 648.0
875 878 518.0
875 881 430.0
875 893 701.0
876 894 362.0
876 895 403.0
878 892 206.0
878 928 673.0
878 929 489.0
878 930 725.0
880 900 568.0
881 891 760.0
882 883 838.0
882 931 430.0
883 884 475.0
885 928 417.0
890 902 575.0
890 929 766.0
892 896 433.0
893 894 725.0
895 896 864.0
895 897 252.0
899 930 110.0
901 928 173.0
902 928 297.0
902 929 456.0
902 931 178.0
912 917 793.0
912 918 917.0
913 917 627.0
914 917 860.0
915 918 318.0
916 918 498.0
921 926 494.0
921 927 699.0
922 926 164.0
923 926 766.0
924 927 336.0
925 927 560.0
928 929 159.0
933 1014 407.0
933 1053 594.0
934 935 47.0
934 936 960.0
934 969 946.0
935 969 189.0
936 941 539.0
937 938 285.0
937 954 484.0
937 1010 157.0
937 1050 124.0
939 940 90.0
939 956 90.0
939 961 76.0
939 984 545.0
940 1016 78.0
940 1036 884.0
940 1051 179.0
941 942 363.0
941 994 417.0
941 1014 431.0
942 946 683.0
942 959 369.0
943 944 380.0
943 1003 759.0
943 1005 704.0
943 1028 732.0
944 945 510.0
944 995 597.0
944 1028 932.0
945 1006 777.0
945 1058 998.0
946 947 870.0
948 949 203.0
948 950 534.0
948 964 421.0
948 1047 843.0
948 1048 288.0
949 951 387.0
949 962 357.0
949 1043 200.0
950 951 302.0
950 970 555.0
950 1034 759.0
951 971 156.0
951 978 371.0
951 1000 276.0
952 953 717.0
952 975 965.0
952 1023 966.0
952 1024 786.0
952 1056 310.0
953 983 114.0
953 1011 647.0
953 1030 268.0
953 1052 842.0
954 973 937.0
954 1050 113.0
955 983 328.0
956 957 727.0
956 1015 711.0
956 1050 788.0
958 959 589.0
958 993 954.0
958 1049 457.0
959 1006 717.0
960 965 820.0
960 987 921.0
961 1055 194.0
962 993 327.0
963 991 444.0
963 1013 13.0
963 1030 853.0
964 1025 777.0
965 966 898.0
965 973 751.0
965 1021 34.0
966 997 440.0
967 968 594.0
967 1026 920.0
968 1006 329.0
968 1057 580.0
969 995 229.0
969 1021 831.0
970 971 223.0
970 996 486.0
971 1026 506.0
971 1037 302.0
972 973 706.0
973 1021 475.0
974 1023 908.0
974 1024 528.0
974 1031 358.0
975 1010 883.0
975 1054 684.0
976 1034 571.0
976 1048 605.0
977 992 665.0
977 1047 217.0
978 1005 275.0
979 980 166.0
979 1036 760.0
980 4855 290.0
981 982 133.0
981 1015 947.0
981 1055 604.0
984 985 609.0
984 1050 677.0
986 1010 509.0
986 1012 208.0
986 1044 153.0
987 988 604.0
987 989 783.0
989 997 356.0
990 994 801.0
991 1011 361.0
991 1054 900.0
992 993 483.0
992 998 61.0
992 1047 38.0
993 1049 728.0
994 999 385.0
995 1028 312.0
996 1001 975.0
997 1006 963.0
997 1057 249.0
998 1034 476.0
1000 1026 80.0
1001 1002 714.0
1002 1005 96.0
1003 1045 237.0
1004 1021 535.0
1004 1028 357.0
1005 1006 57.0
1005 1007 485.0
1005 1008 247.0
1005 1009 945.0
1005 1014 763.0
1005 1026 625.0
1005 1037 417.0
1005 1049 549.0
1006 1057 531.0
1010 1011 988.0
1010 1056 698.0
1012 1013 460.0
1012 1044 745.0
1015 1016 965.0
1016 1017 525.0
1018 1019 714.0
1018 1022 97.0
1019 1031 524.0
1019 1046 135.0
1019 1050 161.0
1020 1021 975.0
1022 1046 132.0
1022 1050 115.0
1022 1059 987.0
1023 1050 791.0
1023 1059 742.0
1024 1050 339.0
1024 1059 393.0
1025 1026 724.0
1026 1027 922.0
1026 1043 473.0
1026 1045 32.0
1029 1030 72.0
1030 1033 853.0
1030 1038 148.0
1030 1039 114.0
1030 1040 48.0
1030 4894 415.0
1031 1032 192.0
1031 1046 88.0
1032 1052 850.0
1033 4902 457.0
1034 1035 964.0
1035 1049 442.0
1041 1042 3.0
1041 1044 49.0
1041 1056 601.0
1046 1059 184.0
1050 1051 378.0
1050 1052 797.0
1052 1058 227.0
1060 1061 541.0
1060 1062 252.0
1060 1542 714.0
1060 2002 947.0
1060 2035 673.0
1061 1444 389.0
1062 1444 420.0
1063 1065 70.0
1063 1160 461.0
1063 1331 649.0
1063 1625 948.0
1063 1809 658.0
1064 1176 219.0
1065 1091 126.0
1065 1119 573.0
1066 1852 330.0
1066 1901 788.0
1066 2069 929.0
1067 1068 177.0
1067 1418 422.0
1067 1969 826.0
1068 1419 86.0
1069 1070 612.0
1069 1196 614.0
1069 1197 282.0
1069 1300 812.0
1069 1497 161.0
1069 1498 807.0
1069 1566 358.0
1070 1269 97.0
1070 1371 780.0
1071 1553 685.0
1071 1615 707.0
1071 2028 25.0
1072 1073 197.0
1072 1191 656.0
1072 1208 799.0
1072 1280 517.0
1072 1314 724.0
1072 1469 237.0
1072 1554 591.0
1073 1192 155.0
1073 1313 615.0
1074 1076 15.0
1074 1159 353.0
1074 1506 25.0
1075 1076 342.0
1075 1217 652.0
1075 1905 813.0
1077 1224 475.0
1078 1079 779.0
1078 1244 682.0
1078 1306 939.0
1078 1313 548.0
1078 1459 336.0
1080 1334 553.0
1080 1559 689.0
1081 1154 975.0
1081 1560 561.0
1081 1942 901.0
1082 1224 439.0
1082 1510 185.0
1082 1728 742.0
1082 1750 371.0
1083 1295 374.0
1083 1446 492.0
1083 1503 294.0
1084 1098 664.0
1084 1224 383.0
1085 1086 980.0
1085 1087 248.0
1085 1351 638.0
1085 1367 489.0
1085 1420 905.0
1085 1478 89.0
1086 1088 42.0
1086 1091 727.0
1086 1097 148.0
1087 1088 146.0
1087 1090 889.0
1087 1220 631.0
1087 1223 73.0
1087 1624 491.0
1088 1091 625.0
1088 1401 30.0
1089 1311 661.0
1089 1446 78.0
1089 1556 135.0
1090 1091 182.0
1090 1108 876.0
1090 1165 801.0
1090 1496 56.0
1090 1630 968.0
1090 1959 301.0
1090 2017 304.0
1091 1092 161.0
1091 1166 375.0
1091 1353 871.0
1091 1429 701.0
1091 1504 23.0
1091 1525 667.0
1092 1488 846.0
1093 1094 328.0
1093 1095 590.0
1093 2096 95.0
1093 2135 239.0
1094 1177 177.0
1094 1447 208.0
1095 1386 979.0
1095 1446 837.0
1095 2071 876.0
1095 2091 790.0
1095 2159 330.0
1096 1097 880.0
1096 1285 313.0
1096 2109 338.0
1097 1343 283.0
1097 1379 369.0
1098 1099 440.0
1098 1193 531.0
1098 1490 812.0
1098 1677 144.0
1098 1713 189.0
1098 1731 231.0
1098 1914 188.0
1099 1334 869.0
1100 1101 637.0
1100 1276 938.0
1100 1530 363.0
1100 2062 501.0
1100 2176 145.0
1100 2179 263.0
1101 1277 835.0
1101 2139 864.0
1102 1103 21.0
1102 1226 242.0
1102 1338 698.0
1102 1422 707.0
1102 1573 199.0
1103 1143 935.0
1103 1442 929.0
1104 1460 934.0
1104 1556 855.0
1104 1717 73.0
1104 1753 276.0
1104 2061 952.0
1104 2121 553.0
1105 1106 890.0
1105 1145 420.0
1105 1179 592.0
1105 1666 682.0
1105 1948 536.0
1106 1107 286.0
1106 1136 477.0
1106 1143 53.0
1106 1180 395.0
1106 1249 450.0
1106 1317 829.0
1106 1323 677.0
1106 1810 88.0
1106 1877 852.0
1107 1137 456.0
1107 1267 966.0
1107 1365 190.0
1108 1240 649.0
1108 1496 625.0
1109 1210 656.0
1109 1471 354.0
1109 1495 623.0
1110 1111 217.0
1111 1459 508.0
1112 1579 56.0
1112 1581 673.0
1113 1116 156.0
1114 1837 686.0
1114 1932 135.0
1115 1543 214.0
1115 1603 946.0
1115 1969 673.0
1116 1453 158.0
1116 1454 239.0
1116 1499 9.0
1116 1552 865.0
1117 1189 552.0
1117 1436 25.0
1117 1461 202.0
1117 1463 132.0
1117 1584 199.0
1117 2195 858.0
1118 1119 444.0
1118 1825 147.0
1119 1176 237.0
1119 1429 394.0
1119 4437 510.0
1120 1825 523.0
1120 1956 219.0
1121 1122 281.0
1122 1163 190.0
1122 1275 923.0
1123 1243 95.0
1123 1313 34.0
1123 1459 527.0
1124 1576 607.0
1124 2021 923.0
1125 1476 249.0
1126 1127 699.0
1126 1128 296.0
1127 1863 698.0
1128 1353 479.0
1128 1401 542.0
1129 1187 385.0
1129 1226 782.0
1130 1830 698.0
1130 1942 322.0
1131 1243 548.0
1131 1308 697.0
1131 1330 438.0
1131 2557 64.0
1132 1135 950.0
1132 1493 162.0
1132 1605 907.0
1133 1242 793.0
1133 1323 176.0
1133 1609 467.0
1134 1416 854.0
1134 1531 657.0
1134 1610 848.0
1135 1451 626.0
1135 1534 465.0
1136 1137 909.0
1136 1138 98.0
1136 1139 304.0
1140 1301 492.0
1140 1332 649.0
1140 1345 529.0
1140 1361 979.0
1140 1458 829.0
1140 1486 737.0
1140 1619 503.0
1140 1620 635.0
1141 1142 189.0
1142 1474 586.0
1142 1874 828.0
1143 1434 655.0
1143 1622 382.0
1144 1222 529.0
1145 1491 461.0
1145 1955 511.0
1146 1148 515.0
1147 1148 83.0
1147 1166 751.0
1147 1207 466.0
1147 2063 746.0
1147 2064 585.0
1148 1167 979.0
1148 1340 344.0
1148 1452 924.0
1149 1150 878.0
1149 1696 988.0
1150 1275 674.0
1150 1283 141.0
1151 1335 383.0
1151 1356 253.0
1151 1473 552.0
1151 1489 780.0
1151 1530 473.0
1152 1170 25.0
1152 1357 734.0
1152 1484 696.0
1153 1405 204.0
1153 1730 991.0
1154 1197 806.0
1155 1156 918.0
1155 1774 69.0
1155 1971 832.0
1156 1161 315.0
1156 1221 505.0
1156 1260 332.0
1157 1326 600.0
1157 1736 588.0
1157 1749 874.0
1158 1159 808.0
1158 1505 936.0
1158 1684 307.0
1158 1770 832.0
1158 1905 937.0
1159 1166 157.0
1159 1170 910.0
1159 1322 965.0
1159 1416 499.0
1159 1506 497.0
1160 1956 999.0
1160 2092 63.0
1161 1260 906.0
1161 1501 18.0
1162 1163 977.0
1162 1241 335.0
1162 1517 626.0
1162 1641 566.0
1163 1299 760.0
1164 1435 2.0
1164 1865 775.0
1164 2184 805.0
1164 2189 714.0
1165 1166 885.0
1165 1777 283.0
1165 1853 631.0
1165 2015 312.0
1166 1167 140.0
1166 1168 960.0
1166 1413 778.0
1166 1438 35.0
1166 1525 95.0
1166 1646 206.0
1167 1244 146.0
1167 1541 331.0
1169 1170 993.0
1169 1403 538.0
1170 1171 664.0
1170 1175 97.0
1170 1201 603.0
1170 1309 795.0
1170 1484 74.0
1170 1486 209.0
1170 1531 20.0
1171 1403 221.0
1172 2180 394.0
1173 1468 490.0
1173 1484 613.0
1173 1486 874.0
1173 1487 350.0
1173 1531 154.0
1173 1649 472.0
1174 1184 776.0
1174 1518 875.0
1175 1201 373.0
1175 1467 768.0
1176 1504 602.0
1177 1178 133.0
1177 1265 746.0
1177 1387 30.0
1178 1340 68.0
1181 1735 709.0
1181 2164 940.0
1182 1190 875.0
1182 1398 13.0
1183 1467 852.0
1184 2447 997.0
1185 1442 798.0
1186 1949 536.0
1186 2050 444.0
1186 2075 131.0
1187 1469 260.0
1188 1189 778.0
1189 1234 212.0
1190 1191 53.0
1190 1845 751.0
1191 1192 691.0
1191 1246 760.0
1191 1407 674.0
1192 1330 385.0
1193 1528 908.0
1194 1195 460.0
1194 1678 127.0
1195 1416 136.0
1195 1452 144.0
1195 1521 665.0
1196 1197 465.0
1198 1349 797.0
1198 1512 544.0
1199 1200 987.0
1199 1348 151.0
1199 1891 182.0
1200 1892 970.0
1201 1309 850.0
1202 1203 366.0
1202 1204 938.0
1203 1364 72.0
1204 1253 85.0
1204 1488 522.0
1205 1290 835.0
1205 1449 583.0
1205 2086 678.0
1206 1207 904.0
1206 1359 460.0
1206 1705 976.0
1206 1866 64.0
1206 1989 109.0
1206 2037 745.0
1208 1441 955.0
1208 1794 588.0
1209 1309 734.0
1209 1467 89.0
1209 1679 529.0
1210 1211 500.0
1210 1536 292.0
1210 2076 495.0
1212 1213 338.0
1212 1770 345.0
1213 1346 735.0
1214 1774 83.0
1215 1216 273.0
1216 1512 60.0
1217 1425 714.0
1218 1247 604.0
1218 1385 704.0
1218 1450 791.0
1218 1687 947.0
1219 1407 830.0
1219 1417 916.0
1219 1689 919.0
1219 1767 103.0
1219 1912 235.0
1220 1251 712.0
1221 1292 933.0
1222 1254 573.0
1223 1524 336.0
1224 1225 629.0
1224 1262 26.0
1224 1432 970.0
1224 1594 345.0
1224 1647 505.0
1224 1727 514.0
1224 1746 477.0
1224 1799 538.0
1224 2194 522.0
1225 1326 991.0
1226 1709 226.0
1227 1231 813.0
1228 1231 239.0
1229 1254 273.0
1229 1478 479.0
1229 1524 499.0
1230 1231 894.0
1230 1402 959.0
1231 1488 149.0
1232 1239 174.0
1232 1246 58.0
1233 1234 590.0
1234 1461 281.0
1235 1236 970.0
1235 1577 422.0
1235 1723 414.0
1235 1902 982.0
1236 1237 406.0
1237 1334 826.0
1237 1810 424.0
1238 1239 872.0
1238 1532 170.0
1239 1329 360.0
1239 1483 775.0
1241 1355 288.0
1242 1291 24.0
1242 1725 701.0
1242 1726 658.0
1242 1995 515.0
1243 1267 918.0
1243 1308 995.0
1243 1383 395.0
1243 1423 942.0
1244 1267 275.0
1244 1306 286.0
1244 1365 710.0
1244 1507 904.0
1245 1505 244.0
1245 1678 893.0
1247 1384 447.0
1248 1913 891.0
1249 1256 340.0
1250 1289 205.0
1250 1501 43.0
1251 1389 663.0
1251 1420 171.0
1252 1253 141.0
1252 1297 468.0
1252 1343 114.0
1252 1349 619.0
1253 1304 249.0
1255 1570 782.0
1255 1762 638.0
1255 1798 889.0
1256 1326 969.0
1256 1763 443.0
1257 1258 291.0
1257 1292 681.0
1257 1353 58.0
1257 1402 982.0
1257 1992 144.0
1258 1488 416.0
1259 1260 907.0
1261 1263 221.0
1263 1432 949.0
1264 1799 510.0
1266 1267 867.0
1267 1313 949.0
1267 1459 383.0
1268 1269 735.0
1268 1410 720.0
1268 1472 588.0
1268 1776 842.0
1268 2182 529.0
1269 1373 620.0
1270 1271 808.0
1271 1634 101.0
1272 1273 783.0
1272 1274 20.0
1272 1569 642.0
1272 1586 282.0
1272 1626 954.0
1272 1928 61.0
1273 1361 179.0
1274 1450 390.0
1275 1307 167.0
1276 1277 127.0
1276 1278 776.0
1276 1352 273.0
1276 1466 277.0
1276 1489 387.0
1277 2203 462.0
1278 1279 770.0
1278 1435 768.0
1278 1489 483.0
1278 2120 79.0
1279 1309 556.0
1279 1463 717.0
1280 1281 133.0
1280 1523 799.0
1280 1786 899.0
1281 1313 974.0
1282 1283 880.0
1282 1701 222.0
1283 1377 880.0
1284 1474 774.0
1284 1526 1.0
1284 1684 593.0
1284 1835 694.0
1285 2141 933.0
1286 1300 510.0
1286 1535 487.0
1286 1800 325.0
1287 1289 493.0
1288 1289 791.0
1288 1801 681.0
1289 1353 847.0
1289 1934 890.0
1290 1409 802.0
1291 1803 196.0
1291 1994 571.0
1293 1294 966.0
1294 1304 808.0
1294 1306 948.0
1296 1297 736.0
1296 1350 438.0
1296 1426 93.0
1296 1629 591.0
1298 1299 554.0
1298 1302 381.0
1298 1532 432.0
1298 1562 774.0
1298 1805 543.0
1298 2158 894.0
1299 1329 948.0
1299 1805 851.0
1300 1301 516.0
1300 1807 500.0
1302 1398 676.0
1303 1304 673.0
1305 1306 214.0
1306 1433 57.0
1307 1308 895.0
1307 1812 504.0
1307 2060 650.0
1308 1476 546.0
1308 2594 196.0
1309 1310 582.0
1309 1316 451.0
1309 1436 153.0
1309 1814 886.0
1309 2138 168.0
1309 2139 819.0
1309 2185 801.0
1310 1540 879.0
1311 1312 143.0
1311 1446 614.0
1311 2036 724.0
1311 2191 225.0
1311 2192 504.0
1312 1447 119.0
1313 1373 911.0
1313 1443 82.0
1314 1315 925.0
1314 1912 781.0
1315 1816 158.0
1316 1467 994.0
1316 1817 540.0
1317 1406 985.0
1317 1819 877.0
1318 1319 446.0
1319 1332 935.0
1319 1458 348.0
1320 1440 920.0
1320 1527 459.0
1321 1412 108.0
1321 1505 707.0
1321 1522 452.0
1321 2156 69.0
1322 1416 871.0
1323 1324 859.0
1323 1338 377.0
1323 1374 735.0
1323 2097 841.0
1323 2098 802.0
1324 1365 205.0
1325 1326 588.0
1325 1822 891.0
1325 1881 244.0
1326 1327 236.0
1326 1328 133.0
1326 1424 859.0
1326 1579 673.0
1326 1580 218.0
1326 1821 543.0
1327 1433 886.0
1327 1459 308.0
1329 1330 725.0
1329 1483 456.0
1331 1634 940.0
1332 1345 557.0
1333 1334 648.0
1333 1346 8.0
1333 1631 516.0
1333 1677 839.0
1333 2016 474.0
1334 1369 315.0
1334 1391 732.0
1334 1396 419.0
1334 1438 933.0
1334 1502 166.0
1334 1506 236.0
1334 1515 9.0
1335 1356 208.0
1335 1558 437.0
1336 1337 840.0
1337 1663 883.0
1337 1997 335.0
1338 1831 358.0
1339 1340 119.0
1339 1341 293.0
1339 1462 243.0
1340 1540 672.0
1341 1448 413.0
1342 1343 118.0
1342 1364 545.0
1342 1427 243.0
1342 1508 348.0
1342 1860 402.0
1344 1345 893.0
1345 2180 350.0
1346 1761 283.0
1347 1447 75.0
1347 1461 427.0
1347 1842 579.0
1348 1349 984.0
1348 1426 241.0
1348 1449 957.0
1348 1629 889.0
1350 1364 620.0
1351 2017 436.0
1352 1435 676.0
1352 1466 106.0
1352 2189 547.0
1353 1354 816.0
1353 1379 541.0
1353 1859 672.0
1355 1562 864.0
1356 1357 397.0
1356 1489 110.0
1356 1530 25.0
1356 1558 968.0
1356 2007 343.0
1356 2120 876.0
1357 2139 261.0
1358 1735 605.0
1358 1765 748.0
1359 1719 595.0
1359 1867 301.0
1359 2044 900.0
1360 1361 104.0
1360 1363 496.0
1360 1775 969.0
1360 1929 520.0
1360 1950 202.0
1361 1362 136.0
1361 1444 335.0
1361 1450 987.0
1361 1487 729.0
1361 1864 818.0
1362 1371 269.0
1363 1471 783.0
1363 1919 775.0
1365 1373 695.0
1365 1500 199.0
1366 1490 265.0
1366 1516 381.0
1367 1388 104.0
1367 1400 319.0
1367 1624 602.0
1368 1369 753.0
1368 1903 506.0
1368 1975 281.0
1369 1552 227.0
1370 1371 987.0
1370 1495 20.0
1371 1403 244.0
1371 1445 782.0
1371 1538 707.0
1371 1539 951.0
1372 1373 138.0
1372 1374 772.0
1372 1451 178.0
1374 1451 127.0
1375 1376 100.0
1376 1422 822.0
1377 1382 982.0
1377 1406 582.0
1378 1379 971.0
1378 1400 31.0
1378 1593 842.0
1378 2021 52.0
1378 2104 460.0
1380 1502 214.0
1380 1506 857.0
1380 1893 216.0
1381 1382 244.0
1381 1397 647.0
1382 1383 285.0
1383 1476 659.0
1384 1895 135.0
1385 1895 567.0
1386 1387 231.0
1386 2096 750.0
1386 2159 510.0
1388 1399 104.0
1389 1478 386.0
1389 1632 874.0
1390 1391 936.0
1390 1425 897.0
1390 1439 892.0
1391 1413 344.0
1392 1426 457.0
1393 1397 590.0
1393 1404 644.0
1394 1515 690.0
1395 1396 854.0
1399 1400 510.0
1400 1401 642.0
1400 1852 957.0
1403 1485 797.0
1403 1540 406.0
1403 1541 309.0
1405 1406 282.0
1406 1422 130.0
1408 1798 996.0
1408 1980 82.0
1408 1983 482.0
1409 1470 631.0
1410 1419 400.0
1410 1498 290.0
1410 2113 176.0
1411 1412 843.0
1412 1505 10.0
1413 2193 191.0
1414 1416 561.0
1415 1416 452.0
1415 1522 376.0
1415 1844 865.0
1415 1874 187.0
1416 1920 83.0
1417 1921 494.0
1418 1419 669.0
1418 1455 524.0
1418 1828 879.0
1419 1453 14.0
1419 1454 950.0
1419 1535 469.0
1419 1923 276.0
1419 1963 164.0
1421 1422 691.0
1422 1423 67.0
1424 1924 98.0
1425 2016 242.0
1427 1449 541.0
1428 1429 483.0
1428 2069 657.0
1430 1431 87.0
1430 1432 37.0
1430 1974 424.0
1431 1433 286.0
1434 1930 518.0
1435 1436 657.0
1435 2184 326.0
1436 1462 603.0
1437 1783 951.0
1437 1935 636.0
1438 1811 626.0
1439 1440 582.0
1439 1516 731.0
1439 1526 864.0
1439 1884 528.0
1440 1811 680.0
1441 1442 712.0
1441 1794 627.0
1442 1443 817.0
1442 1537 335.0
1442 1548 986.0
1442 1987 889.0
1444 1445 382.0
1446 1447 760.0
1446 2077 397.0
1447 2195 211.0
1448 1461 798.0
1451 1472 142.0
1451 2118 411.0
1451 2119 15.0
1452 1541 902.0
1453 1456 384.0
1454 1457 855.0
1455 1456 25.0
1455 1457 24.0
1455 1598 964.0
1458 1952 437.0
1460 1461 423.0
1460 2072 148.0
1460 2074 600.0
1460 2081 652.0
1460 2095 830.0
1460 2105 780.0
1460 2108 791.0
1460 2123 923.0
1460 2144 316.0
1461 2124 248.0
1461 2125 72.0
1462 1463 958.0
1463 1953 49.0
1464 1466 350.0
1465 1466 595.0
1466 1908 65.0
1467 2138 333.0
1468 1484 121.0
1468 1748 319.0
1468 1954 166.0
1468 2188 176.0
1470 2112 897.0
1471 2173 971.0
1471 2188 670.0
1472 1497 112.0
1472 2128 311.0
1472 2129 704.0
1473 1530 473.0
1473 2131 718.0
1474 1475 639.0
1474 2042 382.0
1477 1478 394.0
1478 2050 626.0
1478 2086 764.0
1479 1480 242.0
1480 1535 998.0
1484 1485 617.0
1484 2157 444.0
1487 1531 69.0
1489 2120 973.0
1489 2138 96.0
1489 2139 184.0
1489 2179 673.0
1491 1621 171.0
1491 1760 266.0
1491 1984 107.0
1492 1493 906.0
1492 1565 794.0
1492 1710 801.0
1492 1986 603.0
1494 1523 311.0
1494 1537 473.0
1494 1988 400.0
1495 1919 520.0
1496 2010 983.0
1499 1500 765.0
1499 1877 375.0
1499 1994 6.0
1499 1995 496.0
1502 1999 964.0
1506 1507 499.0
1506 1512 251.0
1506 1514 853.0
1506 1818 159.0
1506 2202 803.0
1507 1541 769.0
1508 1876 95.0
1509 1510 835.0
1510 1980 930.0
1511 1594 147.0
1511 1891 568.0
1511 2019 38.0
1512 1513 996.0
1512 2020 830.0
1513 1736 559.0
1513 2022 665.0
1515 1818 255.0
1516 1925 363.0
1516 2027 999.0
1517 1518 121.0
1519 1521 75.0
1520 1521 883.0
1520 1588 367.0
1522 1844 348.0
1523 1979 328.0
1523 2031 342.0
1524 1525 372.0
1524 1632 146.0
1524 1949 671.0
1526 1926 702.0
1527 2193 756.0
1528 1529 898.0
1528 1694 369.0
1528 1695 273.0
1528 1762 858.0
1528 2126 347.0
1529 1559 455.0
1530 1531 960.0
1530 1533 597.0
1530 1536 517.0
1530 2076 363.0
1530 2173 303.0
1532 2158 943.0
1536 2176 637.0
1542 1644 126.0
1542 1938 417.0
1543 1611 730.0
1544 1547 867.0
1544 1832 589.0
1545 1575 598.0
1545 2040 782.0
1546 1553 112.0
1546 1888 148.0
1547 1548 61.0
1547 1595 554.0
1547 1638 659.0
1547 1708 380.0
1547 1733 345.0
1547 1744 463.0
1549 1782 409.0
1549 2110 475.0
1550 1622 355.0
1550 1931 700.0
1551 1779 792.0
1551 1993 87.0
1554 1653 779.0
1554 1670 842.0
1554 1720 139.0
1554 1740 478.0
1554 1839 314.0
1554 1890 875.0
1554 1957 247.0
1554 2142 957.0
1555 1561 510.0
1555 1841 53.0
1557 1712 105.0
1557 1846 305.0
1560 1781 840.0
1561 1819 726.0
1562 2158 568.0
1563 1689 876.0
1563 1787 406.0
1563 1857 842.0
1564 1569 202.0
1564 1950 967.0
1565 1745 98.0
1566 1567 296.0
1566 1568 107.0
1570 1618 491.0
1571 1728 794.0
1571 1881 643.0
1572 1685 462.0
1572 1740 862.0
1573 1574 960.0
1573 2053 972.0
1574 2099 941.0
1574 2115 168.0
1575 1685 452.0
1575 1946 616.0
1576 1593 242.0
1577 1631 998.0
1578 1645 873.0
1578 1985 310.0
1579 1657 658.0
1580 1987 48.0
1581 1582 670.0
1582 1764 388.0
1583 1691 453.0
1583 1918 932.0
1583 2087 460.0
1584 1599 433.0
1584 1855 712.0
1584 1856 809.0
1584 1951 297.0
1584 2000 5.0
1584 2012 929.0
1585 1721 300.0
1585 1745 560.0
1586 1702 828.0
1586 1928 103.0
1587 1588 732.0
1587 1867 277.0
1589 1599 979.0
1589 1679 681.0
1589 2000 390.0
1589 2150 981.0
1590 1716 927.0
1590 1854 195.0
1591 1622 8.0
1591 1930 921.0
1592 1701 534.0
1592 2048 532.0
1596 1960 338.0
1596 2038 494.0
1597 1598 638.0
1598 1686 623.0
1599 2012 825.0
1600 1601 893.0
1600 1922 491.0
1600 2097 259.0
1600 2098 686.0
1601 1838 261.0
1601 1972 87.0
1602 2001 740.0
1602 2130 644.0
1602 2151 760.0
1603 1686 937.0
1604 1648 580.0
1604 1773 757.0
1604 1823 732.0
1605 1699 312.0
1605 1820 875.0
1605 2043 183.0
1606 1645 508.0
1607 1674 438.0
1607 1773 636.0
1608 1970 346.0
1608 1998 883.0
1609 1725 984.0
1609 2065 925.0
1609 2148 767.0
1611 1760 577.0
1612 1613 911.0
1612 1627 736.0
1612 1781 342.0
1613 1847 597.0
1614 1654 52.0
1614 1954 314.0
1614 2157 829.0
1615 1659 66.0
1616 1834 913.0
1616 2002 104.0
1617 1620 891.0
1617 1700 662.0
1618 1902 702.0
1619 1882 241.0
1620 1700 40.0
1621 1948 74.0
1622 1623 995.0
1622 1692 608.0
1623 1662 243.0
1623 2014 465.0
1623 2099 152.0
1623 2115 984.0
1625 2004 163.0
1626 2003 410.0
1627 1664 928.0
1628 1663 959.0
1628 1809 224.0
1630 1729 390.0
1633 1813 506.0
1633 1848 990.0
1633 1964 803.0
1635 1667 192.0
1635 1703 426.0
1636 1738 331.0
1636 1824 811.0
1637 1738 4.0
1638 1930 973.0
1639 1911 411.0
1639 2092 432.0
1640 1766 139.0
1640 1804 26.0
1642 1689 351.0
1642 1804 161.0
1643 1699 431.0
1643 2067 356.0
1644 1751 589.0
1644 1909 200.0
1644 2035 38.0
1646 1864 881.0
1647 1916 640.0
1648 1807 154.0
1649 1752 562.0
1649 1954 293.0
1649 2068 122.0
1650 1788 187.0
1650 2015 887.0
1651 1795 917.0
1651 1797 381.0
1652 1759 153.0
1652 1879 337.0
1653 1742 698.0
1653 1790 462.0
1653 2038 161.0
1653 2039 794.0
1654 1752 446.0
1654 1883 310.0
1655 1897 606.0
1656 1897 653.0
1658 1771 357.0
1658 1786 527.0
1659 1826 854.0
1660 1827 390.0
1660 1892 33.0
1661 1662 646.0
1661 1820 646.0
1661 1850 75.0
1662 1722 674.0
1662 2067 393.0
1664 2163 26.0
1665 1862 173.0
1665 1915 886.0
1666 1667 708.0
1668 1808 924.0
1668 1890 348.0
1669 1670 951.0
1669 1754 674.0
1670 1685 53.0
1671 1789 880.0
1671 2013 167.0
1672 1816 436.0
1673 1687 629.0
1673 1897 637.0
1674 1800 314.0
1675 1706 565.0
1676 1677 98.0
1676 1906 404.0
1680 1734 858.0
1680 1803 505.0
1681 1875 465.0
1681 2037 195.0
1682 1834 324.0
1682 1929 564.0
1683 1778 155.0
1685 1786 92.0
1685 1878 734.0
1685 1915 539.0
1687 1688 294.0
1687 1897 392.0
1687 2167 423.0
1689 1714 900.0
1689 1857 870.0
1690 1691 238.0
1690 1861 669.0
1690 2097 211.0
1691 1918 854.0
1692 1869 782.0
1693 1858 730.0
1693 1907 737.0
1694 1731 980.0
1695 1967 925.0
1696 1826 31.0
1697 2031 100.0
1698 1776 197.0
1698 1982 193.0
1699 1776 829.0
1702 2003 886.0
1702 2167 474.0
1703 1780 867.0
1703 1841 167.0
1704 1724 386.0
1704 1976 702.0
1705 1853 770.0
1706 2007 145.0
1707 1829 39.0
1707 2019 209.0
1708 1795 496.0
1709 1797 115.0
1709 1870 611.0
1709 2100 979.0
1710 1830 347.0
1711 1896 237.0
1711 1921 486.0
1712 1904 296.0
1713 1843 240.0
1713 2194 987.0
1714 1739 842.0
1715 1961 944.0
1715 2111 477.0
1716 1889 954.0
1716 1921 441.0
1717 2136 883.0
1718 1955 329.0
1719 1849 884.0
1721 1722 283.0
1721 1930 946.0
1723 1975 704.0
1724 1795 345.0
1725 1945 556.0
1725 2080 559.0
1726 1755 154.0
1726 1977 673.0
1727 1778 658.0
1729 1997 987.0
1730 1913 568.0
1732 2113 942.0
1732 2117 135.0
1732 2130 279.0
1733 2052 544.0
1734 1758 884.0
1734 1802 395.0
1734 2051 657.0
1737 1738 903.0
1739 1785 159.0
1741 1743 365.0
1741 1793 269.0
1741 2025 322.0
1742 1743 586.0
1742 2162 865.0
1744 1870 151.0
1747 1748 74.0
1747 1904 910.0
1747 2008 795.0
1747 2183 837.0
1749 1822 989.0
1749 1885 980.0
1752 2157 511.0
1753 1865 684.0
1754 1790 748.0
1754 1833 248.0
1755 1756 321.0
1755 2080 82.0
1756 2087 499.0
1757 1847 699.0
1757 1882 346.0
1757 1909 576.0
1758 1782 493.0
1759 1782 999.0
1760 1898 657.0
1760 2088 888.0
1761 1999 543.0
1763 1880 911.0
1765 2042 725.0
1766 1767 715.0
1768 1840 784.0
1769 1833 211.0
1769 2032 413.0
1771 1899 451.0
1772 1878 949.0
1772 2052 701.0
1775 1950 274.0
1776 1869 945.0
1776 1886 913.0
1776 1962 837.0
1777 1849 850.0
1779 1848 66.0
1780 1947 745.0
1782 2011 305.0
1783 1900 14.0
1785 1910 445.0
1786 1907 1.0
1786 2041 538.0
1787 1896 342.0
1788 1959 582.0
1789 1816 163.0
1791 1793 39.0
1792 1793 366.0
1793 2025 151.0
1794 1796 886.0
1795 1796 930.0
1795 1976 745.0
1800 1807 597.0
1801 1996 877.0
1802 2001 476.0
1806 1847 98.0
1807 2163 361.0
1808 1839 84.0
1812 1851 370.0
1813 2011 695.0
1814 1920 826.0
1815 2023 644.0
1815 2031 189.0
1817 2149 377.0
1817 2150 750.0
1820 2043 817.0
1821 1923 357.0
1823 1964 934.0
1824 1914 915.0
1827 2020 182.0
1827 2046 195.0
1828 2006 124.0
1829 2034 812.0
1831 1838 735.0
1831 2155 28.0
1832 1930 698.0
1836 1952 991.0
1837 2049 59.0
1838 2099 560.0
1839 1840 120.0
1842 2070 301.0
1842 2079 871.0
1842 2122 244.0
1843 1981 497.0
1844 2156 139.0
1846 1883 726.0
1850 2118 567.0
1850 2119 447.0
1854 1889 414.0
1855 1951 579.0
1855 2000 47.0
1856 1951 221.0
1858 2023 689.0
1859 1992 548.0
1861 2098 879.0
1862 2039 450.0
1863 1933 231.0
1868 1917 303.0
1868 1999 554.0
1869 2106 122.0
1871 1872 517.0
1871 1873 75.0
1871 2067 743.0
1872 2129 728.0
1873 2128 582.0
1876 2141 956.0
1879 1993 968.0
1883 1954 149.0
1885 1924 509.0
1885 2047 345.0
1887 2145 122.0
1887 2157 768.0
1893 1917 686.0
1893 2030 50.0
1894 1895 508.0
1894 1936 174.0
1897 1950 89.0
1898 2088 104.0
1899 1958 644.0
1899 1960 560.0
1900 1901 65.0
1903 1990 341.0
1906 1941 769.0
1908 2062 58.0
1910 1978 430.0
1917 1999 965.0
1922 2119 77.0
1922 2151 369.0
1926 1940 920.0
1927 1977 685.0
1927 2080 199.0
1928 2003 478.0
1928 2177 62.0
1929 1938 390.0
1930 2196 853.0
1932 1944 801.0
1933 1934 962.0
1933 1935 235.0
1933 1944 366.0
1933 2116 574.0
1936 1937 316.0
1939 1940 545.0
1940 2027 328.0
1943 1999 895.0
1943 2030 554.0
1945 2089 467.0
1945 2098 804.0
1945 2114 945.0
1945 2148 769.0
1946 2033 104.0
1951 2012 992.0
1953 2056 373.0
1953 2137 324.0
1953 2140 284.0
1953 2143 131.0
1953 2186 236.0
1953 2187 206.0
1958 2038 541.0
1961 2029 406.0
1961 2117 909.0
1962 1963 253.0
1962 1964 286.0
1962 2029 339.0
1965 1966 312.0
1965 2019 720.0
1965 2034 337.0
1968 1983 764.0
1968 2126 263.0
1969 1970 970.0
1971 1991 784.0
1972 2133 589.0
1973 2009 223.0
1973 2010 413.0
1977 2051 602.0
1978 1979 550.0
1978 2175 285.0
1982 1986 92.0
1985 2078 443.0
1985 2161 381.0
1990 2026 887.0
1993 1994 465.0
1993 1995 396.0
1996 2049 702.0
1999 2026 794.0
2001 2114 68.0
2004 2075 934.0
2005 2010 118.0
2014 2127 535.0
2017 2018 910.0
2019 2020 198.0
2020 2046 926.0
2020 2047 347.0
2024 2025 307.0
2028 2060 710.0
2031 2175 144.0
2032 2033 93.0
2032 2041 119.0
2038 2078 890.0
2039 2040 697.0
2044 2045 847.0
2046 2047 284.0
2053 2196 919.0
2054 2089 744.0
2054 2119 74.0
2054 2151 228.0
2055 2081 440.0
2055 2107 851.0
2056 2084 571.0
2057 2059 1000.0
2057 2060 660.0
2058 2106 525.0
2061 2107 18.0
2063 2124 634.0
2064 2125 624.0
2065 2097 120.0
2066 2140 710.0
2066 2186 31.0
2066 2187 114.0
2070 2101 489.0
2071 2165 92.0
2071 2166 623.0
2072 2073 236.0
2073 2101 64.0
2073 2108 728.0
2074 2101 375.0
2077 2191 737.0
2079 2095 360.0
2082 2083 335.0
2082 2085 255.0
2082 2137 520.0
2083 2084 725.0
2083 2094 30.0
2084 2085 775.0
2085 2143 878.0
2089 2129 924.0
2090 2134 846.0
2090 2144 697.0
2091 2190 900.0
2093 2142 107.0
2094 2107 779.0
2096 2135 296.0
2096 2190 600.0
2101 2122 756.0
2102 2127 739.0
2102 2146 247.0
2102 2155 934.0
2103 2145 357.0
2103 2157 476.0
2104 2109 419.0
2105 2107 648.0
2106 2154 662.0
2110 2113 57.0
2111 2163 344.0
2112 2164 437.0
2114 2151 906.0
2118 2151 209.0
2121 2137 675.0
2123 2134 700.0
2128 2153 295.0
2130 2153 491.0
2131 2145 625.0
2132 2145 645.0
2133 2146 136.0
2133 2154 780.0
2136 2156 737.0
2137 2140 78.0
2146 2147 931.0
2149 2150 70.0
2152 2162 580.0
2159 2169 297.0
2159 2170 10.0
2160 2161 150.0
2160 2162 885.0
2168 2190 577.0
2171 2192 749.0
2172 2192 208.0
2174 2175 101.0
2177 2178 962.0
2178 2183 675.0
2180 2181 710.0
2182 2197 437.0
2185 2198 908.0
2191 2192 321.0
2199 2200 951.0
2199 2204 682.0
2200 2201 154.0
2201 2203 396.0
2202 2204 358.0
2205 2210 6.0
2205 2211 578.0
2206 2382 332.0
2207 2213 376.0
2208 2244 64.0
2208 2390 780.0
2209 2412 363.0
2209 4743 364.0
2210 2212 462.0
2211 2212 965.0
2212 2213 504.0
2212 2282 37.0
2214 2396 310.0
2214 4897 122.0
2215 2357 632.0
2215 2411 690.0
2216 2370 797.0
2216 2387 276.0
2217 2288 404.0
2217 2345 610.0
2218 2346 291.0
2218 2347 803.0
2219 2244 407.0
2219 2332 102.0
2219 2373 193.0
2219 2397 448.0
2220 2229 267.0
2221 2222 961.0
2221 2223 91.0
2221 2232 362.0
2221 2261 414.0
2221 2295 826.0
2221 2376 432.0
2221 2402 154.0
2221 2403 273.0
2221 2405 62.0
2222 2223 392.0
2222 2224 40.0
2222 2229 630.0
2222 2321 472.0
2222 2418 156.0
2223 2229 653.0
2223 2235 29.0
2223 2383 613.0
2224 2321 544.0
2224 2350 641.0
2225 2314 481.0
2225 2404 776.0
2226 2228 719.0
2227 2230 491.0
2227 2359 816.0
2228 2234 138.0
2230 2263 83.0
2231 2317 461.0
2231 2347 545.0
2231 2357 816.0
2232 2405 461.0
2233 2305 296.0
2233 2361 298.0
2233 2409 605.0
2234 2360 964.0
2235 2262 876.0
2235 2298 151.0
2235 2309 789.0
2235 2312 71.0
2235 2328 476.0
2235 2369 943.0
2235 2383 908.0
2236 2238 105.0
2237 2238 360.0
2238 2291 15.0
2238 2368 53.0
2238 2396 454.0
2239 2285 996.0
2239 2313 216.0
2240 2325 52.0
2240 2366 88.0
2241 2242 141.0
2241 4507 814.0
2241 4631 529.0
2242 2249 159.0
2242 2310 681.0
2242 2355 363.0
2243 2325 935.0
2243 2335 372.0
2244 2332 707.0
2245 2315 300.0
2245 2421 737.0
2246 2308 671.0
2246 2388 635.0
2246 2420 482.0
2247 2256 160.0
2247 2386 549.0
2248 2249 406.0
2248 2250 183.0
2248 4535 843.0
2248 4536 359.0
2249 2251 838.0
2249 2252 811.0
2249 2253 247.0
2249 2370 915.0
2249 2412 820.0
2249 4573 494.0
2249 4652 341.0
2253 2311 460.0
2254 2281 524.0
2254 2379 314.0
2255 2292 429.0
2255 2327 716.0
2256 2303 412.0
2257 2282 11.0
2257 2407 424.0
2258 2262 610.0
2259 2262 809.0
2260 2262 938.0
2262 2298 556.0
2262 2364 18.0
2263 2306 877.0
2263 2357 318.0
2264 2282 620.0
2264 2286 923.0
2265 2306 548.0
2265 4854 55.0
2266 2272 851.0
2266 2414 214.0
2267 2268 119.0
2267 2269 12.0
2267 2270 102.0
2267 2333 645.0
2267 2381 9.0
2268 2271 883.0
2268 2382 856.0
2268 2416 573.0
2272 2334 161.0
2273 2275 929.0
2274 2275 244.0
2274 2372 626.0
2274 2407 739.0
2276 2277 953.0
2276 2290 930.0
2276 2389 531.0
2278 2320 726.0
2278 2371 198.0
2279 2361 724.0
2279 2414 650.0
2280 2284 621.0
2281 2282 810.0
2281 2336 993.0
2282 2283 928.0
2282 2284 787.0
2282 2302 388.0
2282 2304 329.0
2282 2372 781.0
2282 2375 21.0
2283 2284 268.0
2285 2286 540.0
2285 2331 732.0
2285 2392 291.0
2287 2334 847.0
2287 2387 323.0
2288 2316 50.0
2289 2341 36.0
2289 2382 591.0
2290 2292 458.0
2290 2368 55.0
2290 2377 264.0
2291 2315 239.0
2293 2348 576.0
2293 2367 247.0
2294 2332 50.0
2294 2382 335.0
2295 2405 404.0
2296 2298 915.0
2297 2298 860.0
2298 2343 289.0
2298 2369 244.0
2299 2300 106.0
2299 2407 68.0
2300 2407 336.0
2301 2372 898.0
2302 2354 887.0
2303 2348 542.0
2303 2408 445.0
2304 2354 533.0
2305 2310 991.0
2307 2330 615.0
2308 2388 433.0
2308 2415 347.0
2309 2383 820.0
2309 2388 819.0
2311 2346 534.0
2312 2364 914.0
2312 4837 486.0
2314 2321 805.0
2314 2359 454.0
2316 2317 634.0
2317 2370 8.0
2318 2327 202.0
2318 2332 113.0
2319 2321 740.0
2319 2366 477.0
2320 2321 858.0
2321 2322 455.0
2321 2323 631.0
2321 2324 13.0
2321 2393 451.0
2325 2358 633.0
2325 2406 245.0
2326 2329 343.0
2327 2328 306.0
2327 2329 364.0
2327 2352 898.0
2327 2380 929.0
2327 2420 30.0
2328 2329 258.0
2328 2383 945.0
2330 2405 496.0
2331 2392 866.0
2332 2373 440.0
2332 2389 562.0
2333 2381 290.0
2335 2349 459.0
2335 2371 402.0
2336 2338 829.0
2336 2367 133.0
2336 2374 832.0
2337 2357 828.0
2337 2404 544.0
2339 2388 614.0
2339 2419 226.0
2340 2363 601.0
2340 2401 922.0
2341 2382 47.0
2342 2363 893.0
2342 4035 367.0
2343 2344 895.0
2345 2346 48.0
2349 2350 609.0
2349 2406 740.0
2351 2364 293.0
2352 2388 422.0
2353 2382 571.0
2353 2388 744.0
2354 2372 429.0
2355 2387 191.0
2355 2411 509.0
2355 4634 798.0
2356 2376 377.0
2356 2402 374.0
2358 2371 911.0
2360 2362 936.0
2362 2363 54.0
2363 2364 991.0
2363 2365 131.0
2365 4859 862.0
2368 2369 680.0
2368 2377 899.0
2368 2389 245.0
2373 2397 221.0
2374 2375 60.0
2374 2378 2.0
2376 2403 649.0
2378 2379 588.0
2378 2386 101.0
2380 2388 256.0
2381 2382 319.0
2382 2383 628.0
2382 2384 842.0
2382 2385 689.0
2382 2395 251.0
2382 2398 111.0
2382 2419 448.0
2384 2418 634.0
2385 2418 919.0
2386 2408 214.0
2387 4660 774.0
2390 2395 28.0
2391 2394 641.0
2392 2393 152.0
2392 2394 11.0
2392 2405 575.0
2393 2394 486.0
2396 4849 874.0
2397 2398 332.0
2397 2399 352.0
2397 2400 561.0
2409 2410 580.0
2409 4552 295.0
2409 4632 113.0
2409 4649 673.0
2409 4749 142.0
2409 4753 137.0
2413 2414 852.0
2414 4695 522.0
2415 2416 422.0
2421 2422 588.0
2423 4491 473.0
2423 4563 18.0
2424 2425 805.0
2425 2459 768.0
2425 2519 624.0
2426 2485 322.0
2426 2655 35.0
2427 2729 838.0
2427 2730 541.0
2428 2489 34.0
2428 2586 157.0
2428 2656 593.0
2429 2545 169.0
2429 2617 26.0
2430 2595 377.0
2431 2432 578.0
2431 2816 2.0
2432 2590 159.0
2433 2578 609.0
2433 2661 651.0
2434 2436 992.0
2434 2471 563.0
2434 2524 536.0
2434 2588 713.0
2434 2619 500.0
2434 2623 774.0
2434 2624 472.0
2434 2662 287.0
2434 2668 617.0
2434 2698 651.0
2434 2701 155.0
2434 2702 832.0
2435 2490 315.0
2435 2638 523.0
2435 2670 288.0
2436 2586 917.0
2436 2672 762.0
2437 2439 780.0
2438 2439 335.0
2439 2449 387.0
2439 2529 910.0
2439 2596 172.0
2439 2631 227.0
2439 2633 262.0
2439 2639 775.0
2439 2682 942.0
2439 2683 720.0
2439 2885 598.0
2439 2991 421.0
2440 4129 13.0
2440 4148 36.0
2440 4458 968.0
2441 2443 375.0
2442 2443 599.0
2443 2521 702.0
2443 2616 462.0
2443 2627 574.0
2444 2681 559.0
2444 2685 562.0
2444 2707 241.0
2444 2956 57.0
2444 3094 738.0
2445 2604 507.0
2445 2685 524.0
2445 2708 746.0
2446 2502 723.0
2446 2559 140.0
2446 3206 531.0
2447 2457 106.0
2447 2793 368.0
2447 2814 268.0
2447 2967 603.0
2448 2545 765.0
2448 2597 880.0
2449 2687 897.0
2449 3189 982.0
2450 2451 894.0
2450 2576 264.0
2450 2717 670.0
2450 2719 175.0
2450 3043 666.0
2452 2551 62.0
2452 2561 375.0
2452 2694 373.0
2453 2454 556.0
2454 2560 353.0
2454 2586 839.0
2454 2697 69.0
2455 2709 828.0
2455 2838 811.0
2455 3105 542.0
2455 3228 742.0
2456 2458 320.0
2456 2617 621.0
2456 2709 560.0
2457 2458 573.0
2457 2793 810.0
2457 2930 121.0
2457 3004 230.0
2457 3011 661.0
2458 2459 394.0
2458 2487 306.0
2458 2525 118.0
2458 2593 372.0
2458 2617 564.0
2458 2677 628.0
2458 2703 779.0
2459 2558 347.0
2459 2591 943.0
2459 2593 111.0
2459 2599 55.0
2460 2461 702.0
2461 2586 630.0
2461 2590 882.0
2462 2463 357.0
2463 2654 7.0
2463 2991 151.0
2464 2486 687.0
2464 2543 247.0
2464 2712 959.0
2464 2713 808.0
2465 2716 977.0
2465 2717 562.0
2465 2939 193.0
2465 3244 719.0
2465 3279 887.0
2466 2717 770.0
2467 2717 904.0
2468 2527 11.0
2468 2561 437.0
2468 2718 887.0
2469 2596 617.0
2469 2639 69.0
2469 2723 741.0
2470 2471 560.0
2471 2966 616.0
2472 2493 25.0
2472 2588 349.0
2472 3216 951.0
2473 2476 897.0
2473 2477 604.0
2473 2645 501.0
2474 2475 143.0
2474 2476 680.0
2474 2477 126.0
2474 2483 745.0
2474 2552 698.0
2474 2559 140.0
2474 2642 301.0
2475 2503 467.0
2475 2519 356.0
2475 2558 668.0
2475 2591 667.0
2476 3217 686.0
2477 3218 752.0
2478 2810 901.0
2478 2864 485.0
2479 2480 478.0
2479 2481 895.0
2479 2555 704.0
2480 2482 345.0
2480 2591 832.0
2483 2559 48.0
2483 3219 145.0
2484 2505 760.0
2484 2736 927.0
2484 3090 363.0
2484 3091 139.0
2485 2496 523.0
2485 2548 483.0
2485 2561 475.0
2485 2741 34.0
2485 2743 115.0
2485 2764 221.0
2485 2958 253.0
2486 2528 862.0
2486 2543 502.0
2486 2743 258.0
2487 2617 628.0
2487 2632 657.0
2488 2489 619.0
2488 2576 537.0
2488 2989 359.0
2488 3214 587.0
2488 3252 582.0
2489 2521 471.0
2489 2583 757.0
2489 2586 608.0
2489 3060 301.0
2489 3115 303.0
2490 2495 983.0
2490 2498 476.0
2490 2730 685.0
2490 2948 505.0
2490 3017 533.0
2491 2759 1000.0
2492 2493 135.0
2492 2643 257.0
2492 2646 156.0
2493 2588 546.0
2493 2627 542.0
2493 3014 493.0
2493 3016 205.0
2493 3224 307.0
2493 3225 365.0
2494 2561 97.0
2494 2760 191.0
2494 3017 773.0
2495 2761 150.0
2495 2762 934.0
2495 2763 444.0
2496 2766 666.0
2496 3017 145.0
2497 2595 986.0
2497 2767 647.0
2497 2769 417.0
2497 3172 834.0
2498 2513 593.0
2498 2729 57.0
2498 2769 712.0
2499 2538 517.0
2499 2544 471.0
2499 3078 589.0
2500 2530 347.0
2500 2579 878.0
2500 2775 648.0
2500 2776 731.0
2500 3113 80.0
2500 3271 635.0
2501 2502 738.0
2501 2643 18.0
2501 2645 590.0
2502 2503 25.0
2502 2552 638.0
2502 3016 97.0
2502 3226 179.0
2502 3227 876.0
2503 2611 142.0
2504 2604 164.0
2504 2609 113.0
2504 2782 46.0
2505 2522 277.0
2505 2783 17.0
2505 2785 392.0
2505 3049 826.0
2506 2622 980.0
2506 2777 589.0
2506 2802 864.0
2507 2508 684.0
2508 2519 553.0
2508 2613 676.0
2509 2510 710.0
2509 2511 749.0
2509 2616 957.0
2509 2627 740.0
2512 3229 771.0
2513 2795 60.0
2513 3017 84.0
2514 2515 617.0
2514 2595 743.0
2515 2595 390.0
2515 2810 286.0
2515 3036 27.0
2515 3231 764.0
2516 2517 296.0
2516 2518 458.0
2516 2519 433.0
2519 2558 165.0
2519 2599 793.0
2519 2602 879.0
2520 2533 941.0
2520 2595 365.0
2520 3005 311.0
2521 2559 721.0
2521 2641 703.0
2521 3233 121.0
2522 2601 960.0
2522 2614 312.0
2522 2617 789.0
2522 2806 602.0
2522 2807 750.0
2522 3045 999.0
2522 3047 554.0
2523 2611 883.0
2524 2586 379.0
2524 2813 589.0
2525 2617 879.0
2526 3234 29.0
2527 2561 412.0
2527 2600 66.0
2527 2789 884.0
2527 2804 501.0
2527 2815 46.0
2528 2543 748.0
2528 2549 171.0
2528 2606 704.0
2528 2612 243.0
2528 2804 778.0
2529 2554 493.0
2529 2874 426.0
2529 2917 950.0
2529 3186 514.0
2530 2531 82.0
2530 2579 245.0
2530 2792 456.0
2530 2916 855.0
2530 2918 10.0
2530 3113 349.0
2530 3181 717.0
2531 2636 182.0
2531 2725 782.0
2531 2726 768.0
2532 2557 344.0
2532 2612 733.0
2533 2534 232.0
2533 2542 698.0
2533 2595 731.0
2533 2765 625.0
2533 2821 484.0
2533 2823 703.0
2533 3005 664.0
2533 3112 460.0
2533 3179 461.0
2534 2564 815.0
2534 2659 984.0
2534 2821 552.0
2534 2823 14.0
2534 3017 552.0
2535 2536 82.0
2536 2629 87.0
2536 2701 891.0
2537 2548 721.0
2537 2841 633.0
2537 3055 895.0
2538 2539 930.0
2538 2544 949.0
2538 2550 557.0
2538 2551 49.0
2538 2554 243.0
2538 2920 181.0
2538 3123 889.0
2538 3124 394.0
2539 2549 54.0
2539 2606 626.0
2540 2828 859.0
2541 2583 782.0
2541 2828 780.0
2542 2728 784.0
2542 2765 632.0
2542 2834 152.0
2542 2835 935.0
2542 2836 200.0
2542 2952 829.0
2542 2997 616.0
2542 3068 394.0
2542 3112 250.0
2542 3174 850.0
2542 3207 543.0
2543 2832 667.0
2543 4219 476.0
2544 2791 569.0
2544 2843 501.0
2544 2844 686.0
2544 2920 662.0
2544 2923 237.0
2545 2554 400.0
2545 2592 477.0
2545 2637 309.0
2545 2858 144.0
2545 2860 884.0
2545 2862 156.0
2545 3154 850.0
2546 2548 367.0
2547 2548 581.0
2548 2847 258.0
2548 2848 722.0
2548 2958 786.0
2548 3055 948.0
2549 2551 154.0
2549 2855 785.0
2549 2856 425.0
2550 2551 919.0
2550 2561 796.0
2550 2849 62.0
2550 2850 813.0
2550 2853 128.0
2550 2854 475.0
2551 2852 487.0
2552 3292 625.0
2553 2721 204.0
2553 2801 779.0
2553 2809 943.0
2553 2843 784.0
2553 2845 346.0
2553 2870 243.0
2553 2871 330.0
2553 2872 836.0
2553 2874 904.0
2553 2908 249.0
2553 2922 487.0
2553 2971 333.0
2553 2995 254.0
2553 2999 822.0
2553 3096 492.0
2553 3128 992.0
2553 3141 783.0
2553 3149 565.0
2553 3284 540.0
2554 2575 408.0
2554 2596 478.0
2554 2608 4.0
2554 2870 948.0
2554 2871 47.0
2554 2872 16.0
2554 3187 742.0
2556 2621 487.0
2556 4099 171.0
2556 4317 415.0
2557 2558 723.0
2559 2627 104.0
2559 3242 83.0
2559 3243 70.0
2560 2604 488.0
2560 2882 365.0
2561 2826 66.0
2561 2883 933.0
2561 2900 832.0
2562 4129 860.0
2562 4445 903.0
2562 4448 368.0
2562 4461 349.0
2563 2620 750.0
2563 2790 223.0
2563 3146 670.0
2563 3147 840.0
2564 2658 916.0
2564 2892 748.0
2565 2677 836.0
2565 2817 579.0
2565 2894 473.0
2565 2941 515.0
2566 2567 160.0
2567 2593 27.0
2567 2941 37.0
2568 2895 763.0
2569 2593 597.0
2569 2666 649.0
2569 2895 100.0
2570 2896 355.0
2571 2898 998.0
2572 2593 331.0
2572 2898 292.0
2572 2899 619.0
2573 2899 465.0
2574 2575 313.0
2574 2692 471.0
2574 2812 917.0
2574 2906 508.0
2574 2936 768.0
2574 2972 739.0
2574 3097 728.0
2574 3281 744.0
2575 2581 188.0
2575 2592 859.0
2575 2597 82.0
2575 2601 560.0
2575 2733 786.0
2575 2794 439.0
2575 2904 128.0
2575 2905 725.0
2575 2907 693.0
2575 2964 55.0
2575 3154 363.0
2576 2989 892.0
2576 3043 834.0
2576 3205 713.0
2576 3277 529.0
2577 2588 349.0
2577 2641 787.0
2577 3014 750.0
2577 3247 334.0
2577 3248 199.0
2578 2586 773.0
2578 2902 873.0
2579 2580 825.0
2579 3113 575.0
2582 2583 354.0
2584 2596 356.0
2584 2608 95.0
2584 2908 514.0
2585 2586 293.0
2585 2674 765.0
2585 2710 203.0
2585 2717 336.0
2585 2720 181.0
2585 2722 522.0
2585 2880 97.0
2585 2889 984.0
2585 2911 421.0
2585 3095 946.0
2585 3158 438.0
2585 3199 576.0
2585 3215 878.0
2586 2604 29.0
2586 2911 667.0
2587 2588 376.0
2589 3251 846.0
2590 2912 530.0
2593 2704 592.0
2593 2909 336.0
2594 2605 348.0
2594 2909 964.0
2595 3005 602.0
2595 3157 187.0
2595 3179 994.0
2596 2918 932.0
2596 2927 640.0
2596 2928 919.0
2596 2934 893.0
2597 2917 235.0
2598 2599 156.0
2600 2933 992.0
2601 2936 287.0
2601 2964 728.0
2601 3049 890.0
2603 2608 233.0
2603 2943 569.0
2603 3115 231.0
2604 2609 388.0
2604 2953 263.0
2604 2955 510.0
2604 2956 978.0
2605 2606 542.0
2605 2618 588.0
2605 2953 267.0
2606 2607 389.0
2606 2612 4.0
2606 2618 163.0
2606 2960 359.0
2607 2608 394.0
2607 2611 346.0
2607 2654 612.0
2607 2733 213.0
2607 2794 951.0
2607 2959 702.0
2607 3188 386.0
2608 2623 962.0
2608 2624 544.0
2608 2651 677.0
2608 2790 648.0
2608 2960 715.0
2608 3060 542.0
2609 2963 893.0
2610 2640 379.0
2611 2612 163.0
2611 3288 603.0
2611 3289 379.0
2614 2617 377.0
2614 2970 829.0
2615 2616 239.0
2616 3266 241.0
2617 2637 647.0
2617 2885 207.0
2617 2886 586.0
2617 2973 214.0
2617 2974 989.0
2618 2974 489.0
2619 2966 497.0
2619 2976 372.0
2620 2789 150.0
2620 2978 109.0
2621 4172 915.0
2621 4265 740.0
2621 4317 512.0
2622 2638 550.0
2622 2702 248.0
2622 2993 475.0
2623 2979 967.0
2624 2980 672.0
2625 2627 406.0
2626 2627 182.0
2628 2982 167.0
2628 2990 849.0
2629 2948 901.0
2629 2986 499.0
2629 2987 362.0
2630 3272 988.0
2631 2634 24.0
2631 3283 43.0
2632 3204 51.0
2633 3187 85.0
2635 2638 910.0
2636 2934 54.0
2640 2965 403.0
2640 2966 433.0
2641 3208 377.0
2643 2644 654.0
2643 3212 500.0
2644 2648 403.0
2644 3236 686.0
2644 3237 949.0
2645 2647 13.0
2645 2648 893.0
2645 3239 554.0
2645 3240 801.0
2646 2648 234.0
2646 3254 442.0
2647 2649 827.0
2647 3255 111.0
2647 3256 103.0
2647 3257 614.0
2647 3258 143.0
2647 3259 235.0
2647 3260 783.0
2648 2649 38.0
2648 3261 254.0
2649 3273 841.0
2649 3274 22.0
2650 3288 808.0
2650 3289 859.0
2651 3114 210.0
2652 2760 521.0
2652 2795 472.0
2653 3040 285.0
2653 3188 473.0
2654 3019 820.0
2655 2740 687.0
2655 2766 177.0
2655 2825 750.0
2655 3176 871.0
2655 3178 972.0
2656 2669 86.0
2656 3155 175.0
2657 2693 528.0
2657 2908 639.0
2657 2916 10.0
2657 2918 956.0
2657 3077 755.0
2658 2667 450.0
2659 2759 852.0
2660 3024 136.0
2660 3201 896.0
2662 2668 729.0
2662 2684 461.0
2662 2705 669.0
2662 2813 254.0
2662 2819 121.0
2662 2837 910.0
2662 2944 291.0
2662 2959 230.0
2662 2969 166.0
2662 3104 912.0
2662 3200 337.0
2663 2668 729.0
2664 2799 888.0
2665 2799 563.0
2666 2788 606.0
2670 2795 475.0
2670 3005 79.0
2670 3008 38.0
2670 3221 424.0
2671 2780 443.0
2671 2796 898.0
2671 3001 613.0
2671 3004 308.0
2671 3026 676.0
2671 3143 887.0
2672 2673 338.0
2672 2674 152.0
2674 2710 173.0
2674 2890 967.0
2674 3215 459.0
2675 2914 195.0
2676 2677 392.0
2678 2714 796.0
2678 2942 196.0
2679 2680 887.0
2680 2984 147.0
2684 2813 903.0
2685 2686 970.0
2686 2778 99.0
2686 3003 688.0
2687 2758 28.0
2687 2846 236.0
2687 2936 904.0
2687 3050 217.0
2687 3098 123.0
2687 3099 784.0
2688 3090 348.0
2689 3091 846.0
2690 2691 719.0
2691 2837 790.0
2691 2891 720.0
2691 2942 579.0
2692 2936 88.0
2692 2972 817.0
2692 3145 518.0
2692 3180 283.0
2692 3262 758.0
2693 2908 237.0
2693 3077 900.0
2693 3171 372.0
2693 3286 838.0
2694 2921 836.0
2694 3021 115.0
2694 3022 354.0
2694 3029 521.0
2695 2979 747.0
2696 2703 31.0
2696 2787 708.0
2697 2881 820.0
2697 3093 204.0
2697 3133 651.0
2697 3134 334.0
2697 3190 207.0
2697 3270 278.0
2698 2699 552.0
2700 2709 197.0
2700 3268 957.0
2702 3067 966.0
2703 2745 883.0
2703 2787 349.0
2703 3012 908.0
2704 2896 547.0
2704 3103 437.0
2706 2810 730.0
2706 2840 434.0
2710 3199 178.0
2710 3215 114.0
2711 2957 946.0
2711 3210 705.0
2711 3220 757.0
2711 3263 861.0
2714 2942 36.0
2715 2811 126.0
2715 2971 740.0
2715 2978 281.0
2715 3057 516.0
2716 3244 268.0
2716 3279 648.0
2717 2719 287.0
2717 2720 78.0
2717 3158 50.0
2717 4022 628.0
2717 4023 568.0
2721 2723 923.0
2722 2757 326.0
2722 2880 23.0
2722 2889 104.0
2722 2973 16.0
2723 2846 641.0
2724 2755 596.0
2724 2756 352.0
2724 2779 261.0
2724 2838 234.0
2724 2839 753.0
2724 2857 816.0
2724 3105 856.0
2725 2726 287.0
2725 3061 849.0
2726 3061 939.0
2727 2781 727.0
2727 3009 258.0
2727 3287 690.0
2728 2952 882.0
2728 3062 484.0
2728 3207 635.0
2728 3265 516.0
2729 2731 562.0
2730 2732 759.0
2733 3064 965.0
2734 2738 17.0
2735 2827 54.0
2736 2737 4.0
2736 2738 756.0
2736 2806 961.0
2736 3010 708.0
2737 2738 100.0
2737 2779 559.0
2737 3193 241.0
2739 2740 428.0
2739 2741 861.0
2740 2760 949.0
2740 2766 206.0
2740 2883 332.0
2740 2932 683.0
2740 3041 368.0
2740 3042 420.0
2741 2742 310.0
2743 2744 593.0
2745 3012 999.0
2746 3081 46.0
2747 3082 384.0
2748 3083 484.0
2749 3084 569.0
2750 3085 313.0
2751 3086 321.0
2752 3087 526.0
2753 3088 115.0
2754 3089 482.0
2756 2857 619.0
2757 2889 107.0
2758 3099 583.0
2760 2795 49.0
2760 2840 445.0
2760 2878 118.0
2760 2883 290.0
2760 3041 899.0
2764 2765 574.0
2764 3017 28.0
2765 3112 247.0
2766 3100 425.0
2767 2768 140.0
2769 2770 831.0
2771 2772 796.0
2771 2780 534.0
2771 2781 445.0
2773 3002 303.0
2774 2981 415.0
2774 3003 719.0
2778 2842 180.0
2779 2838 213.0
2779 2839 566.0
2779 2857 558.0
2780 2781 934.0
2780 3004 1000.0
2780 3011 831.0
2781 2967 369.0
2781 2968 31.0
2781 3001 713.0
2781 3009 27.0
2783 2784 624.0
2783 2785 942.0
2783 3076 788.0
2784 2785 828.0
2786 2787 431.0
2787 2977 295.0
2787 3267 974.0
2791 2792 980.0
2791 2923 495.0
2792 2916 387.0
2792 3286 918.0
2793 3012 735.0
2794 3108 214.0
2796 2839 684.0
2796 3026 226.0
2796 3110 918.0
2796 3152 48.0
2797 2798 10.0
2797 2800 127.0
2797 3175 828.0
2798 2800 569.0
2798 2820 255.0
2798 2997 60.0
2798 3150 749.0
2798 3211 619.0
2798 3222 1000.0
2798 3253 181.0
2799 2800 940.0
2799 2946 667.0
2799 2947 168.0
2800 2820 966.0
2800 2997 830.0
2800 3150 251.0
2800 3151 204.0
2800 3211 862.0
2800 3222 567.0
2800 3253 208.0
2801 2922 262.0
2801 2995 953.0
2801 3284 163.0
2803 2982 475.0
2804 2805 82.0
2806 3010 771.0
2806 3238 177.0
2807 3168 535.0
2808 2842 664.0
2809 2843 524.0
2810 2840 904.0
2810 2864 232.0
2810 2986 466.0
2810 3036 261.0
2811 2971 961.0
2813 2903 315.0
2813 2976 145.0
2813 3079 572.0
2813 3116 341.0
2814 2967 75.0
2814 2977 415.0
2814 2983 411.0
2814 3012 206.0
2815 2878 209.0
2815 3106 252.0
2815 3142 942.0
2815 3198 867.0
2817 2818 392.0
2819 2837 93.0
2819 2866 256.0
2819 2944 926.0
2819 2959 30.0
2819 3131 184.0
2819 3200 663.0
2820 2825 450.0
2820 2865 572.0
2820 2952 207.0
2821 2822 216.0
2823 2824 360.0
2825 2865 721.0
2825 2952 175.0
2825 3177 677.0
2825 3178 65.0
2826 3017 552.0
2827 2828 399.0
2829 2834 490.0
2830 2835 585.0
2831 2836 489.0
2832 2833 339.0
2837 2944 8.0
2837 2969 774.0
2837 3104 341.0
2837 3131 810.0
2838 2839 18.0
2838 2857 967.0
2838 3228 388.0
2839 3152 357.0
2839 3250 339.0
2840 2878 405.0
2840 2883 63.0
2840 3025 981.0
2841 2932 154.0
2841 2935 34.0
2842 2940 861.0
2842 2981 839.0
2842 3195 374.0
2843 2908 211.0
2843 3096 782.0
2845 2971 477.0
2846 2858 576.0
2846 2860 757.0
2846 2862 366.0
2846 2936 824.0
2846 3018 599.0
2846 3173 303.0
2846 3213 67.0
2847 2932 455.0
2849 2851 353.0
2850 2851 588.0
2851 2852 721.0
2851 2914 932.0
2851 2937 982.0
2851 3038 61.0
2851 3126 700.0
2851 3130 726.0
2851 3156 421.0
2851 3276 583.0
2852 3126 829.0
2852 3130 962.0
2852 3156 160.0
2852 3275 390.0
2852 3276 793.0
2852 3278 613.0
2857 3080 687.0
2858 2859 735.0
2860 2861 771.0
2862 2863 864.0
2864 3028 925.0
2864 3120 870.0
2864 3122 80.0
2865 2952 287.0
2866 2959 671.0
2867 2976 885.0
2868 3135 727.0
2869 3136 528.0
2870 2876 126.0
2871 2877 615.0
2872 2873 696.0
2874 2875 247.0
2874 2917 305.0
2874 3186 283.0
2878 2883 418.0
2878 2986 623.0
2878 3153 867.0
2878 3198 728.0
2879 2881 189.0
2879 3111 130.0
2879 3117 177.0
2880 2882 529.0
2880 2889 442.0
2880 2998 261.0
2880 3095 116.0
2880 3197 544.0
2880 3230 889.0
2881 2882 98.0
2881 3111 930.0
2881 3117 374.0
2881 3190 618.0
2883 2900 649.0
2883 2986 348.0
2883 3041 858.0
2883 3153 294.0
2884 3058 440.0
2884 3146 900.0
2884 3147 104.0
2885 2887 786.0
2886 2888 60.0
2886 3189 292.0
2891 2942 733.0
2893 2894 884.0
2893 2996 112.0
2893 3000 216.0
2893 3245 728.0
2896 2897 665.0
2897 3023 744.0
2900 2901 280.0
2903 2976 200.0
2908 2918 273.0
2908 3096 165.0
2909 2910 738.0
2913 2923 154.0
2914 3038 142.0
2914 3156 985.0
2914 3276 155.0
2914 3280 645.0
2915 2965 965.0
2915 3138 106.0
2916 2918 842.0
2916 2926 923.0
2917 3186 606.0
2918 2926 782.0
2918 2927 389.0
2918 2928 292.0
2918 3181 206.0
2919 3167 136.0
2922 3051 945.0
2924 2925 70.0
2924 2937 923.0
2924 2938 902.0
2926 2929 582.0
2927 3163 257.0
2928 3164 381.0
2931 3047 892.0
2932 2935 219.0
2932 3020 441.0
2932 3041 842.0
2932 3042 992.0
2932 3174 662.0
2936 2972 409.0
2936 3033 299.0
2936 3034 812.0
2936 3173 279.0
2936 3241 921.0
2937 2938 885.0
2937 3156 881.0
2938 2994 974.0
2938 3140 923.0
2939 3169 254.0
2939 3223 430.0
2939 4024 676.0
2941 3170 178.0
2943 2980 4.0
2944 2945 52.0
2944 3131 639.0
2944 3200 506.0
2949 2950 224.0
2951 2997 779.0
2952 3035 571.0
2952 3265 223.0
2953 2954 58.0
2955 2956 516.0
2955 2957 958.0
2956 3094 808.0
2957 3263 964.0
2959 3063 907.0
2959 3109 298.0
2959 3121 931.0
2959 3148 482.0
2959 3161 34.0
2960 2961 29.0
2962 2963 725.0
2964 3066 283.0
2967 2968 486.0
2967 3011 329.0
2969 3104 21.0
2970 3132 569.0
2971 2978 762.0
2973 3052 633.0
2974 2975 898.0
2977 2983 916.0
2977 3203 2.0
2977 3267 894.0
2978 3191 716.0
2978 3192 860.0
2979 3054 873.0
2981 3003 963.0
2983 3232 79.0
2983 3235 834.0
2984 2985 919.0
2984 2990 457.0
2986 3107 151.0
2986 3153 826.0
2987 3122 251.0
2988 2990 334.0
2991 3196 143.0
2992 3197 359.0
2993 3118 207.0
2993 3119 788.0
2996 3245 802.0
2997 3211 511.0
2998 3197 84.0
2998 3230 872.0
3001 3002 148.0
3001 3143 945.0
3004 3125 556.0
3005 3008 802.0
3005 3056 693.0
3005 3157 909.0
3005 3221 383.0
3006 3007 9.0
3007 3247 59.0
3008 3209 304.0
3008 3221 176.0
3008 3269 861.0
3009 3165 925.0
3009 3264 27.0
3010 3238 597.0
3013 3014 609.0
3015 3016 991.0
3018 3173 521.0
3018 3213 613.0
3020 3174 23.0
3024 3071 346.0
3027 3048 978.0
3027 3049 859.0
3028 3122 314.0
3030 3128 162.0
3030 3129 973.0
3030 3284 839.0
3031 3101 582.0
3032 3102 795.0
3033 3034 840.0
3037 3041 10.0
3038 3276 865.0
3039 3105 997.0
3041 3042 847.0
3044 3045 678.0
3044 3075 594.0
3044 3137 864.0
3046 3047 290.0
3046 3073 890.0
3046 3135 544.0
3050 3098 250.0
3053 3197 723.0
3059 3128 638.0
3059 3129 250.0
3063 3109 30.0
3063 3148 734.0
3065 3159 518.0
3065 3186 152.0
3065 3202 362.0
3069 3070 948.0
3069 3084 576.0
3069 3167 938.0
3070 3073 652.0
3070 3089 779.0
3071 3086 537.0
3071 3137 162.0
3071 3201 680.0
3072 3073 117.0
3072 3081 368.0
3072 3166 749.0
3074 3075 98.0
3074 3083 725.0
3074 3085 944.0
3075 3088 759.0
3079 3116 468.0
3082 3101 616.0
3087 3102 937.0
3090 3101 933.0
3091 3102 442.0
3092 3127 855.0
3092 3128 103.0
3097 3281 419.0
3109 3148 967.0
3111 3117 223.0
3117 3144 322.0
3117 3246 647.0
3118 3119 922.0
3121 3161 711.0
3122 3249 47.0
3123 3128 967.0
3124 3128 992.0
3126 3130 591.0
3127 3128 415.0
3127 3129 152.0
3128 3129 306.0
3128 3149 437.0
3128 3284 967.0
3129 3284 214.0
3133 3134 741.0
3133 3270 281.0
3134 3270 391.0
3136 3137 226.0
3139 3156 270.0
3141 3284 434.0
3144 3246 406.0
3145 3180 63.0
3152 3250 956.0
3159 3186 274.0
3159 3202 376.0
3160 3174 724.0
3162 3197 159.0
3171 3286 924.0
3173 3213 201.0
3174 3194 887.0
3182 3189 236.0
3183 3188 891.0
3184 3187 300.0
3185 3186 641.0
3186 3202 534.0
3188 3283 233.0
3197 3230 139.0
3205 3277 441.0
3209 3269 155.0
3214 3252 169.0
3217 3218 351.0
3219 3272 478.0
3229 3266 993.0
3232 3235 736.0
3234 3251 317.0
3234 3266 424.0
3244 3279 290.0
3251 3266 3.0
3275 3276 205.0
3281 3282 890.0
3285 3286 218.0
3288 3290 102.0
3289 3291 509.0
3293 3411 640.0
3293 3488 49.0
3293 3593 914.0
3294 3295 741.0
3294 3334 609.0
3294 3388 749.0
3294 3552 413.0
3295 3314 315.0
3295 4861 314.0
3296 3297 517.0
3296 3325 672.0
3296 3433 676.0
3296 3506 940.0
3296 3568 739.0
3297 3310 156.0
3297 3326 121.0
3297 3333 586.0
3298 3299 221.0
3298 3538 794.0
3299 3314 515.0
3299 3329 333.0
3299 3440 240.0
3299 3441 463.0
3299 3558 782.0
3300 3446 828.0
3301 3446 913.0
3301 3622 813.0
3301 3708 324.0
3302 3450 354.0
3302 3631 652.0
3302 3672 584.0
3303 3468 463.0
3304 3468 578.0
3305 3468 352.0
3306 3467 944.0
3307 3344 911.0
3307 3420 799.0
3307 3469 426.0
3307 3470 241.0
3307 3540 235.0
3307 3627 283.0
3307 3652 983.0
3308 3474 992.0
3308 3580 472.0
3308 3596 279.0
3308 3654 217.0
3308 3692 476.0
3309 3310 512.0
3309 3464 960.0
3309 3465 444.0
3309 3645 353.0
3310 3333 660.0
3310 3357 500.0
3310 3460 132.0
3310 3477 342.0
3310 3478 52.0
3310 3484 399.0
3311 3312 920.0
3311 3455 703.0
3312 3321 18.0
3312 3333 489.0
3312 3336 735.0
3312 3351 490.0
3312 3359 460.0
3312 3484 942.0
3312 3593 366.0
3312 3632 162.0
3312 3697 890.0
3313 3314 322.0
3313 3693 218.0
3314 3435 35.0
3315 3355 474.0
3315 3610 400.0
3315 3625 803.0
3315 3656 111.0
3316 3317 600.0
3316 3366 748.0
3316 3483 482.0
3316 3536 659.0
3316 3557 48.0
3316 3620 276.0
3317 3336 564.0
3317 3352 404.0
3317 3392 433.0
3317 3393 47.0
3317 3421 487.0
3317 3724 120.0
3318 3473 25.0
3318 4864 244.0
3319 3418 493.0
3319 3497 845.0
3319 3573 942.0
3319 3574 808.0
3319 3677 517.0
3320 3360 961.0
3320 3542 330.0
3320 3546 938.0
3320 3547 349.0
3320 3607 950.0
3321 3328 962.0
3321 3471 312.0
3321 3632 199.0
3321 3698 982.0
3322 3323 636.0
3322 3454 288.0
3322 3668 888.0
3322 4830 104.0
3323 3331 192.0
3323 3345 468.0
3324 3342 600.0
3324 3564 273.0
3325 3572 608.0
3326 3576 421.0
3327 3328 12.0
3327 3713 143.0
3327 3740 42.0
3328 3561 121.0
3328 3742 830.0
3329 3365 284.0
3329 3466 379.0
3329 3472 274.0
3329 3498 80.0
3329 3558 765.0
3329 3582 242.0
3329 3586 905.0
3329 3587 415.0
3330 3331 549.0
3330 3580 702.0
3330 3581 91.0
3330 3705 203.0
3331 3435 982.0
3331 3697 641.0
3331 4603 1.0
3331 4831 77.0
3332 3333 785.0
3332 3616 355.0
3332 3722 216.0
3333 4876 410.0
3334 3629 561.0
3334 4759 774.0
3335 3336 371.0
3336 3351 5.0
3336 4655 82.0
3337 3349 875.0
3337 3429 328.0
3337 3628 544.0
3337 3672 387.0
3337 4865 944.0
3338 3634 624.0
3339 3643 351.0
3340 3342 271.0
3341 3342 649.0
3341 3529 988.0
3341 4875 867.0
3342 3413 741.0
3342 4876 120.0
3343 3573 173.0
3343 3574 834.0
3343 3583 49.0
3343 3638 722.0
3343 3639 762.0
3343 3647 783.0
3343 3648 383.0
3343 3659 583.0
3344 3472 259.0
3344 3647 176.0
3344 3648 537.0
3345 3403 963.0
3345 3622 851.0
3345 4888 129.0
3346 3360 208.0
3346 3709 240.0
3347 3348 610.0
3347 3349 530.0
3347 3402 269.0
3347 3661 678.0
3347 3678 125.0
3347 3729 320.0
3348 4883 945.0
3349 3663 77.0
3350 3673 754.0
3350 3674 687.0
3350 3688 403.0
3350 3700 132.0
3350 3701 722.0
3351 3561 716.0
3351 3598 427.0
3351 3671 648.0
3351 3673 484.0
3351 3674 159.0
3351 3689 841.0
3351 3702 122.0
3352 3361 112.0
3352 3362 179.0
3352 3365 619.0
3352 3612 825.0
3352 3652 389.0
3352 4582 90.0
3353 3423 515.0
3353 3486 327.0
3353 3563 466.0
3353 3655 202.0
3354 3355 288.0
3355 3432 621.0
3355 3437 697.0
3355 3569 502.0
3355 3601 558.0
3355 3638 277.0
3355 3714 487.0
3355 3715 979.0
3355 3716 841.0
3356 3357 35.0
3356 3590 933.0
3356 3683 586.0
3356 3722 629.0
3356 3723 430.0
3358 3359 677.0
3358 3395 725.0
3358 3725 669.0
3358 3726 206.0
3358 3727 570.0
3359 3466 116.0
3359 3725 737.0
3360 3361 615.0
3360 3730 983.0
3360 4677 891.0
3361 4678 126.0
3362 4476 142.0
3363 3475 186.0
3363 4509 768.0
3364 3579 828.0
3364 4570 155.0
3365 3716 753.0
3367 3368 263.0
3368 3369 978.0
3368 3370 930.0
3369 4875 678.0
3370 3523 403.0
3371 3516 802.0
3371 3567 246.0
3371 3608 774.0
3371 3621 953.0
3372 4878 636.0
3373 3431 825.0
3374 3431 42.0
3375 3431 994.0
3376 3432 472.0
3377 3480 838.0
3378 3379 114.0
3378 3380 171.0
3378 4478 229.0
3381 4850 268.0
3382 3740 75.0
3383 3562 955.0
3384 3591 275.0
3385 4850 497.0
3386 3445 640.0
3387 4878 592.0
3389 3580 160.0
3390 3690 507.0
3391 3694 240.0
3394 3709 39.0
3396 3656 462.0
3397 3656 967.0
3398 3625 227.0
3399 3565 20.0
3399 3675 225.0
3400 3401 967.0
3400 3534 598.0
3400 3609 17.0
3401 3402 114.0
3401 3554 570.0
3401 3686 135.0
3403 3747 53.0
3403 3748 941.0
3404 3456 15.0
3404 3682 681.0
3405 3658 567.0
3406 3410 391.0
3407 3410 516.0
3408 3411 232.0
3409 3411 307.0
3410 3411 355.0
3410 3666 761.0
3410 3677 756.0
3410 3712 234.0
3411 3517 346.0
3411 3519 583.0
3411 3676 950.0
3412 3468 759.0
3412 3626 229.0
3413 3684 863.0
3414 3502 947.0
3414 3551 461.0
3415 3468 115.0
3415 3659 219.0
3416 3417 920.0
3416 3430 510.0
3416 3431 288.0
3417 3431 592.0
3418 3565 782.0
3418 3676 282.0
3419 3627 439.0
3420 3532 768.0
3421 3671 273.0
3422 3528 220.0
3422 3553 360.0
3423 3425 211.0
3423 3426 105.0
3424 3426 81.0
3426 3600 437.0
3426 3733 779.0
3427 3608 317.0
3427 3623 454.0
3428 3429 905.0
3429 3619 246.0
3431 3610 578.0
3431 3695 743.0
3432 3695 907.0
3433 3657 239.0
3434 3529 688.0
3434 3564 5.0
3436 3485 71.0
3436 3567 741.0
3437 3665 929.0
3438 3527 541.0
3438 3588 779.0
3439 3590 577.0
3442 3444 219.0
3442 3614 216.0
3443 3740 10.0
3445 3447 766.0
3445 3448 174.0
3445 3737 475.0
3446 3737 951.0
3449 3545 651.0
3449 3710 408.0
3451 3615 596.0
3452 3497 334.0
3453 3454 70.0
3453 3646 682.0
3454 4845 607.0
3455 3621 604.0
3456 3457 243.0
3456 3458 474.0
3456 3663 397.0
3459 3465 725.0
3461 3462 514.0
3462 3463 149.0
3462 3465 468.0
3463 3464 208.0
3467 3468 620.0
3467 3502 494.0
3467 3503 629.0
3467 3527 587.0
3467 3620 184.0
3468 3469 70.0
3468 3470 90.0
3468 3479 941.0
3468 3526 322.0
3468 3591 464.0
3468 3592 725.0
3468 3613 873.0
3468 3614 220.0
3471 3598 446.0
3473 3544 646.0
3476 3710 472.0
3480 3481 529.0
3480 3699 255.0
3482 3536 792.0
3483 3739 96.0
3484 3485 950.0
3484 3684 653.0
3485 3486 40.0
3485 3567 406.0
3486 3487 566.0
3486 3560 400.0
3486 3733 131.0
3487 3679 192.0
3488 3498 960.0
3489 3545 777.0
3489 3737 582.0
3490 3491 938.0
3491 3675 911.0
3491 3727 15.0
3492 3650 15.0
3493 3496 356.0
3493 3499 957.0
3493 3500 896.0
3494 3499 565.0
3494 3501 300.0
3494 3734 501.0
3495 3500 97.0
3495 3501 60.0
3495 3735 257.0
3497 3499 266.0
3497 3500 805.0
3497 3501 94.0
3497 3525 837.0
3497 3626 186.0
3498 3515 407.0
3498 3627 794.0
3503 3550 801.0
3504 3696 945.0
3504 3732 259.0
3505 3506 974.0
3506 3616 610.0
3507 3510 377.0
3508 3513 298.0
3509 3511 457.0
3510 3512 471.0
3511 3512 276.0
3511 3513 987.0
3511 3563 101.0
3511 3738 61.0
3512 3560 834.0
3512 3564 269.0
3514 3550 218.0
3514 3551 15.0
3514 3700 870.0
3514 3701 228.0
3515 3742 756.0
3517 3520 363.0
3517 3584 782.0
3518 3666 331.0
3521 3557 704.0
3522 3571 497.0
3522 3739 172.0
3523 3623 467.0
3524 3525 807.0
3525 3637 667.0
3526 3665 573.0
3530 3531 336.0
3530 3703 183.0
3532 3670 460.0
3533 3706 46.0
3535 3717 183.0
3536 3703 373.0
3537 3538 534.0
3537 3746 514.0
3538 3741 539.0
3539 3654 723.0
3540 3724 866.0
3541 3604 664.0
3541 3653 360.0
3541 3667 156.0
3542 3562 59.0
3542 3717 297.0
3543 4862 187.0
3544 3556 69.0
3545 3617 351.0
3545 3618 758.0
3548 3612 280.0
3549 3706 73.0
3552 3692 609.0
3553 3675 140.0
3554 3651 28.0
3555 3605 769.0
3555 3609 951.0
3556 3708 590.0
3559 3579 908.0
3562 3744 781.0
3563 3564 369.0
3564 3655 32.0
3565 3675 969.0
3566 3719 16.0
3568 3577 294.0
3568 3731 867.0
3569 3588 177.0
3570 3601 666.0
3571 3601 562.0
3572 3589 495.0
3572 3657 938.0
3575 3589 605.0
3576 3577 783.0
3576 3578 861.0
3576 3718 878.0
3576 3731 468.0
3581 3654 468.0
3582 3612 821.0
3583 3625 298.0
3584 3585 433.0
3585 3726 269.0
3590 3624 280.0
3591 3615 419.0
3592 3662 179.0
3594 3726 139.0
3595 3727 176.0
3596 3597 467.0
3597 3693 440.0
3599 3628 429.0
3599 3719 709.0
3600 3738 329.0
3602 3719 160.0
3603 3605 927.0
3603 3660 693.0
3604 3611 863.0
3605 3606 293.0
3607 3709 142.0
3607 3736 627.0
3609 3661 326.0
3611 3669 711.0
3613 3662 790.0
3618 3649 961.0
3619 3705 968.0
3621 3732 336.0
3629 3741 484.0
3630 3631 516.0
3631 3722 870.0
3633 3683 965.0
3633 3722 370.0
3634 3635 548.0
3635 3721 596.0
3636 3637 286.0
3639 3656 894.0
3640 3641 316.0
3641 3678 644.0
3642 4885 418.0
3643 4628 361.0
3644 3645 750.0
3645 3722 803.0
3649 3669 842.0
3649 4885 78.0
3650 3651 304.0
3651 3663 302.0
3658 3686 264.0
3661 3682 580.0
3661 3743 857.0
3664 3726 627.0
3667 3745 445.0
3668 3745 926.0
3670 3702 46.0
3675 3699 311.0
3679 3680 126.0
3679 3681 678.0
3683 3685 596.0
3683 3722 663.0
3685 3723 438.0
3687 3728 121.0
3689 3698 344.0
3690 3691 742.0
3691 3692 559.0
3694 3695 382.0
3696 3697 42.0
3704 3705 658.0
3706 3707 17.0
3707 3708 852.0
3711 3712 743.0
3711 3713 802.0
3720 3737 32.0
3721 3722 761.0
3728 3729 188.0
3747 3748 200.0
3749 3778 657.0
3749 3932 413.0
3750 3762 785.0
3750 3767 521.0
3750 3793 628.0
3751 3762 209.0
3751 3793 3.0
3752 3773 775.0
3752 3804 894.0
3752 3936 410.0
3753 3754 588.0
3753 3755 825.0
3753 3774 650.0
3754 3784 64.0
3755 3778 239.0
3756 3757 209.0
3757 3792 678.0
3757 3930 379.0
3757 3931 446.0
3758 3759 741.0
3758 3792 557.0
3758 3883 26.0
3760 3761 30.0
3761 3784 34.0
3761 3788 26.0
3762 3764 94.0
3762 3788 488.0
3762 3926 242.0
3762 3932 527.0
3762 3935 968.0
3763 3765 765.0
3763 3766 850.0
3763 3789 532.0
3763 3946 387.0
3763 4199 711.0
3766 3801 812.0
3766 3838 97.0
3766 3938 255.0
3767 3838 943.0
3768 3838 485.0
3768 3943 763.0
3769 3770 340.0
3770 3782 284.0
3771 3772 976.0
3771 3783 207.0
3771 3825 1.0
3771 3847 498.0
3773 3795 810.0
3774 3797 161.0
3774 3863 211.0
3775 3776 462.0
3775 3777 861.0
3775 3792 97.0
3775 3809 839.0
3775 3921 815.0
3775 3922 59.0
3776 3797 726.0
3777 3797 955.0
3778 3943 1.0
3779 3781 411.0
3779 3816 447.0
3779 3851 2.0
3779 3855 355.0
3779 3871 729.0
3779 3893 282.0
3780 3781 330.0
3780 3790 379.0
3781 3785 595.0
3781 3798 358.0
3781 3801 804.0
3781 3870 200.0
3782 3870 493.0
3783 3784 654.0
3783 3785 136.0
3783 3836 816.0
3783 3841 912.0
3783 3842 227.0
3783 3868 783.0
3783 3879 618.0
3784 3785 744.0
3784 3797 244.0
3785 3787 630.0
3785 3798 491.0
3785 3905 833.0
3785 4199 995.0
3786 3787 670.0
3786 3857 348.0
3786 3886 520.0
3786 3891 354.0
3786 3896 234.0
3787 3789 696.0
3788 3895 541.0
3788 3935 31.0
3789 3895 159.0
3790 3937 461.0
3791 3792 734.0
3792 3822 319.0
3792 3922 364.0
3793 3794 185.0
3793 3904 883.0
3794 3795 260.0
3795 3802 89.0
3796 3797 441.0
3796 3799 83.0
3796 3854 824.0
3796 3876 259.0
3796 3877 475.0
3796 3887 939.0
3796 3916 824.0
3796 3934 800.0
3797 3800 353.0
3797 3937 577.0
3798 3939 699.0
3798 3940 165.0
3798 3941 261.0
3801 3918 83.0
3802 3803 228.0
3802 3804 672.0
3802 3928 404.0
3802 3936 470.0
3802 3944 734.0
3803 3938 473.0
3803 4199 120.0
3804 3928 518.0
3805 3863 405.0
3805 3864 659.0
3806 3807 497.0
3806 3838 549.0
3807 3844 437.0
3807 3901 992.0
3808 3875 303.0
3808 3894 852.0
3809 3857 106.0
3809 3921 519.0
3809 3930 617.0
3809 3945 358.0
3810 3811 248.0
3810 3821 564.0
3811 3831 412.0
3811 3864 79.0
3812 3813 71.0
3812 3843 615.0
3812 3898 978.0
3813 3838 585.0
3814 3831 711.0
3814 3908 616.0
3815 3819 202.0
3815 3821 735.0
3815 3849 880.0
3816 3817 135.0
3817 3889 616.0
3817 3890 666.0
3818 3880 86.0
3820 3896 105.0
3822 3823 678.0
3822 3881 213.0
3823 3893 33.0
3823 3912 333.0
3823 3913 954.0
3824 3825 401.0
3824 3842 549.0
3825 3903 193.0
3826 3863 645.0
3826 3908 261.0
3826 3918 844.0
3827 3828 24.0
3827 3856 340.0
3827 3944 831.0
3829 3830 837.0
3829 3837 294.0
3829 3895 720.0
3829 3900 762.0
3830 3832 417.0
3830 3895 51.0
3831 3849 498.0
3832 3833 584.0
3833 3919 178.0
3834 3835 475.0
3834 3850 499.0
3834 3855 294.0
3834 3863 368.0
3834 3879 475.0
3836 3907 908.0
3836 3918 679.0
3837 3895 180.0
3838 3839 323.0
3838 3840 571.0
3838 3844 642.0
3838 3862 280.0
3838 3906 820.0
3839 3923 54.0
3840 3843 167.0
3843 3844 839.0
3845 3872 615.0
3845 3873 247.0
3846 3847 972.0
3847 3859 124.0
3848 3895 588.0
3848 3920 997.0
3848 3927 112.0
3850 3851 400.0
3851 3863 6.0
3852 3853 797.0
3853 3856 569.0
3853 3861 663.0
3854 3888 557.0
3855 3912 324.0
3858 3859 508.0
3859 3868 655.0
3860 3902 902.0
3860 3903 509.0
3861 3914 446.0
3862 3901 272.0
3863 3864 450.0
3863 3907 32.0
3865 3866 341.0
3865 3904 637.0
3866 3904 35.0
3866 3906 138.0
3867 3872 350.0
3867 3895 557.0
3869 3870 344.0
3871 3915 179.0
3871 3916 153.0
3872 3895 257.0
3872 3911 259.0
3873 3874 643.0
3873 3929 107.0
3874 3895 677.0
3874 3903 134.0
3875 3878 593.0
3875 3892 232.0
3876 3877 110.0
3877 3916 862.0
3878 3904 570.0
3880 3925 132.0
3881 3882 76.0
3881 3916 394.0
3882 3917 68.0
3883 3910 112.0
3884 3885 782.0
3884 3904 775.0
3885 3904 516.0
3885 3914 167.0
3887 3888 534.0
3887 3890 388.0
3888 3909 218.0
3890 3909 55.0
3891 3902 674.0
3892 3938 146.0
3893 3915 140.0
3894 3904 750.0
3895 3900 990.0
3895 3919 824.0
3895 3920 466.0
3895 3927 345.0
3897 3898 799.0
3897 3923 199.0
3897 3933 948.0
3898 3918 247.0
3899 3900 905.0
3901 3925 550.0
3902 3903 670.0
3903 3927 680.0
3904 3905 911.0
3905 4199 134.0
3908 3925 587.0
3910 3917 908.0
3911 3918 547.0
3913 3922 7.0
3916 3917 517.0
3918 3933 44.0
3923 3924 883.0
3930 3931 722.0
3942 3943 506.0
3947 3973 435.0
3948 3956 556.0
3948 3978 365.0
3948 4012 928.0
3949 3950 72.0
3949 3998 278.0
3950 3975 928.0
3951 3975 907.0
3951 3980 646.0
3952 4040 464.0
3953 3983 697.0
3953 4000 942.0
3954 3966 282.0
3954 3995 297.0
3954 4062 121.0
3954 4064 340.0
3955 3969 872.0
3955 4055 6.0
3955 4056 209.0
3956 3957 299.0
3956 3963 915.0
3957 3965 985.0
3957 3979 466.0
3957 3989 117.0
3957 4008 790.0
3957 4031 43.0
3958 3959 390.0
3958 3999 686.0
3958 4016 913.0
3959 3979 894.0
3959 3997 46.0
3959 4008 940.0
3959 4011 305.0
3960 3962 669.0
3960 4023 29.0
3960 4034 743.0
3961 3962 491.0
3961 4045 880.0
3962 4004 809.0
3962 4047 44.0
3963 3999 47.0
3964 3965 874.0
3965 4002 979.0
3966 3985 576.0
3966 4041 405.0
3966 4063 805.0
3966 4064 64.0
3967 3969 783.0
3968 3969 736.0
3969 3971 103.0
3970 3971 566.0
3970 3972 414.0
3971 4029 27.0
3971 4072 929.0
3972 3992 931.0
3972 4005 965.0
3973 3984 744.0
3973 3995 467.0
3974 4078 448.0
3975 3994 308.0
3976 3979 177.0
3977 3979 952.0
3978 3979 551.0
3979 3980 82.0
3979 4020 775.0
3979 4027 832.0
3981 3983 177.0
3981 4038 460.0
3982 4035 132.0
3982 4067 773.0
3983 4000 975.0
3984 3985 131.0
3985 3986 707.0
3985 3987 505.0
3986 4078 868.0
3988 4006 621.0
3988 4048 722.0
3990 3991 640.0
3990 4025 177.0
3991 4003 515.0
3992 4012 596.0
3992 4013 631.0
3992 4021 602.0
3993 4033 937.0
3994 4068 959.0
3995 4065 984.0
3996 3997 815.0
3996 4016 364.0
3998 4050 287.0
4000 4001 72.0
4000 4020 644.0
4000 4029 681.0
4001 4030 561.0
4002 4020 67.0
4002 4047 663.0
4003 4034 588.0
4004 4036 432.0
4005 4028 969.0
4006 4007 685.0
4007 4049 580.0
4007 4056 75.0
4009 4018 401.0
4009 4037 961.0
4009 4046 566.0
4009 4079 173.0
4010 4036 18.0
4010 4047 926.0
4011 4017 22.0
4012 4028 693.0
4014 4029 895.0
4014 4038 980.0
4015 4025 482.0
4015 4033 990.0
4015 4058 453.0
4018 4037 930.0
4019 4020 447.0
4022 4034 333.0
4024 4026 552.0
4026 4033 542.0
4028 4029 41.0
4029 4031 594.0
4029 4032 650.0
4029 4080 684.0
4030 4031 229.0
4030 4039 102.0
4030 4041 891.0
4033 4034 537.0
4034 4057 127.0
4036 4038 695.0
4036 4039 453.0
4036 4080 697.0
4037 4038 35.0
4038 4080 832.0
4040 4041 728.0
4040 4049 966.0
4041 4042 395.0
4041 4043 972.0
4041 4066 934.0
4044 4045 958.0
4045 4046 130.0
4047 4080 997.0
4048 4049 91.0
4050 4053 65.0
4051 4052 545.0
4051 4053 660.0
4052 4069 26.0
4052 4070 185.0
4054 4055 39.0
4057 4058 340.0
4059 4060 945.0
4059 4061 404.0
4060 4063 638.0
4060 4065 528.0
4060 4071 457.0
4061 4062 169.0
4065 4066 168.0
4067 4068 688.0
4069 4105 283.0
4070 4105 492.0
4072 4073 623.0
4073 4074 930.0
4073 4075 368.0
4073 4076 54.0
4077 4078 794.0
4079 4080 719.0
4081 4086 824.0
4082 4084 16.0
4083 4084 921.0
4084 4086 834.0
4084 4090 798.0
4084 4099 540.0
4085 4086 346.0
4086 4090 829.0
4086 4162 547.0
4087 4166 11.0
4087 4172 168.0
4087 4218 187.0
4087 4267 135.0
4088 4089 803.0
4088 4299 903.0
4089 4187 686.0
4089 4188 786.0
4090 4121 282.0
4090 4160 834.0
4090 4217 896.0
4091 4092 320.0
4092 4116 661.0
4092 4189 860.0
4092 4208 740.0
4093 4102 357.0
4093 4285 520.0
4094 4152 690.0
4094 4279 568.0
4095 4105 742.0
4096 4106 87.0
4097 4136 664.0
4097 4200 696.0
4097 4222 450.0
4097 4245 883.0
4097 4246 692.0
4098 4147 228.0
4098 4281 396.0
4098 4282 624.0
4098 4283 583.0
4099 4110 233.0
4099 4172 240.0
4100 4101 22.0
4100 4241 821.0
4100 4244 417.0
4100 4260 474.0
4101 4206 672.0
4101 4227 927.0
4101 4317 257.0
4102 4151 473.0
4102 4305 268.0
4102 4306 100.0
4103 4104 356.0
4103 4152 551.0
4103 4225 157.0
4105 4106 814.0
4106 4107 362.0
4106 4109 395.0
4106 4144 386.0
4106 4147 495.0
4107 4184 74.0
4108 4109 66.0
4110 4121 819.0
4110 4138 188.0
4110 4156 314.0
4110 4243 163.0
4111 4112 320.0
4111 4173 611.0
4111 4201 880.0
4111 4221 737.0
4111 4268 782.0
4112 4213 777.0
4113 4114 617.0
4114 4148 869.0
4114 4149 529.0
4114 4320 480.0
4115 4172 648.0
4115 4187 602.0
4115 4211 404.0
4117 4118 556.0
4117 4239 239.0
4117 4240 659.0
4118 4124 432.0
4118 4154 206.0
4118 4159 873.0
4119 4120 394.0
4119 4163 403.0
4119 4285 128.0
4119 4458 90.0
4120 4164 703.0
4120 4179 95.0
4121 4143 934.0
4121 4150 988.0
4121 4202 96.0
4122 4124 656.0
4123 4124 705.0
4125 4128 609.0
4126 4128 504.0
4127 4128 406.0
4127 4252 407.0
4128 4186 949.0
4128 4201 705.0
4128 4221 742.0
4128 4317 297.0
4129 4323 382.0
4129 4324 583.0
4130 4131 121.0
4131 4196 154.0
4132 4133 280.0
4132 4156 171.0
4133 4211 118.0
4134 4135 647.0
4134 4138 410.0
4134 4158 321.0
4136 4222 882.0
4137 4138 586.0
4137 4157 790.0
4137 4238 362.0
4137 4259 419.0
4138 4154 367.0
4138 4162 981.0
4138 4224 565.0
4139 4151 104.0
4139 4175 480.0
4140 4143 407.0
4141 4143 368.0
4142 4143 202.0
4144 4146 30.0
4145 4146 223.0
4147 4151 29.0
4147 4171 593.0
4147 4204 384.0
4148 4325 715.0
4149 4173 49.0
4149 4326 694.0
4150 4202 74.0
4151 4152 564.0
4151 4209 636.0
4151 4212 760.0
4151 4215 534.0
4152 4163 165.0
4152 4165 232.0
4153 4154 717.0
4153 4253 332.0
4154 4156 147.0
4154 4159 801.0
4154 4193 360.0
4155 4156 47.0
4155 4242 623.0
4155 4249 747.0
4155 4258 32.0
4156 4194 393.0
4157 4223 223.0
4157 4228 603.0
4157 4229 826.0
4157 4233 794.0
4158 4162 694.0
4158 4230 304.0
4158 4231 73.0
4158 4232 336.0
4160 4206 997.0
4160 4217 741.0
4160 4269 180.0
4161 4162 277.0
4161 4251 880.0
4162 4172 708.0
4162 4193 468.0
4163 4164 544.0
4163 4216 255.0
4164 4174 593.0
4164 4179 371.0
4164 4207 886.0
4164 4219 778.0
4165 4288 596.0
4165 4289 170.0
4166 4181 904.0
4166 4188 537.0
4166 4208 256.0
4166 4214 58.0
4167 4168 943.0
4167 4169 176.0
4167 4196 130.0
4170 4171 667.0
4171 4204 205.0
4172 4193 599.0
4172 4194 695.0
4172 4218 961.0
4174 4207 734.0
4174 4317 443.0
4175 4176 641.0
4175 4280 153.0
4177 4179 518.0
4178 4179 444.0
4180 4182 55.0
4180 4187 654.0
4180 4196 299.0
4180 4290 358.0
4181 4210 29.0
4181 4295 207.0
4181 4296 956.0
4181 4297 464.0
4181 4298 870.0
4182 4183 58.0
4182 4226 987.0
4184 4185 419.0
4186 4300 842.0
4186 4317 724.0
4187 4188 558.0
4187 4196 877.0
4187 4203 284.0
4187 4211 494.0
4187 4218 312.0
4188 4284 485.0
4189 4214 909.0
4190 4193 20.0
4191 4193 695.0
4192 4193 253.0
4193 4234 229.0
4194 4218 716.0
4195 4196 905.0
4195 4254 320.0
4195 4257 283.0
4195 4266 78.0
4197 4199 146.0
4198 4199 150.0
4199 4202 684.0
4199 4206 261.0
4199 4227 648.0
4201 4221 177.0
4202 4304 522.0
4203 4235 165.0
4203 4236 953.0
4203 4256 69.0
4203 4261 244.0
4203 4262 956.0
4204 4286 559.0
4204 4287 457.0
4205 4218 725.0
4206 4207 180.0
4206 4217 936.0
4207 4213 760.0
4209 4308 253.0
4209 4309 931.0
4209 4310 945.0
4209 4311 927.0
4209 4312 441.0
4210 4313 564.0
4210 4314 489.0
4210 4315 618.0
4210 4316 654.0
4212 4305 59.0
4214 4264 392.0
4215 4216 59.0
4218 4219 668.0
4218 4301 2.0
4220 4221 851.0
4221 4222 693.0
4221 4317 593.0
4224 4270 21.0
4224 4271 178.0
4224 4272 30.0
4224 4273 577.0
4224 4274 940.0
4224 4275 838.0
4237 4243 513.0
4246 4247 439.0
4246 4248 805.0
4250 4265 731.0
4255 4264 983.0
4263 4264 610.0
4276 4279 711.0
4277 4279 262.0
4278 4279 417.0
4279 4291 113.0
4284 4321 245.0
4284 4322 84.0
4291 4292 951.0
4291 4293 593.0
4291 4294 382.0
4299 4318 812.0
4299 4319 599.0
4301 4302 129.0
4301 4303 156.0
4305 4307 522.0
4327 4342 557.0
4327 4375 617.0
4327 4387 650.0
4327 4392 577.0
4327 4410 17.0
4328 4331 447.0
4328 4346 257.0
4329 4331 792.0
4329 4377 412.0
4330 4401 646.0
4331 4407 393.0
4332 4335 162.0
4332 4336 280.0
4332 4340 533.0
4332 4347 480.0
4332 4381 608.0
4332 4385 762.0
4332 4391 57.0
4332 4398 977.0
4332 4400 167.0
4332 4402 974.0
4332 4413 451.0
4333 4340 105.0
4333 4355 833.0
4333 4357 273.0
4333 4359 722.0
4333 4383 220.0
4333 4391 370.0
4333 4395 249.0
4334 4335 557.0
4335 4347 206.0
4335 4381 809.0
4335 4398 391.0
4335 4402 840.0
4336 4342 651.0
4336 4345 298.0
4336 4346 236.0
4336 4347 821.0
4336 4361 768.0
4336 4373 838.0
4336 4381 740.0
4336 4395 24.0
4337 4386 37.0
4337 4402 756.0
4338 4342 529.0
4339 4340 25.0
4340 4357 682.0
4340 4395 280.0
4340 4400 37.0
4341 4374 840.0
4341 4376 116.0
4342 4345 374.0
4342 4365 619.0
4342 4368 109.0
4342 4375 612.0
4342 4404 808.0
4342 4411 94.0
4343 4345 397.0
4343 4361 975.0
4343 4373 430.0
4343 4399 677.0
4344 4352 125.0
4344 4384 112.0
4344 4385 291.0
4344 4401 430.0
4344 4408 636.0
4344 4413 259.0
4345 4346 53.0
4345 4347 576.0
4345 4361 378.0
4345 4365 914.0
4345 4368 65.0
4345 4373 946.0
4345 4381 957.0
4345 4395 612.0
4345 4406 955.0
4345 4409 967.0
4345 4419 256.0
4346 4357 820.0
4346 4360 432.0
4346 4377 947.0
4346 4381 569.0
4346 4407 646.0
4346 4417 688.0
4346 4418 87.0
4347 4381 14.0
4347 4398 624.0
4347 4402 176.0
4348 4417 456.0
4349 4402 385.0
4350 4351 530.0
4351 4359 455.0
4351 4416 828.0
4352 4363 58.0
4352 4374 738.0
4352 4376 487.0
4352 4381 784.0
4352 4384 532.0
4352 4392 757.0
4352 4398 656.0
4352 4401 960.0
4352 4408 377.0
4352 4413 630.0
4353 4377 76.0
4353 4396 17.0
4353 4412 842.0
4354 4404 446.0
4354 4410 777.0
4355 4391 510.0
4355 4403 752.0
4356 4357 269.0
4357 4377 664.0
4357 4407 47.0
4357 4417 644.0
4358 4359 649.0
4358 4364 820.0
4358 4416 881.0
4359 4364 770.0
4359 4371 636.0
4359 4372 365.0
4359 4380 647.0
4359 4383 705.0
4359 4388 701.0
4359 4416 351.0
4360 4409 18.0
4361 4372 845.0
4361 4373 457.0
4361 4395 392.0
4361 4405 706.0
4361 4406 720.0
4361 4418 519.0
4361 4419 966.0
4362 4363 867.0
4363 4369 33.0
4363 4370 238.0
4364 4371 39.0
4364 4372 759.0
4364 4373 308.0
4364 4383 36.0
4365 4368 596.0
4365 4372 544.0
4365 4373 870.0
4365 4399 168.0
4366 4367 753.0
4367 4368 4.0
4367 4374 228.0
4367 4376 611.0
4367 4392 729.0
4367 4404 816.0
4368 4375 625.0
4368 4404 363.0
4368 4411 951.0
4369 4374 242.0
4369 4392 982.0
4370 4374 963.0
4370 4392 526.0
4371 4372 612.0
4371 4380 460.0
4371 4397 100.0
4371 4416 798.0
4372 4373 103.0
4372 4391 52.0
4372 4395 357.0
4373 4395 785.0
4373 4396 311.0
4373 4405 312.0
4373 4412 574.0
4374 4376 17.0
4374 4384 373.0
4374 4392 764.0
4375 4381 280.0
4376 4384 350.0
4376 4392 424.0
4378 4415 188.0
4379 4380 874.0
4380 4416 679.0
4381 4398 354.0
4381 4402 623.0
4381 4408 135.0
4382 4397 214.0
4382 4399 194.0
4383 4391 139.0
4383 4395 500.0
4383 4403 208.0
4384 4385 106.0
4384 4386 857.0
4384 4392 528.0
4384 4401 845.0
4384 4402 517.0
4384 4408 437.0
4384 4413 445.0
4385 4413 997.0
4386 4402 617.0
4386 4415 641.0
4389 4391 864.0
4390 4391 33.0
4391 4395 310.0
4391 4396 577.0
4392 4401 861.0
4392 4410 652.0
4393 4395 543.0
4394 4396 559.0
4395 4396 99.0
4398 4402 914.0
4401 4402 214.0
4401 4408 737.0
4401 4413 37.0
4404 4410 5.0
4404 4414 569.0
4408 4413 782.0
4420 4421 863.0
4421 4435 342.0
4421 4436 335.0
4421 4442 671.0
4422 4424 266.0
4422 4432 590.0
4426 4430 96.0
4427 4429 42.0
4427 4443 715.0
4431 4433 554.0
4432 4435 858.0
4434 4435 819.0
4435 4436 463.0
4436 4439 9.0
4436 4442 724.0
4437 4439 903.0
4437 4441 204.0
4438 4439 43.0
4439 4441 630.0
4440 4441 736.0
4441 4442 704.0
4442 4443 218.0
4444 4458 455.0
4444 4462 831.0
4445 4448 242.0
4446 4461 951.0
4447 4448 68.0
4448 4458 192.0
4449 4462 709.0
4450 4462 625.0
4451 4454 787.0
4452 4454 257.0
4453 4455 315.0
4454 4458 135.0
4455 4456 38.0
4455 4458 104.0
4457 4458 586.0
4458 4459 132.0
4458 4463 909.0
4458 4464 475.0
4458 4465 606.0
4458 4466 1000.0
4460 4461 365.0
4467 4485 378.0
4467 4553 876.0
4468 4485 109.0
4468 4613 688.0
4469 4507 316.0
4469 4526 903.0
4469 4602 870.0
4469 4626 979.0
4469 4796 272.0
4470 4639 259.0
4470 4676 765.0
4470 4766 798.0
4471 4475 942.0
4471 4590 751.0
4472 4671 363.0
4473 4474 849.0
4473 4508 729.0
4473 4605 967.0
4473 4617 285.0
4473 4646 971.0
4474 4476 198.0
4474 4652 752.0
4474 4867 125.0
4475 4559 283.0
4476 4477 201.0
4476 4628 826.0
4476 4662 591.0
4476 4678 664.0
4477 4574 349.0
4477 4832 162.0
4478 4479 969.0
4478 4485 597.0
4479 4655 986.0
4480 4481 139.0
4480 4485 380.0
4481 4655 682.0
4482 4483 798.0
4482 4590 585.0
4482 4772 707.0
4483 4501 635.0
4483 4876 56.0
4484 4540 805.0
4484 4688 282.0
4485 4496 452.0
4485 4530 468.0
4485 4601 7.0
4486 4487 802.0
4486 4533 709.0
4486 4550 438.0
4487 4588 654.0
4487 4703 699.0
4488 4529 418.0
4488 4562 34.0
4489 4509 761.0
4489 4610 754.0
4490 4500 226.0
4490 4648 405.0
4491 4492 699.0
4491 4580 694.0
4491 4584 297.0
4491 4669 952.0
4492 4543 356.0
4492 4582 394.0
4493 4510 365.0
4493 4616 387.0
4493 4660 733.0
4493 4797 282.0
4494 4596 120.0
4494 4702 624.0
4495 4553 489.0
4495 4659 463.0
4496 4767 901.0
4497 4547 243.0
4497 4606 637.0
4497 4798 115.0
4498 4499 192.0
4498 4500 446.0
4499 4674 247.0
4500 4501 147.0
4500 4764 775.0
4500 4765 462.0
4502 4503 743.0
4503 4561 510.0
4503 4617 779.0
4504 4522 7.0
4504 4589 715.0
4505 4506 865.0
4505 4600 731.0
4506 4546 332.0
4506 4660 1000.0
4507 4535 64.0
4508 4542 698.0
4508 4575 102.0
4508 4636 526.0
4509 4664 216.0
4510 4626 440.0
4511 4643 631.0
4511 4702 414.0
4512 4518 707.0
4512 4607 922.0
4512 4613 72.0
4512 4696 840.0
4513 4514 112.0
4513 4581 397.0
4513 4598 719.0
4515 4585 862.0
4515 4669 526.0
4516 4517 253.0
4516 4554 870.0
4516 4614 902.0
4517 4661 308.0
4518 4691 309.0
4518 4778 934.0
4518 4782 222.0
4519 4520 315.0
4519 4597 165.0
4520 4521 886.0
4520 4592 67.0
4520 4620 799.0
4520 4699 989.0
4520 4800 283.0
4520 4801 709.0
4520 4802 827.0
4522 4554 151.0
4522 4620 172.0
4522 4768 620.0
4523 4545 691.0
4523 4654 739.0
4524 4579 762.0
4524 4659 590.0
4525 4686 630.0
4525 4759 484.0
4526 4803 887.0
4526 4804 495.0
4527 4528 462.0
4528 4545 576.0
4528 4676 591.0
4529 4767 925.0
4530 4687 315.0
4531 4542 289.0
4531 4611 83.0
4531 4650 81.0
4532 4596 292.0
4532 4651 608.0
4532 4826 449.0
4533 4547 978.0
4534 4535 936.0
4534 4541 666.0
4534 4618 975.0
4534 4673 295.0
4534 4722 420.0
4536 4631 832.0
4537 4567 369.0
4537 4686 59.0
4537 4861 314.0
4537 4866 855.0
4538 4597 315.0
4538 4771 789.0
4538 4805 310.0
4538 4806 38.0
4538 4807 709.0
4539 4763 810.0
4539 4808 554.0
4539 4809 330.0
4540 4588 229.0
4540 4789 131.0
4541 4651 918.0
4541 4816 315.0
4542 4675 230.0
4542 4799 129.0
4543 4662 705.0
4544 4579 804.0
4546 4700 193.0
4547 4606 243.0
4548 4549 26.0
4548 4638 335.0
4549 4576 525.0
4549 4648 924.0
4550 4624 352.0
4551 4584 582.0
4551 4586 744.0
4552 4627 894.0
4552 4652 264.0
4552 4719 616.0
4553 4568 514.0
4554 4666 131.0
4554 4701 394.0
4555 4579 287.0
4555 4592 521.0
4556 4648 261.0
4556 4670 276.0
4557 4561 103.0
4557 4643 326.0
4558 4700 156.0
4560 4622 726.0
4560 4677 910.0
4561 4811 488.0
4562 4612 382.0
4562 4622 374.0
4562 4679 386.0
4563 4684 432.0
4564 4565 523.0
4564 4602 628.0
4564 4813 542.0
4564 4814 869.0
4564 4815 605.0
4565 4602 160.0
4565 4640 169.0
4566 4567 52.0
4566 4763 294.0
4567 4667 890.0
4568 4679 406.0
4569 4637 250.0
4569 4651 282.0
4570 4571 811.0
4570 4614 7.0
4570 4621 120.0
4570 4761 118.0
4571 4628 634.0
4572 4573 653.0
4573 4574 711.0
4573 4652 587.0
4574 4594 28.0
4574 4595 340.0
4574 4656 908.0
4575 4820 619.0
4577 4621 302.0
4577 4661 338.0
4578 4722 655.0
4579 4598 270.0
4581 4582 936.0
4581 4659 220.0
4583 4622 467.0
4583 4623 102.0
4585 4587 495.0
4585 4589 626.0
4586 4589 65.0
4588 4694 789.0
4588 4788 720.0
4590 4657 515.0
4591 4665 718.0
4591 4723 505.0
4592 4635 292.0
4593 4611 344.0
4599 4820 147.0
4600 4624 448.0
4601 4654 516.0
4602 4611 325.0
4602 4641 295.0
4602 4820 372.0
4604 4605 919.0
4605 4619 997.0
4606 4703 496.0
4607 4608 791.0
4607 4630 226.0
4608 4644 870.0
4608 4655 11.0
4608 4690 605.0
4609 4686 74.0
4609 4773 996.0
4610 4636 359.0
4615 4643 653.0
4615 4654 656.0
4616 4683 846.0
4616 4791 160.0
4619 4625 296.0
4619 4637 491.0
4620 4776 377.0
4621 4633 831.0
4626 4786 655.0
4627 4649 433.0
4627 4733 382.0
4628 4662 211.0
4629 4653 205.0
4630 4672 12.0
4632 4743 848.0
4633 4664 486.0
4634 4683 165.0
4637 4642 326.0
4639 4689 345.0
4640 4641 271.0
4640 4821 918.0
4641 4645 811.0
4643 4644 623.0
4644 4652 966.0
4645 4668 888.0
4646 4675 893.0
4647 4674 775.0
4649 4739 557.0
4649 4750 120.0
4649 4753 477.0
4651 4652 295.0
4651 4723 563.0
4651 4826 429.0
4653 4654 605.0
4655 4656 666.0
4657 4687 242.0
4658 4660 280.0
4658 4700 706.0
4660 4688 461.0
4661 4662 611.0
4663 4664 495.0
4667 4686 530.0
4667 4779 194.0
4670 4689 426.0
4670 4827 361.0
4671 4674 950.0
4672 4676 296.0
4673 4823 976.0
4675 4799 458.0
4677 4678 683.0
4677 4684 652.0
4680 4826 963.0
4681 4771 657.0
4681 4825 579.0
4682 4683 71.0
4685 4686 996.0
4685 4771 323.0
4689 4690 198.0
4689 4691 742.0
4691 4781 588.0
4692 4694 684.0
4693 4695 976.0
4694 4695 706.0
4695 4927 842.0
4697 4699 562.0
4697 4818 255.0
4698 4699 780.0
4703 4793 915.0
4704 4711 873.0
4704 4746 129.0
4705 4714 239.0
4705 4745 453.0
4706 4716 133.0
4706 4719 143.0
4707 4713 688.0
4707 4716 191.0
4708 4728 198.0
4708 4729 691.0
4708 4733 857.0
4708 4746 655.0
4708 4752 434.0
4709 4728 687.0
4709 4729 433.0
4710 4714 778.0
4710 4724 374.0
4711 4735 387.0
4712 4727 382.0
4712 4728 722.0
4713 4732 548.0
4715 4727 546.0
4715 4751 890.0
4717 4720 876.0
4717 4728 587.0
4718 4731 69.0
4718 4737 149.0
4719 4732 476.0
4720 4736 203.0
4721 4739 23.0
4721 4751 463.0
4721 4755 145.0
4722 4723 224.0
4724 4735 209.0
4725 4727 193.0
4725 4754 926.0
4726 4749 205.0
4726 4756 419.0
4726 4784 215.0
4727 4736 204.0
4727 4774 59.0
4727 4775 192.0
4728 4748 842.0
4730 4748 576.0
4730 4751 987.0
4731 4738 901.0
4733 4740 712.0
4733 4745 133.0
4733 4757 51.0
4734 4738 996.0
4734 4744 933.0
4737 4739 704.0
4739 4742 698.0
4740 4747 802.0
4741 4742 36.0
4741 4747 720.0
4744 4751 158.0
4749 4754 40.0
4749 4784 23.0
4750 4751 502.0
4753 4754 520.0
4755 4758 315.0
4755 4812 283.0
4760 4761 662.0
4761 4777 452.0
4762 4768 105.0
4767 4769 753.0
4769 4770 469.0
4779 4780 865.0
4780 4824 690.0
4782 4827 701.0
4783 4784 267.0
4785 4786 843.0
4787 4794 225.0
4788 4792 4.0
4790 4791 590.0
4792 4793 410.0
4792 4795 670.0
4793 4794 130.0
4798 4822 85.0
4810 4823 382.0
4816 4817 588.0
4819 4820 418.0
4828 4866 497.0
4828 4884 147.0
4828 4897 621.0
4829 4866 761.0
4829 4874 954.0
4830 4831 442.0
4830 4845 58.0
4831 4899 884.0
4832 4837 781.0
4832 4841 235.0
4832 4889 361.0
4833 4896 83.0
4833 4898 645.0
4834 4847 396.0
4834 4916 18.0
4834 4923 594.0
4835 4836 228.0
4836 4837 204.0
4836 4849 343.0
4836 4884 996.0
4836 4897 455.0
4838 4881 518.0
4838 4890 574.0
4838 4904 470.0
4839 4903 350.0
4839 4904 156.0
4840 4841 580.0
4840 4842 310.0
4840 4843 665.0
4840 4867 838.0
4841 4844 71.0
4841 4887 601.0
4846 4848 934.0
4847 4848 810.0
4847 4878 205.0
4848 4873 826.0
4848 4883 625.0
4848 4900 285.0
4850 4908 880.0
4850 4909 351.0
4850 4922 221.0
4851 4855 57.0
4851 4892 662.0
4852 4860 210.0
4852 4882 59.0
4853 4854 74.0
4854 4897 634.0
4856 4859 931.0
4856 4871 8.0
4857 4859 242.0
4858 4860 495.0
4859 4860 6.0
4861 4867 797.0
4862 4863 552.0
4862 4878 52.0
4863 4877 585.0
4864 4879 404.0
4864 4887 719.0
4865 4923 976.0
4866 4867 471.0
4867 4868 44.0
4867 4869 54.0
4867 4925 935.0
4870 4880 812.0
4870 4913 637.0
4871 4893 903.0
4872 4873 917.0
4872 4890 502.0
4872 4905 819.0
4872 4917 388.0
4873 4891 554.0
4874 4884 321.0
4874 4885 346.0
4875 4876 938.0
4876 4883 832.0
4877 4885 262.0
4878 4879 438.0
4878 4881 210.0
4878 4914 234.0
4878 4920 389.0
4878 4924 320.0
4879 4902 644.0
4880 4900 21.0
4880 4915 133.0
4885 4886 880.0
4886 4887 845.0
4886 4888 894.0
4887 4889 521.0
4888 4889 257.0
4888 4900 969.0
4891 4893 804.0
4892 4893 534.0
4893 4894 317.0
4895 4925 338.0
4896 4926 560.0
4898 4899 667.0
4898 4926 795.0
4899 4925 723.0
4901 4902 571.0
4901 4907 6.0
4901 4909 490.0
4901 4921 560.0
4903 4905 307.0
4906 4907 298.0
4906 4908 810.0
4908 4919 523.0
4910 4914 401.0
4910 4924 230.0
4911 4921 398.0
4912 4923 762.0
4913 4918 746.0
4917 4922 751.0
4918 4924 743.0
4927 4928 530.0
4928 4929 736.0
4929 4938 178.0
4930 4931 148.0
4930 4937 593.0
4932 4934 330.0
4932 4935 589.0
4933 4934 234.0
4933 4939 918.0
4935 4937 799.0
4936 4938 339.0
4939 4940 198.0
